c description: Tseitin formula on random 4-regular graph on 20 verices, with odd charge
c generator: CNFgen (0.9.6)
c copyright: (C) 2012-2026 Massimo Lauria <massimo.lauria@uniroma1.it>
c url: https://massimolauria.net/cnfgen
c command line: cnfgen tseitin 20
c
p cnf 40 160
1 2 3 -4 0
1 2 -3 4 0
1 -2 3 4 0
1 -2 -3 -4 0
-1 2 3 4 0
-1 2 -3 -4 0
-1 -2 3 -4 0
-1 -2 -3 4 0
5 6 7 -8 0
5 6 -7 8 0
5 -6 7 8 0
5 -6 -7 -8 0
-5 6 7 8 0
-5 6 -7 -8 0
-5 -6 7 -8 0
-5 -6 -7 8 0
9 10 11 12 0
9 10 -11 -12 0
9 -10 11 -12 0
9 -10 -11 12 0
-9 10 11 -12 0
-9 10 -11 12 0
-9 -10 11 12 0
-9 -10 -11 -12 0
13 14 15 16 0
13 14 -15 -16 0
13 -14 15 -16 0
13 -14 -15 16 0
-13 14 15 -16 0
-13 14 -15 16 0
-13 -14 15 16 0
-13 -14 -15 -16 0
1 17 18 19 0
1 17 -18 -19 0
1 -17 18 -19 0
1 -17 -18 19 0
-1 17 18 -19 0
-1 17 -18 19 0
-1 -17 18 19 0
-1 -17 -18 -19 0
9 20 21 22 0
9 20 -21 -22 0
9 -20 21 -22 0
9 -20 -21 22 0
-9 20 21 -22 0
-9 20 -21 22 0
-9 -20 21 22 0
-9 -20 -21 -22 0
5 13 23 -24 0
5 13 -23 24 0
5 -13 23 24 0
5 -13 -23 -24 0
-5 13 23 24 0
-5 13 -23 -24 0
-5 -13 23 -24 0
-5 -13 -23 24 0
23 25 26 -27 0
23 25 -26 27 0
23 -25 26 27 0
23 -25 -26 -27 0
-23 25 26 27 0
-23 25 -26 -27 0
-23 -25 26 -27 0
-23 -25 -26 27 0
2 6 28 29 0
2 6 -28 -29 0
2 -6 28 -29 0
2 -6 -28 29 0
-2 6 28 -29 0
-2 6 -28 29 0
-2 -6 28 29 0
-2 -6 -28 -29 0
17 20 30 -31 0
17 20 -30 31 0
17 -20 30 31 0
17 -20 -30 -31 0
-17 20 30 31 0
-17 20 -30 -31 0
-17 -20 30 -31 0
-17 -20 -30 31 0
25 28 32 33 0
25 28 -32 -33 0
25 -28 32 -33 0
25 -28 -32 33 0
-25 28 32 -33 0
-25 28 -32 33 0
-25 -28 32 33 0
-25 -28 -32 -33 0
7 34 35 36 0
7 34 -35 -36 0
7 -34 35 -36 0
7 -34 -35 36 0
-7 34 35 -36 0
-7 34 -35 36 0
-7 -34 35 36 0
-7 -34 -35 -36 0
14 18 24 -30 0
14 18 -24 30 0
14 -18 24 30 0
14 -18 -24 -30 0
-14 18 24 30 0
-14 18 -24 -30 0
-14 -18 24 -30 0
-14 -18 -24 30 0
3 32 34 37 0
3 32 -34 -37 0
3 -32 34 -37 0
3 -32 -34 37 0
-3 32 34 -37 0
-3 32 -34 37 0
-3 -32 34 37 0
-3 -32 -34 -37 0
10 35 38 -39 0
10 35 -38 39 0
10 -35 38 39 0
10 -35 -38 -39 0
-10 35 38 39 0
-10 35 -38 -39 0
-10 -35 38 -39 0
-10 -35 -38 39 0
11 26 37 -40 0
11 26 -37 40 0
11 -26 37 40 0
11 -26 -37 -40 0
-11 26 37 40 0
-11 26 -37 -40 0
-11 -26 37 -40 0
-11 -26 -37 40 0
8 15 36 -38 0
8 15 -36 38 0
8 -15 36 38 0
8 -15 -36 -38 0
-8 15 36 38 0
-8 15 -36 -38 0
-8 -15 36 -38 0
-8 -15 -36 38 0
16 21 27 39 0
16 21 -27 -39 0
16 -21 27 -39 0
16 -21 -27 39 0
-16 21 27 -39 0
-16 21 -27 39 0
-16 -21 27 39 0
-16 -21 -27 -39 0
12 19 22 -29 0
12 19 -22 29 0
12 -19 22 29 0
12 -19 -22 -29 0
-12 19 22 29 0
-12 19 -22 -29 0
-12 -19 22 -29 0
-12 -19 -22 29 0
4 31 33 -40 0
4 31 -33 40 0
4 -31 33 40 0
4 -31 -33 -40 0
-4 31 33 40 0
-4 31 -33 -40 0
-4 -31 33 -40 0
-4 -31 -33 40 0
