c description: Tseitin formula on random 4-regular graph on 9 verices, with odd charge
c generator: CNFgen (0.9.6)
c copyright: (C) 2012-2026 Massimo Lauria <massimo.lauria@uniroma1.it>
c url: https://massimolauria.net/cnfgen
c command line: cnfgen tseitin 9
c
p cnf 18 72
1 2 3 4 0
1 2 -3 -4 0
1 -2 3 -4 0
1 -2 -3 4 0
-1 2 3 -4 0
-1 2 -3 4 0
-1 -2 3 4 0
-1 -2 -3 -4 0
1 5 6 7 0
1 5 -6 -7 0
1 -5 6 -7 0
1 -5 -6 7 0
-1 5 6 -7 0
-1 5 -6 7 0
-1 -5 6 7 0
-1 -5 -6 -7 0
2 8 9 -10 0
2 8 -9 10 0
2 -8 9 10 0
2 -8 -9 -10 0
-2 8 9 10 0
-2 8 -9 -10 0
-2 -8 9 -10 0
-2 -8 -9 10 0
3 5 11 12 0
3 5 -11 -12 0
3 -5 11 -12 0
3 -5 -11 12 0
-3 5 11 -12 0
-3 5 -11 12 0
-3 -5 11 12 0
-3 -5 -11 -12 0
13 14 15 -16 0
13 14 -15 16 0
13 -14 15 16 0
13 -14 -15 -16 0
-13 14 15 16 0
-13 14 -15 -16 0
-13 -14 15 -16 0
-13 -14 -15 16 0
6 8 11 -13 0
6 8 -11 13 0
6 -8 11 13 0
6 -8 -11 -13 0
-6 8 11 13 0
-6 8 -11 -13 0
-6 -8 11 -13 0
-6 -8 -11 13 0
4 9 14 -17 0
4 9 -14 17 0
4 -9 14 17 0
4 -9 -14 -17 0
-4 9 14 17 0
-4 9 -14 -17 0
-4 -9 14 -17 0
-4 -9 -14 17 0
10 15 17 18 0
10 15 -17 -18 0
10 -15 17 -18 0
10 -15 -17 18 0
-10 15 17 -18 0
-10 15 -17 18 0
-10 -15 17 18 0
-10 -15 -17 -18 0
7 12 16 18 0
7 12 -16 -18 0
7 -12 16 -18 0
7 -12 -16 18 0
-7 12 16 -18 0
-7 12 -16 18 0
-7 -12 16 18 0
-7 -12 -16 -18 0
