c description: Tseitin formula on random 4-regular graph on 7 verices, with odd charge
c generator: CNFgen (0.9.6)
c copyright: (C) 2012-2026 Massimo Lauria <massimo.lauria@uniroma1.it>
c url: https://massimolauria.net/cnfgen
c command line: cnfgen tseitin 7
c
p cnf 14 56
1 2 3 -4 0
1 2 -3 4 0
1 -2 3 4 0
1 -2 -3 -4 0
-1 2 3 4 0
-1 2 -3 -4 0
-1 -2 3 -4 0
-1 -2 -3 4 0
5 6 7 8 0
5 6 -7 -8 0
5 -6 7 -8 0
5 -6 -7 8 0
-5 6 7 -8 0
-5 6 -7 8 0
-5 -6 7 8 0
-5 -6 -7 -8 0
1 5 9 10 0
1 5 -9 -10 0
1 -5 9 -10 0
1 -5 -9 10 0
-1 5 9 -10 0
-1 5 -9 10 0
-1 -5 9 10 0
-1 -5 -9 -10 0
2 6 11 12 0
2 6 -11 -12 0
2 -6 11 -12 0
2 -6 -11 12 0
-2 6 11 -12 0
-2 6 -11 12 0
-2 -6 11 12 0
-2 -6 -11 -12 0
3 9 11 13 0
3 9 -11 -13 0
3 -9 11 -13 0
3 -9 -11 13 0
-3 9 11 -13 0
-3 9 -11 13 0
-3 -9 11 13 0
-3 -9 -11 -13 0
7 10 13 14 0
7 10 -13 -14 0
7 -10 13 -14 0
7 -10 -13 14 0
-7 10 13 -14 0
-7 10 -13 14 0
-7 -10 13 14 0
-7 -10 -13 -14 0
4 8 12 -14 0
4 8 -12 14 0
4 -8 12 14 0
4 -8 -12 -14 0
-4 8 12 14 0
-4 8 -12 -14 0
-4 -8 12 -14 0
-4 -8 -12 14 0
