c description: Tseitin formula on random 4-regular graph on 17 verices, with odd charge
c generator: CNFgen (0.9.6)
c copyright: (C) 2012-2026 Massimo Lauria <massimo.lauria@uniroma1.it>
c url: https://massimolauria.net/cnfgen
c command line: cnfgen tseitin 17
c
p cnf 34 136
1 2 3 4 0
1 2 -3 -4 0
1 -2 3 -4 0
1 -2 -3 4 0
-1 2 3 -4 0
-1 2 -3 4 0
-1 -2 3 4 0
-1 -2 -3 -4 0
1 5 6 7 0
1 5 -6 -7 0
1 -5 6 -7 0
1 -5 -6 7 0
-1 5 6 -7 0
-1 5 -6 7 0
-1 -5 6 7 0
-1 -5 -6 -7 0
8 9 10 -11 0
8 9 -10 11 0
8 -9 10 11 0
8 -9 -10 -11 0
-8 9 10 11 0
-8 9 -10 -11 0
-8 -9 10 -11 0
-8 -9 -10 11 0
5 12 13 -14 0
5 12 -13 14 0
5 -12 13 14 0
5 -12 -13 -14 0
-5 12 13 14 0
-5 12 -13 -14 0
-5 -12 13 -14 0
-5 -12 -13 14 0
12 15 16 -17 0
12 15 -16 17 0
12 -15 16 17 0
12 -15 -16 -17 0
-12 15 16 17 0
-12 15 -16 -17 0
-12 -15 16 -17 0
-12 -15 -16 17 0
8 18 19 20 0
8 18 -19 -20 0
8 -18 19 -20 0
8 -18 -19 20 0
-8 18 19 -20 0
-8 18 -19 20 0
-8 -18 19 20 0
-8 -18 -19 -20 0
15 21 22 -23 0
15 21 -22 23 0
15 -21 22 23 0
15 -21 -22 -23 0
-15 21 22 23 0
-15 21 -22 -23 0
-15 -21 22 -23 0
-15 -21 -22 23 0
2 16 21 24 0
2 16 -21 -24 0
2 -16 21 -24 0
2 -16 -21 24 0
-2 16 21 -24 0
-2 16 -21 24 0
-2 -16 21 24 0
-2 -16 -21 -24 0
13 24 25 -26 0
13 24 -25 26 0
13 -24 25 26 0
13 -24 -25 -26 0
-13 24 25 26 0
-13 24 -25 -26 0
-13 -24 25 -26 0
-13 -24 -25 26 0
18 22 25 -27 0
18 22 -25 27 0
18 -22 25 27 0
18 -22 -25 -27 0
-18 22 25 27 0
-18 22 -25 -27 0
-18 -22 25 -27 0
-18 -22 -25 27 0
6 28 29 30 0
6 28 -29 -30 0
6 -28 29 -30 0
6 -28 -29 30 0
-6 28 29 -30 0
-6 28 -29 30 0
-6 -28 29 30 0
-6 -28 -29 -30 0
3 19 28 31 0
3 19 -28 -31 0
3 -19 28 -31 0
3 -19 -28 31 0
-3 19 28 -31 0
-3 19 -28 31 0
-3 -19 28 31 0
-3 -19 -28 -31 0
9 29 32 33 0
9 29 -32 -33 0
9 -29 32 -33 0
9 -29 -32 33 0
-9 29 32 -33 0
-9 29 -32 33 0
-9 -29 32 33 0
-9 -29 -32 -33 0
7 10 23 34 0
7 10 -23 -34 0
7 -10 23 -34 0
7 -10 -23 34 0
-7 10 23 -34 0
-7 10 -23 34 0
-7 -10 23 34 0
-7 -10 -23 -34 0
11 17 26 -31 0
11 17 -26 31 0
11 -17 26 31 0
11 -17 -26 -31 0
-11 17 26 31 0
-11 17 -26 -31 0
-11 -17 26 -31 0
-11 -17 -26 31 0
20 27 32 -34 0
20 27 -32 34 0
20 -27 32 34 0
20 -27 -32 -34 0
-20 27 32 34 0
-20 27 -32 -34 0
-20 -27 32 -34 0
-20 -27 -32 34 0
4 14 30 33 0
4 14 -30 -33 0
4 -14 30 -33 0
4 -14 -30 33 0
-4 14 30 -33 0
-4 14 -30 33 0
-4 -14 30 33 0
-4 -14 -30 -33 0
