c description: Tseitin formula on random 4-regular graph on 18 verices, with odd charge
c generator: CNFgen (0.9.6)
c copyright: (C) 2012-2026 Massimo Lauria <massimo.lauria@uniroma1.it>
c url: https://massimolauria.net/cnfgen
c command line: cnfgen tseitin 18
c
p cnf 36 144
1 2 3 -4 0
1 2 -3 4 0
1 -2 3 4 0
1 -2 -3 -4 0
-1 2 3 4 0
-1 2 -3 -4 0
-1 -2 3 -4 0
-1 -2 -3 4 0
1 5 6 7 0
1 5 -6 -7 0
1 -5 6 -7 0
1 -5 -6 7 0
-1 5 6 -7 0
-1 5 -6 7 0
-1 -5 6 7 0
-1 -5 -6 -7 0
8 9 10 11 0
8 9 -10 -11 0
8 -9 10 -11 0
8 -9 -10 11 0
-8 9 10 -11 0
-8 9 -10 11 0
-8 -9 10 11 0
-8 -9 -10 -11 0
12 13 14 15 0
12 13 -14 -15 0
12 -13 14 -15 0
12 -13 -14 15 0
-12 13 14 -15 0
-12 13 -14 15 0
-12 -13 14 15 0
-12 -13 -14 -15 0
12 16 17 18 0
12 16 -17 -18 0
12 -16 17 -18 0
12 -16 -17 18 0
-12 16 17 -18 0
-12 16 -17 18 0
-12 -16 17 18 0
-12 -16 -17 -18 0
8 19 20 -21 0
8 19 -20 21 0
8 -19 20 21 0
8 -19 -20 -21 0
-8 19 20 21 0
-8 19 -20 -21 0
-8 -19 20 -21 0
-8 -19 -20 21 0
13 16 22 -23 0
13 16 -22 23 0
13 -16 22 23 0
13 -16 -22 -23 0
-13 16 22 23 0
-13 16 -22 -23 0
-13 -16 22 -23 0
-13 -16 -22 23 0
24 25 26 27 0
24 25 -26 -27 0
24 -25 26 -27 0
24 -25 -26 27 0
-24 25 26 -27 0
-24 25 -26 27 0
-24 -25 26 27 0
-24 -25 -26 -27 0
19 22 28 -29 0
19 22 -28 29 0
19 -22 28 29 0
19 -22 -28 -29 0
-19 22 28 29 0
-19 22 -28 -29 0
-19 -22 28 -29 0
-19 -22 -28 29 0
20 30 31 32 0
20 30 -31 -32 0
20 -30 31 -32 0
20 -30 -31 32 0
-20 30 31 -32 0
-20 30 -31 32 0
-20 -30 31 32 0
-20 -30 -31 -32 0
9 30 33 34 0
9 30 -33 -34 0
9 -30 33 -34 0
9 -30 -33 34 0
-9 30 33 -34 0
-9 30 -33 34 0
-9 -30 33 34 0
-9 -30 -33 -34 0
17 33 35 -36 0
17 33 -35 36 0
17 -33 35 36 0
17 -33 -35 -36 0
-17 33 35 36 0
-17 33 -35 -36 0
-17 -33 35 -36 0
-17 -33 -35 36 0
2 5 24 -31 0
2 5 -24 31 0
2 -5 24 31 0
2 -5 -24 -31 0
-2 5 24 31 0
-2 5 -24 -31 0
-2 -5 24 -31 0
-2 -5 -24 31 0
6 21 28 -35 0
6 21 -28 35 0
6 -21 28 35 0
6 -21 -28 -35 0
-6 21 28 35 0
-6 21 -28 -35 0
-6 -21 28 -35 0
-6 -21 -28 35 0
10 14 18 -36 0
10 14 -18 36 0
10 -14 18 36 0
10 -14 -18 -36 0
-10 14 18 36 0
-10 14 -18 -36 0
-10 -14 18 -36 0
-10 -14 -18 36 0
3 25 32 34 0
3 25 -32 -34 0
3 -25 32 -34 0
3 -25 -32 34 0
-3 25 32 -34 0
-3 25 -32 34 0
-3 -25 32 34 0
-3 -25 -32 -34 0
4 7 26 29 0
4 7 -26 -29 0
4 -7 26 -29 0
4 -7 -26 29 0
-4 7 26 -29 0
-4 7 -26 29 0
-4 -7 26 29 0
-4 -7 -26 -29 0
11 15 23 -27 0
11 15 -23 27 0
11 -15 23 27 0
11 -15 -23 -27 0
-11 15 23 27 0
-11 15 -23 -27 0
-11 -15 23 -27 0
-11 -15 -23 27 0
