c description: Tseitin formula on random 4-regular graph on 15 verices, with odd charge
c generator: CNFgen (0.9.6)
c copyright: (C) 2012-2026 Massimo Lauria <massimo.lauria@uniroma1.it>
c url: https://massimolauria.net/cnfgen
c command line: cnfgen tseitin 15
c
p cnf 30 120
1 2 3 4 0
1 2 -3 -4 0
1 -2 3 -4 0
1 -2 -3 4 0
-1 2 3 -4 0
-1 2 -3 4 0
-1 -2 3 4 0
-1 -2 -3 -4 0
5 6 7 8 0
5 6 -7 -8 0
5 -6 7 -8 0
5 -6 -7 8 0
-5 6 7 -8 0
-5 6 -7 8 0
-5 -6 7 8 0
-5 -6 -7 -8 0
9 10 11 -12 0
9 10 -11 12 0
9 -10 11 12 0
9 -10 -11 -12 0
-9 10 11 12 0
-9 10 -11 -12 0
-9 -10 11 -12 0
-9 -10 -11 12 0
5 13 14 15 0
5 13 -14 -15 0
5 -13 14 -15 0
5 -13 -14 15 0
-5 13 14 -15 0
-5 13 -14 15 0
-5 -13 14 15 0
-5 -13 -14 -15 0
1 16 17 18 0
1 16 -17 -18 0
1 -16 17 -18 0
1 -16 -17 18 0
-1 16 17 -18 0
-1 16 -17 18 0
-1 -16 17 18 0
-1 -16 -17 -18 0
9 19 20 -21 0
9 19 -20 21 0
9 -19 20 21 0
9 -19 -20 -21 0
-9 19 20 21 0
-9 19 -20 -21 0
-9 -19 20 -21 0
-9 -19 -20 21 0
13 16 22 23 0
13 16 -22 -23 0
13 -16 22 -23 0
13 -16 -22 23 0
-13 16 22 -23 0
-13 16 -22 23 0
-13 -16 22 23 0
-13 -16 -22 -23 0
17 19 24 -25 0
17 19 -24 25 0
17 -19 24 25 0
17 -19 -24 -25 0
-17 19 24 25 0
-17 19 -24 -25 0
-17 -19 24 -25 0
-17 -19 -24 25 0
14 20 26 -27 0
14 20 -26 27 0
14 -20 26 27 0
14 -20 -26 -27 0
-14 20 26 27 0
-14 20 -26 -27 0
-14 -20 26 -27 0
-14 -20 -26 27 0
24 28 29 30 0
24 28 -29 -30 0
24 -28 29 -30 0
24 -28 -29 30 0
-24 28 29 -30 0
-24 28 -29 30 0
-24 -28 29 30 0
-24 -28 -29 -30 0
6 10 18 -22 0
6 10 -18 22 0
6 -10 18 22 0
6 -10 -18 -22 0
-6 10 18 22 0
-6 10 -18 -22 0
-6 -10 18 -22 0
-6 -10 -18 22 0
2 23 26 28 0
2 23 -26 -28 0
2 -23 26 -28 0
2 -23 -26 28 0
-2 23 26 -28 0
-2 23 -26 28 0
-2 -23 26 28 0
-2 -23 -26 -28 0
3 7 11 15 0
3 7 -11 -15 0
3 -7 11 -15 0
3 -7 -11 15 0
-3 7 11 -15 0
-3 7 -11 15 0
-3 -7 11 15 0
-3 -7 -11 -15 0
4 12 25 29 0
4 12 -25 -29 0
4 -12 25 -29 0
4 -12 -25 29 0
-4 12 25 -29 0
-4 12 -25 29 0
-4 -12 25 29 0
-4 -12 -25 -29 0
8 21 27 -30 0
8 21 -27 30 0
8 -21 27 30 0
8 -21 -27 -30 0
-8 21 27 30 0
-8 21 -27 -30 0
-8 -21 27 -30 0
-8 -21 -27 30 0
