c description: Tseitin formula on random 4-regular graph on 16 verices, with odd charge
c generator: CNFgen (0.9.6)
c copyright: (C) 2012-2026 Massimo Lauria <massimo.lauria@uniroma1.it>
c url: https://massimolauria.net/cnfgen
c command line: cnfgen tseitin 16
c
p cnf 32 128
1 2 3 4 0
1 2 -3 -4 0
1 -2 3 -4 0
1 -2 -3 4 0
-1 2 3 -4 0
-1 2 -3 4 0
-1 -2 3 4 0
-1 -2 -3 -4 0
5 6 7 -8 0
5 6 -7 8 0
5 -6 7 8 0
5 -6 -7 -8 0
-5 6 7 8 0
-5 6 -7 -8 0
-5 -6 7 -8 0
-5 -6 -7 8 0
9 10 11 -12 0
9 10 -11 12 0
9 -10 11 12 0
9 -10 -11 -12 0
-9 10 11 12 0
-9 10 -11 -12 0
-9 -10 11 -12 0
-9 -10 -11 12 0
13 14 15 -16 0
13 14 -15 16 0
13 -14 15 16 0
13 -14 -15 -16 0
-13 14 15 16 0
-13 14 -15 -16 0
-13 -14 15 -16 0
-13 -14 -15 16 0
13 17 18 19 0
13 17 -18 -19 0
13 -17 18 -19 0
13 -17 -18 19 0
-13 17 18 -19 0
-13 17 -18 19 0
-13 -17 18 19 0
-13 -17 -18 -19 0
1 9 17 -20 0
1 9 -17 20 0
1 -9 17 20 0
1 -9 -17 -20 0
-1 9 17 20 0
-1 9 -17 -20 0
-1 -9 17 -20 0
-1 -9 -17 20 0
5 10 18 21 0
5 10 -18 -21 0
5 -10 18 -21 0
5 -10 -18 21 0
-5 10 18 -21 0
-5 10 -18 21 0
-5 -10 18 21 0
-5 -10 -18 -21 0
6 22 23 24 0
6 22 -23 -24 0
6 -22 23 -24 0
6 -22 -23 24 0
-6 22 23 -24 0
-6 22 -23 24 0
-6 -22 23 24 0
-6 -22 -23 -24 0
14 19 22 25 0
14 19 -22 -25 0
14 -19 22 -25 0
14 -19 -22 25 0
-14 19 22 -25 0
-14 19 -22 25 0
-14 -19 22 25 0
-14 -19 -22 -25 0
7 26 27 28 0
7 26 -27 -28 0
7 -26 27 -28 0
7 -26 -27 28 0
-7 26 27 -28 0
-7 26 -27 28 0
-7 -26 27 28 0
-7 -26 -27 -28 0
15 23 29 30 0
15 23 -29 -30 0
15 -23 29 -30 0
15 -23 -29 30 0
-15 23 29 -30 0
-15 23 -29 30 0
-15 -23 29 30 0
-15 -23 -29 -30 0
11 16 31 -32 0
11 16 -31 32 0
11 -16 31 32 0
11 -16 -31 -32 0
-11 16 31 32 0
-11 16 -31 -32 0
-11 -16 31 -32 0
-11 -16 -31 32 0
2 8 21 31 0
2 8 -21 -31 0
2 -8 21 -31 0
2 -8 -21 31 0
-2 8 21 -31 0
-2 8 -21 31 0
-2 -8 21 31 0
-2 -8 -21 -31 0
3 25 26 32 0
3 25 -26 -32 0
3 -25 26 -32 0
3 -25 -26 32 0
-3 25 26 -32 0
-3 25 -26 32 0
-3 -25 26 32 0
-3 -25 -26 -32 0
20 24 27 29 0
20 24 -27 -29 0
20 -24 27 -29 0
20 -24 -27 29 0
-20 24 27 -29 0
-20 24 -27 29 0
-20 -24 27 29 0
-20 -24 -27 -29 0
4 12 28 30 0
4 12 -28 -30 0
4 -12 28 -30 0
4 -12 -28 30 0
-4 12 28 -30 0
-4 12 -28 30 0
-4 -12 28 30 0
-4 -12 -28 -30 0
