c description: Tseitin formula on random 4-regular graph on 8 verices, with odd charge
c generator: CNFgen (0.9.6)
c copyright: (C) 2012-2026 Massimo Lauria <massimo.lauria@uniroma1.it>
c url: https://massimolauria.net/cnfgen
c command line: cnfgen tseitin 8
c
p cnf 16 64
1 2 3 -4 0
1 2 -3 4 0
1 -2 3 4 0
1 -2 -3 -4 0
-1 2 3 4 0
-1 2 -3 -4 0
-1 -2 3 -4 0
-1 -2 -3 4 0
1 5 6 -7 0
1 5 -6 7 0
1 -5 6 7 0
1 -5 -6 -7 0
-1 5 6 7 0
-1 5 -6 -7 0
-1 -5 6 -7 0
-1 -5 -6 7 0
2 8 9 10 0
2 8 -9 -10 0
2 -8 9 -10 0
2 -8 -9 10 0
-2 8 9 -10 0
-2 8 -9 10 0
-2 -8 9 10 0
-2 -8 -9 -10 0
5 8 11 -12 0
5 8 -11 12 0
5 -8 11 12 0
5 -8 -11 -12 0
-5 8 11 12 0
-5 8 -11 -12 0
-5 -8 11 -12 0
-5 -8 -11 12 0
3 6 13 14 0
3 6 -13 -14 0
3 -6 13 -14 0
3 -6 -13 14 0
-3 6 13 -14 0
-3 6 -13 14 0
-3 -6 13 14 0
-3 -6 -13 -14 0
7 11 15 -16 0
7 11 -15 16 0
7 -11 15 16 0
7 -11 -15 -16 0
-7 11 15 16 0
-7 11 -15 -16 0
-7 -11 15 -16 0
-7 -11 -15 16 0
4 9 13 15 0
4 9 -13 -15 0
4 -9 13 -15 0
4 -9 -13 15 0
-4 9 13 -15 0
-4 9 -13 15 0
-4 -9 13 15 0
-4 -9 -13 -15 0
10 12 14 -16 0
10 12 -14 16 0
10 -12 14 16 0
10 -12 -14 -16 0
-10 12 14 16 0
-10 12 -14 -16 0
-10 -12 14 -16 0
-10 -12 -14 16 0
