c description: Tseitin formula on random 4-regular graph on 10 verices, with odd charge
c generator: CNFgen (0.9.6)
c copyright: (C) 2012-2026 Massimo Lauria <massimo.lauria@uniroma1.it>
c url: https://massimolauria.net/cnfgen
c command line: cnfgen tseitin 10
c
p cnf 20 80
1 2 3 -4 0
1 2 -3 4 0
1 -2 3 4 0
1 -2 -3 -4 0
-1 2 3 4 0
-1 2 -3 -4 0
-1 -2 3 -4 0
-1 -2 -3 4 0
5 6 7 8 0
5 6 -7 -8 0
5 -6 7 -8 0
5 -6 -7 8 0
-5 6 7 -8 0
-5 6 -7 8 0
-5 -6 7 8 0
-5 -6 -7 -8 0
1 9 10 11 0
1 9 -10 -11 0
1 -9 10 -11 0
1 -9 -10 11 0
-1 9 10 -11 0
-1 9 -10 11 0
-1 -9 10 11 0
-1 -9 -10 -11 0
5 12 13 -14 0
5 12 -13 14 0
5 -12 13 14 0
5 -12 -13 -14 0
-5 12 13 14 0
-5 12 -13 -14 0
-5 -12 13 -14 0
-5 -12 -13 14 0
6 9 12 15 0
6 9 -12 -15 0
6 -9 12 -15 0
6 -9 -12 15 0
-6 9 12 -15 0
-6 9 -12 15 0
-6 -9 12 15 0
-6 -9 -12 -15 0
2 10 16 17 0
2 10 -16 -17 0
2 -10 16 -17 0
2 -10 -16 17 0
-2 10 16 -17 0
-2 10 -16 17 0
-2 -10 16 17 0
-2 -10 -16 -17 0
7 13 18 19 0
7 13 -18 -19 0
7 -13 18 -19 0
7 -13 -18 19 0
-7 13 18 -19 0
-7 13 -18 19 0
-7 -13 18 19 0
-7 -13 -18 -19 0
3 14 16 -20 0
3 14 -16 20 0
3 -14 16 20 0
3 -14 -16 -20 0
-3 14 16 20 0
-3 14 -16 -20 0
-3 -14 16 -20 0
-3 -14 -16 20 0
11 17 18 20 0
11 17 -18 -20 0
11 -17 18 -20 0
11 -17 -18 20 0
-11 17 18 -20 0
-11 17 -18 20 0
-11 -17 18 20 0
-11 -17 -18 -20 0
4 8 15 19 0
4 8 -15 -19 0
4 -8 15 -19 0
4 -8 -15 19 0
-4 8 15 -19 0
-4 8 -15 19 0
-4 -8 15 19 0
-4 -8 -15 -19 0
