c description: Tseitin formula on random 4-regular graph on 11 verices, with odd charge
c generator: CNFgen (0.9.6)
c copyright: (C) 2012-2026 Massimo Lauria <massimo.lauria@uniroma1.it>
c url: https://massimolauria.net/cnfgen
c command line: cnfgen tseitin 11
c
p cnf 22 88
1 2 3 4 0
1 2 -3 -4 0
1 -2 3 -4 0
1 -2 -3 4 0
-1 2 3 -4 0
-1 2 -3 4 0
-1 -2 3 4 0
-1 -2 -3 -4 0
5 6 7 -8 0
5 6 -7 8 0
5 -6 7 8 0
5 -6 -7 -8 0
-5 6 7 8 0
-5 6 -7 -8 0
-5 -6 7 -8 0
-5 -6 -7 8 0
9 10 11 -12 0
9 10 -11 12 0
9 -10 11 12 0
9 -10 -11 -12 0
-9 10 11 12 0
-9 10 -11 -12 0
-9 -10 11 -12 0
-9 -10 -11 12 0
1 5 13 14 0
1 5 -13 -14 0
1 -5 13 -14 0
1 -5 -13 14 0
-1 5 13 -14 0
-1 5 -13 14 0
-1 -5 13 14 0
-1 -5 -13 -14 0
15 16 17 -18 0
15 16 -17 18 0
15 -16 17 18 0
15 -16 -17 -18 0
-15 16 17 18 0
-15 16 -17 -18 0
-15 -16 17 -18 0
-15 -16 -17 18 0
2 6 9 -19 0
2 6 -9 19 0
2 -6 9 19 0
2 -6 -9 -19 0
-2 6 9 19 0
-2 6 -9 -19 0
-2 -6 9 -19 0
-2 -6 -9 19 0
3 10 13 20 0
3 10 -13 -20 0
3 -10 13 -20 0
3 -10 -13 20 0
-3 10 13 -20 0
-3 10 -13 20 0
-3 -10 13 20 0
-3 -10 -13 -20 0
4 7 15 -20 0
4 7 -15 20 0
4 -7 15 20 0
4 -7 -15 -20 0
-4 7 15 20 0
-4 7 -15 -20 0
-4 -7 15 -20 0
-4 -7 -15 20 0
11 14 16 21 0
11 14 -16 -21 0
11 -14 16 -21 0
11 -14 -16 21 0
-11 14 16 -21 0
-11 14 -16 21 0
-11 -14 16 21 0
-11 -14 -16 -21 0
12 17 21 -22 0
12 17 -21 22 0
12 -17 21 22 0
12 -17 -21 -22 0
-12 17 21 22 0
-12 17 -21 -22 0
-12 -17 21 -22 0
-12 -17 -21 22 0
8 18 19 22 0
8 18 -19 -22 0
8 -18 19 -22 0
8 -18 -19 22 0
-8 18 19 -22 0
-8 18 -19 22 0
-8 -18 19 22 0
-8 -18 -19 -22 0
