c description: Tseitin formula on random 4-regular graph on 14 verices, with odd charge
c generator: CNFgen (0.9.6)
c copyright: (C) 2012-2026 Massimo Lauria <massimo.lauria@uniroma1.it>
c url: https://massimolauria.net/cnfgen
c command line: cnfgen tseitin 14
c
p cnf 28 112
1 2 3 -4 0
1 2 -3 4 0
1 -2 3 4 0
1 -2 -3 -4 0
-1 2 3 4 0
-1 2 -3 -4 0
-1 -2 3 -4 0
-1 -2 -3 4 0
5 6 7 -8 0
5 6 -7 8 0
5 -6 7 8 0
5 -6 -7 -8 0
-5 6 7 8 0
-5 6 -7 -8 0
-5 -6 7 -8 0
-5 -6 -7 8 0
1 9 10 11 0
1 9 -10 -11 0
1 -9 10 -11 0
1 -9 -10 11 0
-1 9 10 -11 0
-1 9 -10 11 0
-1 -9 10 11 0
-1 -9 -10 -11 0
2 12 13 -14 0
2 12 -13 14 0
2 -12 13 14 0
2 -12 -13 -14 0
-2 12 13 14 0
-2 12 -13 -14 0
-2 -12 13 -14 0
-2 -12 -13 14 0
15 16 17 -18 0
15 16 -17 18 0
15 -16 17 18 0
15 -16 -17 -18 0
-15 16 17 18 0
-15 16 -17 -18 0
-15 -16 17 -18 0
-15 -16 -17 18 0
5 15 19 -20 0
5 15 -19 20 0
5 -15 19 20 0
5 -15 -19 -20 0
-5 15 19 20 0
-5 15 -19 -20 0
-5 -15 19 -20 0
-5 -15 -19 20 0
3 9 21 22 0
3 9 -21 -22 0
3 -9 21 -22 0
3 -9 -21 22 0
-3 9 21 -22 0
-3 9 -21 22 0
-3 -9 21 22 0
-3 -9 -21 -22 0
6 16 21 23 0
6 16 -21 -23 0
6 -16 21 -23 0
6 -16 -21 23 0
-6 16 21 -23 0
-6 16 -21 23 0
-6 -16 21 23 0
-6 -16 -21 -23 0
10 12 19 24 0
10 12 -19 -24 0
10 -12 19 -24 0
10 -12 -19 24 0
-10 12 19 -24 0
-10 12 -19 24 0
-10 -12 19 24 0
-10 -12 -19 -24 0
7 20 25 26 0
7 20 -25 -26 0
7 -20 25 -26 0
7 -20 -25 26 0
-7 20 25 -26 0
-7 20 -25 26 0
-7 -20 25 26 0
-7 -20 -25 -26 0
8 17 25 -27 0
8 17 -25 27 0
8 -17 25 27 0
8 -17 -25 -27 0
-8 17 25 27 0
-8 17 -25 -27 0
-8 -17 25 -27 0
-8 -17 -25 27 0
11 22 27 28 0
11 22 -27 -28 0
11 -22 27 -28 0
11 -22 -27 28 0
-11 22 27 -28 0
-11 22 -27 28 0
-11 -22 27 28 0
-11 -22 -27 -28 0
13 23 26 28 0
13 23 -26 -28 0
13 -23 26 -28 0
13 -23 -26 28 0
-13 23 26 -28 0
-13 23 -26 28 0
-13 -23 26 28 0
-13 -23 -26 -28 0
4 14 18 -24 0
4 14 -18 24 0
4 -14 18 24 0
4 -14 -18 -24 0
-4 14 18 24 0
-4 14 -18 -24 0
-4 -14 18 -24 0
-4 -14 -18 24 0
