c description: Tseitin formula on random 4-regular graph on 6 verices, with odd charge
c generator: CNFgen (0.9.6)
c copyright: (C) 2012-2026 Massimo Lauria <massimo.lauria@uniroma1.it>
c url: https://massimolauria.net/cnfgen
c command line: cnfgen tseitin 6
c
p cnf 12 48
1 2 3 -4 0
1 2 -3 4 0
1 -2 3 4 0
1 -2 -3 -4 0
-1 2 3 4 0
-1 2 -3 -4 0
-1 -2 3 -4 0
-1 -2 -3 4 0
1 5 6 7 0
1 5 -6 -7 0
1 -5 6 -7 0
1 -5 -6 7 0
-1 5 6 -7 0
-1 5 -6 7 0
-1 -5 6 7 0
-1 -5 -6 -7 0
2 5 8 9 0
2 5 -8 -9 0
2 -5 8 -9 0
2 -5 -8 9 0
-2 5 8 -9 0
-2 5 -8 9 0
-2 -5 8 9 0
-2 -5 -8 -9 0
3 8 10 11 0
3 8 -10 -11 0
3 -8 10 -11 0
3 -8 -10 11 0
-3 8 10 -11 0
-3 8 -10 11 0
-3 -8 10 11 0
-3 -8 -10 -11 0
4 6 10 12 0
4 6 -10 -12 0
4 -6 10 -12 0
4 -6 -10 12 0
-4 6 10 -12 0
-4 6 -10 12 0
-4 -6 10 12 0
-4 -6 -10 -12 0
7 9 11 12 0
7 9 -11 -12 0
7 -9 11 -12 0
7 -9 -11 12 0
-7 9 11 -12 0
-7 9 -11 12 0
-7 -9 11 12 0
-7 -9 -11 -12 0
