c description: Tseitin formula on random 4-regular graph on 22 verices, with odd charge
c generator: CNFgen (0.9.6)
c copyright: (C) 2012-2026 Massimo Lauria <massimo.lauria@uniroma1.it>
c url: https://massimolauria.net/cnfgen
c command line: cnfgen tseitin 22
c
p cnf 44 176
1 2 3 -4 0
1 2 -3 4 0
1 -2 3 4 0
1 -2 -3 -4 0
-1 2 3 4 0
-1 2 -3 -4 0
-1 -2 3 -4 0
-1 -2 -3 4 0
5 6 7 -8 0
5 6 -7 8 0
5 -6 7 8 0
5 -6 -7 -8 0
-5 6 7 8 0
-5 6 -7 -8 0
-5 -6 7 -8 0
-5 -6 -7 8 0
1 9 10 11 0
1 9 -10 -11 0
1 -9 10 -11 0
1 -9 -10 11 0
-1 9 10 -11 0
-1 9 -10 11 0
-1 -9 10 11 0
-1 -9 -10 -11 0
12 13 14 -15 0
12 13 -14 15 0
12 -13 14 15 0
12 -13 -14 -15 0
-12 13 14 15 0
-12 13 -14 -15 0
-12 -13 14 -15 0
-12 -13 -14 15 0
16 17 18 -19 0
16 17 -18 19 0
16 -17 18 19 0
16 -17 -18 -19 0
-16 17 18 19 0
-16 17 -18 -19 0
-16 -17 18 -19 0
-16 -17 -18 19 0
5 20 21 22 0
5 20 -21 -22 0
5 -20 21 -22 0
5 -20 -21 22 0
-5 20 21 -22 0
-5 20 -21 22 0
-5 -20 21 22 0
-5 -20 -21 -22 0
6 23 24 25 0
6 23 -24 -25 0
6 -23 24 -25 0
6 -23 -24 25 0
-6 23 24 -25 0
-6 23 -24 25 0
-6 -23 24 25 0
-6 -23 -24 -25 0
2 26 27 28 0
2 26 -27 -28 0
2 -26 27 -28 0
2 -26 -27 28 0
-2 26 27 -28 0
-2 26 -27 28 0
-2 -26 27 28 0
-2 -26 -27 -28 0
12 23 29 -30 0
12 23 -29 30 0
12 -23 29 30 0
12 -23 -29 -30 0
-12 23 29 30 0
-12 23 -29 -30 0
-12 -23 29 -30 0
-12 -23 -29 30 0
7 16 20 -31 0
7 16 -20 31 0
7 -16 20 31 0
7 -16 -20 -31 0
-7 16 20 31 0
-7 16 -20 -31 0
-7 -16 20 -31 0
-7 -16 -20 31 0
3 17 21 -32 0
3 17 -21 32 0
3 -17 21 32 0
3 -17 -21 -32 0
-3 17 21 32 0
-3 17 -21 -32 0
-3 -17 21 -32 0
-3 -17 -21 32 0
26 32 33 34 0
26 32 -33 -34 0
26 -32 33 -34 0
26 -32 -33 34 0
-26 32 33 -34 0
-26 32 -33 34 0
-26 -32 33 34 0
-26 -32 -33 -34 0
8 27 35 36 0
8 27 -35 -36 0
8 -27 35 -36 0
8 -27 -35 36 0
-8 27 35 -36 0
-8 27 -35 36 0
-8 -27 35 36 0
-8 -27 -35 -36 0
9 31 37 -38 0
9 31 -37 38 0
9 -31 37 38 0
9 -31 -37 -38 0
-9 31 37 38 0
-9 31 -37 -38 0
-9 -31 37 -38 0
-9 -31 -37 38 0
39 40 41 42 0
39 40 -41 -42 0
39 -40 41 -42 0
39 -40 -41 42 0
-39 40 41 -42 0
-39 40 -41 42 0
-39 -40 41 42 0
-39 -40 -41 -42 0
24 35 37 39 0
24 35 -37 -39 0
24 -35 37 -39 0
24 -35 -37 39 0
-24 35 37 -39 0
-24 35 -37 39 0
-24 -35 37 39 0
-24 -35 -37 -39 0
13 18 22 -40 0
13 18 -22 40 0
13 -18 22 40 0
13 -18 -22 -40 0
-13 18 22 40 0
-13 18 -22 -40 0
-13 -18 22 -40 0
-13 -18 -22 40 0
29 33 43 44 0
29 33 -43 -44 0
29 -33 43 -44 0
29 -33 -43 44 0
-29 33 43 -44 0
-29 33 -43 44 0
-29 -33 43 44 0
-29 -33 -43 -44 0
25 28 41 43 0
25 28 -41 -43 0
25 -28 41 -43 0
25 -28 -41 43 0
-25 28 41 -43 0
-25 28 -41 43 0
-25 -28 41 43 0
-25 -28 -41 -43 0
4 14 30 42 0
4 14 -30 -42 0
4 -14 30 -42 0
4 -14 -30 42 0
-4 14 30 -42 0
-4 14 -30 42 0
-4 -14 30 42 0
-4 -14 -30 -42 0
10 34 36 38 0
10 34 -36 -38 0
10 -34 36 -38 0
10 -34 -36 38 0
-10 34 36 -38 0
-10 34 -36 38 0
-10 -34 36 38 0
-10 -34 -36 -38 0
11 15 19 44 0
11 15 -19 -44 0
11 -15 19 -44 0
11 -15 -19 44 0
-11 15 19 -44 0
-11 15 -19 44 0
-11 -15 19 44 0
-11 -15 -19 -44 0
