c description: Tseitin formula on random 4-regular graph on 21 verices, with odd charge
c generator: CNFgen (0.9.6)
c copyright: (C) 2012-2026 Massimo Lauria <massimo.lauria@uniroma1.it>
c url: https://massimolauria.net/cnfgen
c command line: cnfgen tseitin 21
c
p cnf 42 168
1 2 3 -4 0
1 2 -3 4 0
1 -2 3 4 0
1 -2 -3 -4 0
-1 2 3 4 0
-1 2 -3 -4 0
-1 -2 3 -4 0
-1 -2 -3 4 0
5 6 7 8 0
5 6 -7 -8 0
5 -6 7 -8 0
5 -6 -7 8 0
-5 6 7 -8 0
-5 6 -7 8 0
-5 -6 7 8 0
-5 -6 -7 -8 0
1 5 9 10 0
1 5 -9 -10 0
1 -5 9 -10 0
1 -5 -9 10 0
-1 5 9 -10 0
-1 5 -9 10 0
-1 -5 9 10 0
-1 -5 -9 -10 0
11 12 13 -14 0
11 12 -13 14 0
11 -12 13 14 0
11 -12 -13 -14 0
-11 12 13 14 0
-11 12 -13 -14 0
-11 -12 13 -14 0
-11 -12 -13 14 0
2 6 11 -15 0
2 6 -11 15 0
2 -6 11 15 0
2 -6 -11 -15 0
-2 6 11 15 0
-2 6 -11 -15 0
-2 -6 11 -15 0
-2 -6 -11 15 0
16 17 18 -19 0
16 17 -18 19 0
16 -17 18 19 0
16 -17 -18 -19 0
-16 17 18 19 0
-16 17 -18 -19 0
-16 -17 18 -19 0
-16 -17 -18 19 0
20 21 22 23 0
20 21 -22 -23 0
20 -21 22 -23 0
20 -21 -22 23 0
-20 21 22 -23 0
-20 21 -22 23 0
-20 -21 22 23 0
-20 -21 -22 -23 0
16 24 25 -26 0
16 24 -25 26 0
16 -24 25 26 0
16 -24 -25 -26 0
-16 24 25 26 0
-16 24 -25 -26 0
-16 -24 25 -26 0
-16 -24 -25 26 0
7 9 12 15 0
7 9 -12 -15 0
7 -9 12 -15 0
7 -9 -12 15 0
-7 9 12 -15 0
-7 9 -12 15 0
-7 -9 12 15 0
-7 -9 -12 -15 0
10 27 28 -29 0
10 27 -28 29 0
10 -27 28 29 0
10 -27 -28 -29 0
-10 27 28 29 0
-10 27 -28 -29 0
-10 -27 28 -29 0
-10 -27 -28 29 0
17 27 30 -31 0
17 27 -30 31 0
17 -27 30 31 0
17 -27 -30 -31 0
-17 27 30 31 0
-17 27 -30 -31 0
-17 -27 30 -31 0
-17 -27 -30 31 0
20 32 33 -34 0
20 32 -33 34 0
20 -32 33 34 0
20 -32 -33 -34 0
-20 32 33 34 0
-20 32 -33 -34 0
-20 -32 33 -34 0
-20 -32 -33 34 0
21 28 35 36 0
21 28 -35 -36 0
21 -28 35 -36 0
21 -28 -35 36 0
-21 28 35 -36 0
-21 28 -35 36 0
-21 -28 35 36 0
-21 -28 -35 -36 0
22 32 35 37 0
22 32 -35 -37 0
22 -32 35 -37 0
22 -32 -35 37 0
-22 32 35 -37 0
-22 32 -35 37 0
-22 -32 35 37 0
-22 -32 -35 -37 0
3 33 36 37 0
3 33 -36 -37 0
3 -33 36 -37 0
3 -33 -36 37 0
-3 33 36 -37 0
-3 33 -36 37 0
-3 -33 36 37 0
-3 -33 -36 -37 0
4 13 30 -38 0
4 13 -30 38 0
4 -13 30 38 0
4 -13 -30 -38 0
-4 13 30 38 0
-4 13 -30 -38 0
-4 -13 30 -38 0
-4 -13 -30 38 0
14 24 39 40 0
14 24 -39 -40 0
14 -24 39 -40 0
14 -24 -39 40 0
-14 24 39 -40 0
-14 24 -39 40 0
-14 -24 39 40 0
-14 -24 -39 -40 0
34 38 39 -41 0
34 38 -39 41 0
34 -38 39 41 0
34 -38 -39 -41 0
-34 38 39 41 0
-34 38 -39 -41 0
-34 -38 39 -41 0
-34 -38 -39 41 0
8 18 25 -42 0
8 18 -25 42 0
8 -18 25 42 0
8 -18 -25 -42 0
-8 18 25 42 0
-8 18 -25 -42 0
-8 -18 25 -42 0
-8 -18 -25 42 0
23 26 29 40 0
23 26 -29 -40 0
23 -26 29 -40 0
23 -26 -29 40 0
-23 26 29 -40 0
-23 26 -29 40 0
-23 -26 29 40 0
-23 -26 -29 -40 0
19 31 41 -42 0
19 31 -41 42 0
19 -31 41 42 0
19 -31 -41 -42 0
-19 31 41 42 0
-19 31 -41 -42 0
-19 -31 41 -42 0
-19 -31 -41 42 0
