c Problem generated from carry-save[n-bit] multiplication circuit
c by Paul Purdom and Amr Sabry
c
c Circuit for product = 99460729 [True,False,True,True,True,True,False,True,True,False,True,True,False,True,False,False,True,True,False,False,True,True,True,True,False,False,True]
c Variables for output [msb,...,lsb]: [2076,2075,2070,2065,2060,2055,2050,2045,2040,2035,2030,2025,2020,2015,2010,2005,2000,1995,1990,1985,1980,1975,1970,1965,1960,1956,1808,1657,1506,1355,1204,1053,902,751,600,449,298,147,69,41]
c Variables for first input [msb,...,lsb]: [26,25,24,23,22,21,20,19,18,17,16,15,14,13,12,11,10,9,8,7,6,5,4,3,2,1]
c Variables for second input [msb,...,lsb]: [40,39,38,37,36,35,34,33,32,31,30,29,28,27]
c
c
p cnf 2076 8184
1 27 -41 0
1 -27 -41 0
-1 27 -41 0
-1 -27 41 0
2 27 -42 0
2 -27 -42 0
-2 27 -42 0
-2 -27 42 0
3 27 -43 0
3 -27 -43 0
-3 27 -43 0
-3 -27 43 0
4 27 -44 0
4 -27 -44 0
-4 27 -44 0
-4 -27 44 0
5 27 -45 0
5 -27 -45 0
-5 27 -45 0
-5 -27 45 0
6 27 -46 0
6 -27 -46 0
-6 27 -46 0
-6 -27 46 0
7 27 -47 0
7 -27 -47 0
-7 27 -47 0
-7 -27 47 0
8 27 -48 0
8 -27 -48 0
-8 27 -48 0
-8 -27 48 0
9 27 -49 0
9 -27 -49 0
-9 27 -49 0
-9 -27 49 0
10 27 -50 0
10 -27 -50 0
-10 27 -50 0
-10 -27 50 0
11 27 -51 0
11 -27 -51 0
-11 27 -51 0
-11 -27 51 0
12 27 -52 0
12 -27 -52 0
-12 27 -52 0
-12 -27 52 0
13 27 -53 0
13 -27 -53 0
-13 27 -53 0
-13 -27 53 0
14 27 -54 0
14 -27 -54 0
-14 27 -54 0
-14 -27 54 0
15 27 -55 0
15 -27 -55 0
-15 27 -55 0
-15 -27 55 0
16 27 -56 0
16 -27 -56 0
-16 27 -56 0
-16 -27 56 0
17 27 -57 0
17 -27 -57 0
-17 27 -57 0
-17 -27 57 0
18 27 -58 0
18 -27 -58 0
-18 27 -58 0
-18 -27 58 0
19 27 -59 0
19 -27 -59 0
-19 27 -59 0
-19 -27 59 0
20 27 -60 0
20 -27 -60 0
-20 27 -60 0
-20 -27 60 0
21 27 -61 0
21 -27 -61 0
-21 27 -61 0
-21 -27 61 0
22 27 -62 0
22 -27 -62 0
-22 27 -62 0
-22 -27 62 0
23 27 -63 0
23 -27 -63 0
-23 27 -63 0
-23 -27 63 0
24 27 -64 0
24 -27 -64 0
-24 27 -64 0
-24 -27 64 0
25 27 -65 0
25 -27 -65 0
-25 27 -65 0
-25 -27 65 0
26 27 -66 0
26 -27 -66 0
-26 27 -66 0
-26 -27 66 0
1 28 -67 0
1 -28 -67 0
-1 28 -67 0
-1 -28 67 0
42 67 -68 0
42 -67 -68 0
-42 67 -68 0
-42 -67 68 0
42 67 -69 0
42 -67 69 0
-42 67 69 0
-42 -67 -69 0
2 28 -70 0
2 -28 -70 0
-2 28 -70 0
-2 -28 70 0
43 70 -71 0
43 -70 -71 0
-43 70 -71 0
-43 -70 71 0
43 70 -72 0
43 -70 72 0
-43 70 72 0
-43 -70 -72 0
3 28 -73 0
3 -28 -73 0
-3 28 -73 0
-3 -28 73 0
44 73 -74 0
44 -73 -74 0
-44 73 -74 0
-44 -73 74 0
44 73 -75 0
44 -73 75 0
-44 73 75 0
-44 -73 -75 0
4 28 -76 0
4 -28 -76 0
-4 28 -76 0
-4 -28 76 0
45 76 -77 0
45 -76 -77 0
-45 76 -77 0
-45 -76 77 0
45 76 -78 0
45 -76 78 0
-45 76 78 0
-45 -76 -78 0
5 28 -79 0
5 -28 -79 0
-5 28 -79 0
-5 -28 79 0
46 79 -80 0
46 -79 -80 0
-46 79 -80 0
-46 -79 80 0
46 79 -81 0
46 -79 81 0
-46 79 81 0
-46 -79 -81 0
6 28 -82 0
6 -28 -82 0
-6 28 -82 0
-6 -28 82 0
47 82 -83 0
47 -82 -83 0
-47 82 -83 0
-47 -82 83 0
47 82 -84 0
47 -82 84 0
-47 82 84 0
-47 -82 -84 0
7 28 -85 0
7 -28 -85 0
-7 28 -85 0
-7 -28 85 0
48 85 -86 0
48 -85 -86 0
-48 85 -86 0
-48 -85 86 0
48 85 -87 0
48 -85 87 0
-48 85 87 0
-48 -85 -87 0
8 28 -88 0
8 -28 -88 0
-8 28 -88 0
-8 -28 88 0
49 88 -89 0
49 -88 -89 0
-49 88 -89 0
-49 -88 89 0
49 88 -90 0
49 -88 90 0
-49 88 90 0
-49 -88 -90 0
9 28 -91 0
9 -28 -91 0
-9 28 -91 0
-9 -28 91 0
50 91 -92 0
50 -91 -92 0
-50 91 -92 0
-50 -91 92 0
50 91 -93 0
50 -91 93 0
-50 91 93 0
-50 -91 -93 0
10 28 -94 0
10 -28 -94 0
-10 28 -94 0
-10 -28 94 0
51 94 -95 0
51 -94 -95 0
-51 94 -95 0
-51 -94 95 0
51 94 -96 0
51 -94 96 0
-51 94 96 0
-51 -94 -96 0
11 28 -97 0
11 -28 -97 0
-11 28 -97 0
-11 -28 97 0
52 97 -98 0
52 -97 -98 0
-52 97 -98 0
-52 -97 98 0
52 97 -99 0
52 -97 99 0
-52 97 99 0
-52 -97 -99 0
12 28 -100 0
12 -28 -100 0
-12 28 -100 0
-12 -28 100 0
53 100 -101 0
53 -100 -101 0
-53 100 -101 0
-53 -100 101 0
53 100 -102 0
53 -100 102 0
-53 100 102 0
-53 -100 -102 0
13 28 -103 0
13 -28 -103 0
-13 28 -103 0
-13 -28 103 0
54 103 -104 0
54 -103 -104 0
-54 103 -104 0
-54 -103 104 0
54 103 -105 0
54 -103 105 0
-54 103 105 0
-54 -103 -105 0
14 28 -106 0
14 -28 -106 0
-14 28 -106 0
-14 -28 106 0
55 106 -107 0
55 -106 -107 0
-55 106 -107 0
-55 -106 107 0
55 106 -108 0
55 -106 108 0
-55 106 108 0
-55 -106 -108 0
15 28 -109 0
15 -28 -109 0
-15 28 -109 0
-15 -28 109 0
56 109 -110 0
56 -109 -110 0
-56 109 -110 0
-56 -109 110 0
56 109 -111 0
56 -109 111 0
-56 109 111 0
-56 -109 -111 0
16 28 -112 0
16 -28 -112 0
-16 28 -112 0
-16 -28 112 0
57 112 -113 0
57 -112 -113 0
-57 112 -113 0
-57 -112 113 0
57 112 -114 0
57 -112 114 0
-57 112 114 0
-57 -112 -114 0
17 28 -115 0
17 -28 -115 0
-17 28 -115 0
-17 -28 115 0
58 115 -116 0
58 -115 -116 0
-58 115 -116 0
-58 -115 116 0
58 115 -117 0
58 -115 117 0
-58 115 117 0
-58 -115 -117 0
18 28 -118 0
18 -28 -118 0
-18 28 -118 0
-18 -28 118 0
59 118 -119 0
59 -118 -119 0
-59 118 -119 0
-59 -118 119 0
59 118 -120 0
59 -118 120 0
-59 118 120 0
-59 -118 -120 0
19 28 -121 0
19 -28 -121 0
-19 28 -121 0
-19 -28 121 0
60 121 -122 0
60 -121 -122 0
-60 121 -122 0
-60 -121 122 0
60 121 -123 0
60 -121 123 0
-60 121 123 0
-60 -121 -123 0
20 28 -124 0
20 -28 -124 0
-20 28 -124 0
-20 -28 124 0
61 124 -125 0
61 -124 -125 0
-61 124 -125 0
-61 -124 125 0
61 124 -126 0
61 -124 126 0
-61 124 126 0
-61 -124 -126 0
21 28 -127 0
21 -28 -127 0
-21 28 -127 0
-21 -28 127 0
62 127 -128 0
62 -127 -128 0
-62 127 -128 0
-62 -127 128 0
62 127 -129 0
62 -127 129 0
-62 127 129 0
-62 -127 -129 0
22 28 -130 0
22 -28 -130 0
-22 28 -130 0
-22 -28 130 0
63 130 -131 0
63 -130 -131 0
-63 130 -131 0
-63 -130 131 0
63 130 -132 0
63 -130 132 0
-63 130 132 0
-63 -130 -132 0
23 28 -133 0
23 -28 -133 0
-23 28 -133 0
-23 -28 133 0
64 133 -134 0
64 -133 -134 0
-64 133 -134 0
-64 -133 134 0
64 133 -135 0
64 -133 135 0
-64 133 135 0
-64 -133 -135 0
24 28 -136 0
24 -28 -136 0
-24 28 -136 0
-24 -28 136 0
65 136 -137 0
65 -136 -137 0
-65 136 -137 0
-65 -136 137 0
65 136 -138 0
65 -136 138 0
-65 136 138 0
-65 -136 -138 0
25 28 -139 0
25 -28 -139 0
-25 28 -139 0
-25 -28 139 0
66 139 -140 0
66 -139 -140 0
-66 139 -140 0
-66 -139 140 0
66 139 -141 0
66 -139 141 0
-66 139 141 0
-66 -139 -141 0
26 28 -142 0
26 -28 -142 0
-26 28 -142 0
-26 -28 142 0
1 29 -143 0
1 -29 -143 0
-1 29 -143 0
-1 -29 143 0
72 143 -144 0
72 -143 -144 0
-72 143 -144 0
-72 -143 144 0
72 143 -145 0
72 -143 145 0
-72 143 145 0
-72 -143 -145 0
68 145 -146 0
68 -145 -146 0
-68 145 -146 0
-68 -145 146 0
68 145 -147 0
68 -145 147 0
-68 145 147 0
-68 -145 -147 0
144 146 -148 0
144 -146 148 0
-144 146 148 0
-144 -146 -148 0
2 29 -149 0
2 -29 -149 0
-2 29 -149 0
-2 -29 149 0
75 149 -150 0
75 -149 -150 0
-75 149 -150 0
-75 -149 150 0
75 149 -151 0
75 -149 151 0
-75 149 151 0
-75 -149 -151 0
71 151 -152 0
71 -151 -152 0
-71 151 -152 0
-71 -151 152 0
71 151 -153 0
71 -151 153 0
-71 151 153 0
-71 -151 -153 0
150 152 -154 0
150 -152 154 0
-150 152 154 0
-150 -152 -154 0
3 29 -155 0
3 -29 -155 0
-3 29 -155 0
-3 -29 155 0
78 155 -156 0
78 -155 -156 0
-78 155 -156 0
-78 -155 156 0
78 155 -157 0
78 -155 157 0
-78 155 157 0
-78 -155 -157 0
74 157 -158 0
74 -157 -158 0
-74 157 -158 0
-74 -157 158 0
74 157 -159 0
74 -157 159 0
-74 157 159 0
-74 -157 -159 0
156 158 -160 0
156 -158 160 0
-156 158 160 0
-156 -158 -160 0
4 29 -161 0
4 -29 -161 0
-4 29 -161 0
-4 -29 161 0
81 161 -162 0
81 -161 -162 0
-81 161 -162 0
-81 -161 162 0
81 161 -163 0
81 -161 163 0
-81 161 163 0
-81 -161 -163 0
77 163 -164 0
77 -163 -164 0
-77 163 -164 0
-77 -163 164 0
77 163 -165 0
77 -163 165 0
-77 163 165 0
-77 -163 -165 0
162 164 -166 0
162 -164 166 0
-162 164 166 0
-162 -164 -166 0
5 29 -167 0
5 -29 -167 0
-5 29 -167 0
-5 -29 167 0
84 167 -168 0
84 -167 -168 0
-84 167 -168 0
-84 -167 168 0
84 167 -169 0
84 -167 169 0
-84 167 169 0
-84 -167 -169 0
80 169 -170 0
80 -169 -170 0
-80 169 -170 0
-80 -169 170 0
80 169 -171 0
80 -169 171 0
-80 169 171 0
-80 -169 -171 0
168 170 -172 0
168 -170 172 0
-168 170 172 0
-168 -170 -172 0
6 29 -173 0
6 -29 -173 0
-6 29 -173 0
-6 -29 173 0
87 173 -174 0
87 -173 -174 0
-87 173 -174 0
-87 -173 174 0
87 173 -175 0
87 -173 175 0
-87 173 175 0
-87 -173 -175 0
83 175 -176 0
83 -175 -176 0
-83 175 -176 0
-83 -175 176 0
83 175 -177 0
83 -175 177 0
-83 175 177 0
-83 -175 -177 0
174 176 -178 0
174 -176 178 0
-174 176 178 0
-174 -176 -178 0
7 29 -179 0
7 -29 -179 0
-7 29 -179 0
-7 -29 179 0
90 179 -180 0
90 -179 -180 0
-90 179 -180 0
-90 -179 180 0
90 179 -181 0
90 -179 181 0
-90 179 181 0
-90 -179 -181 0
86 181 -182 0
86 -181 -182 0
-86 181 -182 0
-86 -181 182 0
86 181 -183 0
86 -181 183 0
-86 181 183 0
-86 -181 -183 0
180 182 -184 0
180 -182 184 0
-180 182 184 0
-180 -182 -184 0
8 29 -185 0
8 -29 -185 0
-8 29 -185 0
-8 -29 185 0
93 185 -186 0
93 -185 -186 0
-93 185 -186 0
-93 -185 186 0
93 185 -187 0
93 -185 187 0
-93 185 187 0
-93 -185 -187 0
89 187 -188 0
89 -187 -188 0
-89 187 -188 0
-89 -187 188 0
89 187 -189 0
89 -187 189 0
-89 187 189 0
-89 -187 -189 0
186 188 -190 0
186 -188 190 0
-186 188 190 0
-186 -188 -190 0
9 29 -191 0
9 -29 -191 0
-9 29 -191 0
-9 -29 191 0
96 191 -192 0
96 -191 -192 0
-96 191 -192 0
-96 -191 192 0
96 191 -193 0
96 -191 193 0
-96 191 193 0
-96 -191 -193 0
92 193 -194 0
92 -193 -194 0
-92 193 -194 0
-92 -193 194 0
92 193 -195 0
92 -193 195 0
-92 193 195 0
-92 -193 -195 0
192 194 -196 0
192 -194 196 0
-192 194 196 0
-192 -194 -196 0
10 29 -197 0
10 -29 -197 0
-10 29 -197 0
-10 -29 197 0
99 197 -198 0
99 -197 -198 0
-99 197 -198 0
-99 -197 198 0
99 197 -199 0
99 -197 199 0
-99 197 199 0
-99 -197 -199 0
95 199 -200 0
95 -199 -200 0
-95 199 -200 0
-95 -199 200 0
95 199 -201 0
95 -199 201 0
-95 199 201 0
-95 -199 -201 0
198 200 -202 0
198 -200 202 0
-198 200 202 0
-198 -200 -202 0
11 29 -203 0
11 -29 -203 0
-11 29 -203 0
-11 -29 203 0
102 203 -204 0
102 -203 -204 0
-102 203 -204 0
-102 -203 204 0
102 203 -205 0
102 -203 205 0
-102 203 205 0
-102 -203 -205 0
98 205 -206 0
98 -205 -206 0
-98 205 -206 0
-98 -205 206 0
98 205 -207 0
98 -205 207 0
-98 205 207 0
-98 -205 -207 0
204 206 -208 0
204 -206 208 0
-204 206 208 0
-204 -206 -208 0
12 29 -209 0
12 -29 -209 0
-12 29 -209 0
-12 -29 209 0
105 209 -210 0
105 -209 -210 0
-105 209 -210 0
-105 -209 210 0
105 209 -211 0
105 -209 211 0
-105 209 211 0
-105 -209 -211 0
101 211 -212 0
101 -211 -212 0
-101 211 -212 0
-101 -211 212 0
101 211 -213 0
101 -211 213 0
-101 211 213 0
-101 -211 -213 0
210 212 -214 0
210 -212 214 0
-210 212 214 0
-210 -212 -214 0
13 29 -215 0
13 -29 -215 0
-13 29 -215 0
-13 -29 215 0
108 215 -216 0
108 -215 -216 0
-108 215 -216 0
-108 -215 216 0
108 215 -217 0
108 -215 217 0
-108 215 217 0
-108 -215 -217 0
104 217 -218 0
104 -217 -218 0
-104 217 -218 0
-104 -217 218 0
104 217 -219 0
104 -217 219 0
-104 217 219 0
-104 -217 -219 0
216 218 -220 0
216 -218 220 0
-216 218 220 0
-216 -218 -220 0
14 29 -221 0
14 -29 -221 0
-14 29 -221 0
-14 -29 221 0
111 221 -222 0
111 -221 -222 0
-111 221 -222 0
-111 -221 222 0
111 221 -223 0
111 -221 223 0
-111 221 223 0
-111 -221 -223 0
107 223 -224 0
107 -223 -224 0
-107 223 -224 0
-107 -223 224 0
107 223 -225 0
107 -223 225 0
-107 223 225 0
-107 -223 -225 0
222 224 -226 0
222 -224 226 0
-222 224 226 0
-222 -224 -226 0
15 29 -227 0
15 -29 -227 0
-15 29 -227 0
-15 -29 227 0
114 227 -228 0
114 -227 -228 0
-114 227 -228 0
-114 -227 228 0
114 227 -229 0
114 -227 229 0
-114 227 229 0
-114 -227 -229 0
110 229 -230 0
110 -229 -230 0
-110 229 -230 0
-110 -229 230 0
110 229 -231 0
110 -229 231 0
-110 229 231 0
-110 -229 -231 0
228 230 -232 0
228 -230 232 0
-228 230 232 0
-228 -230 -232 0
16 29 -233 0
16 -29 -233 0
-16 29 -233 0
-16 -29 233 0
117 233 -234 0
117 -233 -234 0
-117 233 -234 0
-117 -233 234 0
117 233 -235 0
117 -233 235 0
-117 233 235 0
-117 -233 -235 0
113 235 -236 0
113 -235 -236 0
-113 235 -236 0
-113 -235 236 0
113 235 -237 0
113 -235 237 0
-113 235 237 0
-113 -235 -237 0
234 236 -238 0
234 -236 238 0
-234 236 238 0
-234 -236 -238 0
17 29 -239 0
17 -29 -239 0
-17 29 -239 0
-17 -29 239 0
120 239 -240 0
120 -239 -240 0
-120 239 -240 0
-120 -239 240 0
120 239 -241 0
120 -239 241 0
-120 239 241 0
-120 -239 -241 0
116 241 -242 0
116 -241 -242 0
-116 241 -242 0
-116 -241 242 0
116 241 -243 0
116 -241 243 0
-116 241 243 0
-116 -241 -243 0
240 242 -244 0
240 -242 244 0
-240 242 244 0
-240 -242 -244 0
18 29 -245 0
18 -29 -245 0
-18 29 -245 0
-18 -29 245 0
123 245 -246 0
123 -245 -246 0
-123 245 -246 0
-123 -245 246 0
123 245 -247 0
123 -245 247 0
-123 245 247 0
-123 -245 -247 0
119 247 -248 0
119 -247 -248 0
-119 247 -248 0
-119 -247 248 0
119 247 -249 0
119 -247 249 0
-119 247 249 0
-119 -247 -249 0
246 248 -250 0
246 -248 250 0
-246 248 250 0
-246 -248 -250 0
19 29 -251 0
19 -29 -251 0
-19 29 -251 0
-19 -29 251 0
126 251 -252 0
126 -251 -252 0
-126 251 -252 0
-126 -251 252 0
126 251 -253 0
126 -251 253 0
-126 251 253 0
-126 -251 -253 0
122 253 -254 0
122 -253 -254 0
-122 253 -254 0
-122 -253 254 0
122 253 -255 0
122 -253 255 0
-122 253 255 0
-122 -253 -255 0
252 254 -256 0
252 -254 256 0
-252 254 256 0
-252 -254 -256 0
20 29 -257 0
20 -29 -257 0
-20 29 -257 0
-20 -29 257 0
129 257 -258 0
129 -257 -258 0
-129 257 -258 0
-129 -257 258 0
129 257 -259 0
129 -257 259 0
-129 257 259 0
-129 -257 -259 0
125 259 -260 0
125 -259 -260 0
-125 259 -260 0
-125 -259 260 0
125 259 -261 0
125 -259 261 0
-125 259 261 0
-125 -259 -261 0
258 260 -262 0
258 -260 262 0
-258 260 262 0
-258 -260 -262 0
21 29 -263 0
21 -29 -263 0
-21 29 -263 0
-21 -29 263 0
132 263 -264 0
132 -263 -264 0
-132 263 -264 0
-132 -263 264 0
132 263 -265 0
132 -263 265 0
-132 263 265 0
-132 -263 -265 0
128 265 -266 0
128 -265 -266 0
-128 265 -266 0
-128 -265 266 0
128 265 -267 0
128 -265 267 0
-128 265 267 0
-128 -265 -267 0
264 266 -268 0
264 -266 268 0
-264 266 268 0
-264 -266 -268 0
22 29 -269 0
22 -29 -269 0
-22 29 -269 0
-22 -29 269 0
135 269 -270 0
135 -269 -270 0
-135 269 -270 0
-135 -269 270 0
135 269 -271 0
135 -269 271 0
-135 269 271 0
-135 -269 -271 0
131 271 -272 0
131 -271 -272 0
-131 271 -272 0
-131 -271 272 0
131 271 -273 0
131 -271 273 0
-131 271 273 0
-131 -271 -273 0
270 272 -274 0
270 -272 274 0
-270 272 274 0
-270 -272 -274 0
23 29 -275 0
23 -29 -275 0
-23 29 -275 0
-23 -29 275 0
138 275 -276 0
138 -275 -276 0
-138 275 -276 0
-138 -275 276 0
138 275 -277 0
138 -275 277 0
-138 275 277 0
-138 -275 -277 0
134 277 -278 0
134 -277 -278 0
-134 277 -278 0
-134 -277 278 0
134 277 -279 0
134 -277 279 0
-134 277 279 0
-134 -277 -279 0
276 278 -280 0
276 -278 280 0
-276 278 280 0
-276 -278 -280 0
24 29 -281 0
24 -29 -281 0
-24 29 -281 0
-24 -29 281 0
141 281 -282 0
141 -281 -282 0
-141 281 -282 0
-141 -281 282 0
141 281 -283 0
141 -281 283 0
-141 281 283 0
-141 -281 -283 0
137 283 -284 0
137 -283 -284 0
-137 283 -284 0
-137 -283 284 0
137 283 -285 0
137 -283 285 0
-137 283 285 0
-137 -283 -285 0
282 284 -286 0
282 -284 286 0
-282 284 286 0
-282 -284 -286 0
25 29 -287 0
25 -29 -287 0
-25 29 -287 0
-25 -29 287 0
142 287 -288 0
142 -287 -288 0
-142 287 -288 0
-142 -287 288 0
142 287 -289 0
142 -287 289 0
-142 287 289 0
-142 -287 -289 0
140 289 -290 0
140 -289 -290 0
-140 289 -290 0
-140 -289 290 0
140 289 -291 0
140 -289 291 0
-140 289 291 0
-140 -289 -291 0
288 290 -292 0
288 -290 292 0
-288 290 292 0
-288 -290 -292 0
26 29 -293 0
26 -29 -293 0
-26 29 -293 0
-26 -29 293 0
1 30 -294 0
1 -30 -294 0
-1 30 -294 0
-1 -30 294 0
153 294 -295 0
153 -294 -295 0
-153 294 -295 0
-153 -294 295 0
153 294 -296 0
153 -294 296 0
-153 294 296 0
-153 -294 -296 0
148 296 -297 0
148 -296 -297 0
-148 296 -297 0
-148 -296 297 0
148 296 -298 0
148 -296 298 0
-148 296 298 0
-148 -296 -298 0
295 297 -299 0
295 -297 299 0
-295 297 299 0
-295 -297 -299 0
2 30 -300 0
2 -30 -300 0
-2 30 -300 0
-2 -30 300 0
159 300 -301 0
159 -300 -301 0
-159 300 -301 0
-159 -300 301 0
159 300 -302 0
159 -300 302 0
-159 300 302 0
-159 -300 -302 0
154 302 -303 0
154 -302 -303 0
-154 302 -303 0
-154 -302 303 0
154 302 -304 0
154 -302 304 0
-154 302 304 0
-154 -302 -304 0
301 303 -305 0
301 -303 305 0
-301 303 305 0
-301 -303 -305 0
3 30 -306 0
3 -30 -306 0
-3 30 -306 0
-3 -30 306 0
165 306 -307 0
165 -306 -307 0
-165 306 -307 0
-165 -306 307 0
165 306 -308 0
165 -306 308 0
-165 306 308 0
-165 -306 -308 0
160 308 -309 0
160 -308 -309 0
-160 308 -309 0
-160 -308 309 0
160 308 -310 0
160 -308 310 0
-160 308 310 0
-160 -308 -310 0
307 309 -311 0
307 -309 311 0
-307 309 311 0
-307 -309 -311 0
4 30 -312 0
4 -30 -312 0
-4 30 -312 0
-4 -30 312 0
171 312 -313 0
171 -312 -313 0
-171 312 -313 0
-171 -312 313 0
171 312 -314 0
171 -312 314 0
-171 312 314 0
-171 -312 -314 0
166 314 -315 0
166 -314 -315 0
-166 314 -315 0
-166 -314 315 0
166 314 -316 0
166 -314 316 0
-166 314 316 0
-166 -314 -316 0
313 315 -317 0
313 -315 317 0
-313 315 317 0
-313 -315 -317 0
5 30 -318 0
5 -30 -318 0
-5 30 -318 0
-5 -30 318 0
177 318 -319 0
177 -318 -319 0
-177 318 -319 0
-177 -318 319 0
177 318 -320 0
177 -318 320 0
-177 318 320 0
-177 -318 -320 0
172 320 -321 0
172 -320 -321 0
-172 320 -321 0
-172 -320 321 0
172 320 -322 0
172 -320 322 0
-172 320 322 0
-172 -320 -322 0
319 321 -323 0
319 -321 323 0
-319 321 323 0
-319 -321 -323 0
6 30 -324 0
6 -30 -324 0
-6 30 -324 0
-6 -30 324 0
183 324 -325 0
183 -324 -325 0
-183 324 -325 0
-183 -324 325 0
183 324 -326 0
183 -324 326 0
-183 324 326 0
-183 -324 -326 0
178 326 -327 0
178 -326 -327 0
-178 326 -327 0
-178 -326 327 0
178 326 -328 0
178 -326 328 0
-178 326 328 0
-178 -326 -328 0
325 327 -329 0
325 -327 329 0
-325 327 329 0
-325 -327 -329 0
7 30 -330 0
7 -30 -330 0
-7 30 -330 0
-7 -30 330 0
189 330 -331 0
189 -330 -331 0
-189 330 -331 0
-189 -330 331 0
189 330 -332 0
189 -330 332 0
-189 330 332 0
-189 -330 -332 0
184 332 -333 0
184 -332 -333 0
-184 332 -333 0
-184 -332 333 0
184 332 -334 0
184 -332 334 0
-184 332 334 0
-184 -332 -334 0
331 333 -335 0
331 -333 335 0
-331 333 335 0
-331 -333 -335 0
8 30 -336 0
8 -30 -336 0
-8 30 -336 0
-8 -30 336 0
195 336 -337 0
195 -336 -337 0
-195 336 -337 0
-195 -336 337 0
195 336 -338 0
195 -336 338 0
-195 336 338 0
-195 -336 -338 0
190 338 -339 0
190 -338 -339 0
-190 338 -339 0
-190 -338 339 0
190 338 -340 0
190 -338 340 0
-190 338 340 0
-190 -338 -340 0
337 339 -341 0
337 -339 341 0
-337 339 341 0
-337 -339 -341 0
9 30 -342 0
9 -30 -342 0
-9 30 -342 0
-9 -30 342 0
201 342 -343 0
201 -342 -343 0
-201 342 -343 0
-201 -342 343 0
201 342 -344 0
201 -342 344 0
-201 342 344 0
-201 -342 -344 0
196 344 -345 0
196 -344 -345 0
-196 344 -345 0
-196 -344 345 0
196 344 -346 0
196 -344 346 0
-196 344 346 0
-196 -344 -346 0
343 345 -347 0
343 -345 347 0
-343 345 347 0
-343 -345 -347 0
10 30 -348 0
10 -30 -348 0
-10 30 -348 0
-10 -30 348 0
207 348 -349 0
207 -348 -349 0
-207 348 -349 0
-207 -348 349 0
207 348 -350 0
207 -348 350 0
-207 348 350 0
-207 -348 -350 0
202 350 -351 0
202 -350 -351 0
-202 350 -351 0
-202 -350 351 0
202 350 -352 0
202 -350 352 0
-202 350 352 0
-202 -350 -352 0
349 351 -353 0
349 -351 353 0
-349 351 353 0
-349 -351 -353 0
11 30 -354 0
11 -30 -354 0
-11 30 -354 0
-11 -30 354 0
213 354 -355 0
213 -354 -355 0
-213 354 -355 0
-213 -354 355 0
213 354 -356 0
213 -354 356 0
-213 354 356 0
-213 -354 -356 0
208 356 -357 0
208 -356 -357 0
-208 356 -357 0
-208 -356 357 0
208 356 -358 0
208 -356 358 0
-208 356 358 0
-208 -356 -358 0
355 357 -359 0
355 -357 359 0
-355 357 359 0
-355 -357 -359 0
12 30 -360 0
12 -30 -360 0
-12 30 -360 0
-12 -30 360 0
219 360 -361 0
219 -360 -361 0
-219 360 -361 0
-219 -360 361 0
219 360 -362 0
219 -360 362 0
-219 360 362 0
-219 -360 -362 0
214 362 -363 0
214 -362 -363 0
-214 362 -363 0
-214 -362 363 0
214 362 -364 0
214 -362 364 0
-214 362 364 0
-214 -362 -364 0
361 363 -365 0
361 -363 365 0
-361 363 365 0
-361 -363 -365 0
13 30 -366 0
13 -30 -366 0
-13 30 -366 0
-13 -30 366 0
225 366 -367 0
225 -366 -367 0
-225 366 -367 0
-225 -366 367 0
225 366 -368 0
225 -366 368 0
-225 366 368 0
-225 -366 -368 0
220 368 -369 0
220 -368 -369 0
-220 368 -369 0
-220 -368 369 0
220 368 -370 0
220 -368 370 0
-220 368 370 0
-220 -368 -370 0
367 369 -371 0
367 -369 371 0
-367 369 371 0
-367 -369 -371 0
14 30 -372 0
14 -30 -372 0
-14 30 -372 0
-14 -30 372 0
231 372 -373 0
231 -372 -373 0
-231 372 -373 0
-231 -372 373 0
231 372 -374 0
231 -372 374 0
-231 372 374 0
-231 -372 -374 0
226 374 -375 0
226 -374 -375 0
-226 374 -375 0
-226 -374 375 0
226 374 -376 0
226 -374 376 0
-226 374 376 0
-226 -374 -376 0
373 375 -377 0
373 -375 377 0
-373 375 377 0
-373 -375 -377 0
15 30 -378 0
15 -30 -378 0
-15 30 -378 0
-15 -30 378 0
237 378 -379 0
237 -378 -379 0
-237 378 -379 0
-237 -378 379 0
237 378 -380 0
237 -378 380 0
-237 378 380 0
-237 -378 -380 0
232 380 -381 0
232 -380 -381 0
-232 380 -381 0
-232 -380 381 0
232 380 -382 0
232 -380 382 0
-232 380 382 0
-232 -380 -382 0
379 381 -383 0
379 -381 383 0
-379 381 383 0
-379 -381 -383 0
16 30 -384 0
16 -30 -384 0
-16 30 -384 0
-16 -30 384 0
243 384 -385 0
243 -384 -385 0
-243 384 -385 0
-243 -384 385 0
243 384 -386 0
243 -384 386 0
-243 384 386 0
-243 -384 -386 0
238 386 -387 0
238 -386 -387 0
-238 386 -387 0
-238 -386 387 0
238 386 -388 0
238 -386 388 0
-238 386 388 0
-238 -386 -388 0
385 387 -389 0
385 -387 389 0
-385 387 389 0
-385 -387 -389 0
17 30 -390 0
17 -30 -390 0
-17 30 -390 0
-17 -30 390 0
249 390 -391 0
249 -390 -391 0
-249 390 -391 0
-249 -390 391 0
249 390 -392 0
249 -390 392 0
-249 390 392 0
-249 -390 -392 0
244 392 -393 0
244 -392 -393 0
-244 392 -393 0
-244 -392 393 0
244 392 -394 0
244 -392 394 0
-244 392 394 0
-244 -392 -394 0
391 393 -395 0
391 -393 395 0
-391 393 395 0
-391 -393 -395 0
18 30 -396 0
18 -30 -396 0
-18 30 -396 0
-18 -30 396 0
255 396 -397 0
255 -396 -397 0
-255 396 -397 0
-255 -396 397 0
255 396 -398 0
255 -396 398 0
-255 396 398 0
-255 -396 -398 0
250 398 -399 0
250 -398 -399 0
-250 398 -399 0
-250 -398 399 0
250 398 -400 0
250 -398 400 0
-250 398 400 0
-250 -398 -400 0
397 399 -401 0
397 -399 401 0
-397 399 401 0
-397 -399 -401 0
19 30 -402 0
19 -30 -402 0
-19 30 -402 0
-19 -30 402 0
261 402 -403 0
261 -402 -403 0
-261 402 -403 0
-261 -402 403 0
261 402 -404 0
261 -402 404 0
-261 402 404 0
-261 -402 -404 0
256 404 -405 0
256 -404 -405 0
-256 404 -405 0
-256 -404 405 0
256 404 -406 0
256 -404 406 0
-256 404 406 0
-256 -404 -406 0
403 405 -407 0
403 -405 407 0
-403 405 407 0
-403 -405 -407 0
20 30 -408 0
20 -30 -408 0
-20 30 -408 0
-20 -30 408 0
267 408 -409 0
267 -408 -409 0
-267 408 -409 0
-267 -408 409 0
267 408 -410 0
267 -408 410 0
-267 408 410 0
-267 -408 -410 0
262 410 -411 0
262 -410 -411 0
-262 410 -411 0
-262 -410 411 0
262 410 -412 0
262 -410 412 0
-262 410 412 0
-262 -410 -412 0
409 411 -413 0
409 -411 413 0
-409 411 413 0
-409 -411 -413 0
21 30 -414 0
21 -30 -414 0
-21 30 -414 0
-21 -30 414 0
273 414 -415 0
273 -414 -415 0
-273 414 -415 0
-273 -414 415 0
273 414 -416 0
273 -414 416 0
-273 414 416 0
-273 -414 -416 0
268 416 -417 0
268 -416 -417 0
-268 416 -417 0
-268 -416 417 0
268 416 -418 0
268 -416 418 0
-268 416 418 0
-268 -416 -418 0
415 417 -419 0
415 -417 419 0
-415 417 419 0
-415 -417 -419 0
22 30 -420 0
22 -30 -420 0
-22 30 -420 0
-22 -30 420 0
279 420 -421 0
279 -420 -421 0
-279 420 -421 0
-279 -420 421 0
279 420 -422 0
279 -420 422 0
-279 420 422 0
-279 -420 -422 0
274 422 -423 0
274 -422 -423 0
-274 422 -423 0
-274 -422 423 0
274 422 -424 0
274 -422 424 0
-274 422 424 0
-274 -422 -424 0
421 423 -425 0
421 -423 425 0
-421 423 425 0
-421 -423 -425 0
23 30 -426 0
23 -30 -426 0
-23 30 -426 0
-23 -30 426 0
285 426 -427 0
285 -426 -427 0
-285 426 -427 0
-285 -426 427 0
285 426 -428 0
285 -426 428 0
-285 426 428 0
-285 -426 -428 0
280 428 -429 0
280 -428 -429 0
-280 428 -429 0
-280 -428 429 0
280 428 -430 0
280 -428 430 0
-280 428 430 0
-280 -428 -430 0
427 429 -431 0
427 -429 431 0
-427 429 431 0
-427 -429 -431 0
24 30 -432 0
24 -30 -432 0
-24 30 -432 0
-24 -30 432 0
291 432 -433 0
291 -432 -433 0
-291 432 -433 0
-291 -432 433 0
291 432 -434 0
291 -432 434 0
-291 432 434 0
-291 -432 -434 0
286 434 -435 0
286 -434 -435 0
-286 434 -435 0
-286 -434 435 0
286 434 -436 0
286 -434 436 0
-286 434 436 0
-286 -434 -436 0
433 435 -437 0
433 -435 437 0
-433 435 437 0
-433 -435 -437 0
25 30 -438 0
25 -30 -438 0
-25 30 -438 0
-25 -30 438 0
293 438 -439 0
293 -438 -439 0
-293 438 -439 0
-293 -438 439 0
293 438 -440 0
293 -438 440 0
-293 438 440 0
-293 -438 -440 0
292 440 -441 0
292 -440 -441 0
-292 440 -441 0
-292 -440 441 0
292 440 -442 0
292 -440 442 0
-292 440 442 0
-292 -440 -442 0
439 441 -443 0
439 -441 443 0
-439 441 443 0
-439 -441 -443 0
26 30 -444 0
26 -30 -444 0
-26 30 -444 0
-26 -30 444 0
1 31 -445 0
1 -31 -445 0
-1 31 -445 0
-1 -31 445 0
304 445 -446 0
304 -445 -446 0
-304 445 -446 0
-304 -445 446 0
304 445 -447 0
304 -445 447 0
-304 445 447 0
-304 -445 -447 0
299 447 -448 0
299 -447 -448 0
-299 447 -448 0
-299 -447 448 0
299 447 -449 0
299 -447 449 0
-299 447 449 0
-299 -447 -449 0
446 448 -450 0
446 -448 450 0
-446 448 450 0
-446 -448 -450 0
2 31 -451 0
2 -31 -451 0
-2 31 -451 0
-2 -31 451 0
310 451 -452 0
310 -451 -452 0
-310 451 -452 0
-310 -451 452 0
310 451 -453 0
310 -451 453 0
-310 451 453 0
-310 -451 -453 0
305 453 -454 0
305 -453 -454 0
-305 453 -454 0
-305 -453 454 0
305 453 -455 0
305 -453 455 0
-305 453 455 0
-305 -453 -455 0
452 454 -456 0
452 -454 456 0
-452 454 456 0
-452 -454 -456 0
3 31 -457 0
3 -31 -457 0
-3 31 -457 0
-3 -31 457 0
316 457 -458 0
316 -457 -458 0
-316 457 -458 0
-316 -457 458 0
316 457 -459 0
316 -457 459 0
-316 457 459 0
-316 -457 -459 0
311 459 -460 0
311 -459 -460 0
-311 459 -460 0
-311 -459 460 0
311 459 -461 0
311 -459 461 0
-311 459 461 0
-311 -459 -461 0
458 460 -462 0
458 -460 462 0
-458 460 462 0
-458 -460 -462 0
4 31 -463 0
4 -31 -463 0
-4 31 -463 0
-4 -31 463 0
322 463 -464 0
322 -463 -464 0
-322 463 -464 0
-322 -463 464 0
322 463 -465 0
322 -463 465 0
-322 463 465 0
-322 -463 -465 0
317 465 -466 0
317 -465 -466 0
-317 465 -466 0
-317 -465 466 0
317 465 -467 0
317 -465 467 0
-317 465 467 0
-317 -465 -467 0
464 466 -468 0
464 -466 468 0
-464 466 468 0
-464 -466 -468 0
5 31 -469 0
5 -31 -469 0
-5 31 -469 0
-5 -31 469 0
328 469 -470 0
328 -469 -470 0
-328 469 -470 0
-328 -469 470 0
328 469 -471 0
328 -469 471 0
-328 469 471 0
-328 -469 -471 0
323 471 -472 0
323 -471 -472 0
-323 471 -472 0
-323 -471 472 0
323 471 -473 0
323 -471 473 0
-323 471 473 0
-323 -471 -473 0
470 472 -474 0
470 -472 474 0
-470 472 474 0
-470 -472 -474 0
6 31 -475 0
6 -31 -475 0
-6 31 -475 0
-6 -31 475 0
334 475 -476 0
334 -475 -476 0
-334 475 -476 0
-334 -475 476 0
334 475 -477 0
334 -475 477 0
-334 475 477 0
-334 -475 -477 0
329 477 -478 0
329 -477 -478 0
-329 477 -478 0
-329 -477 478 0
329 477 -479 0
329 -477 479 0
-329 477 479 0
-329 -477 -479 0
476 478 -480 0
476 -478 480 0
-476 478 480 0
-476 -478 -480 0
7 31 -481 0
7 -31 -481 0
-7 31 -481 0
-7 -31 481 0
340 481 -482 0
340 -481 -482 0
-340 481 -482 0
-340 -481 482 0
340 481 -483 0
340 -481 483 0
-340 481 483 0
-340 -481 -483 0
335 483 -484 0
335 -483 -484 0
-335 483 -484 0
-335 -483 484 0
335 483 -485 0
335 -483 485 0
-335 483 485 0
-335 -483 -485 0
482 484 -486 0
482 -484 486 0
-482 484 486 0
-482 -484 -486 0
8 31 -487 0
8 -31 -487 0
-8 31 -487 0
-8 -31 487 0
346 487 -488 0
346 -487 -488 0
-346 487 -488 0
-346 -487 488 0
346 487 -489 0
346 -487 489 0
-346 487 489 0
-346 -487 -489 0
341 489 -490 0
341 -489 -490 0
-341 489 -490 0
-341 -489 490 0
341 489 -491 0
341 -489 491 0
-341 489 491 0
-341 -489 -491 0
488 490 -492 0
488 -490 492 0
-488 490 492 0
-488 -490 -492 0
9 31 -493 0
9 -31 -493 0
-9 31 -493 0
-9 -31 493 0
352 493 -494 0
352 -493 -494 0
-352 493 -494 0
-352 -493 494 0
352 493 -495 0
352 -493 495 0
-352 493 495 0
-352 -493 -495 0
347 495 -496 0
347 -495 -496 0
-347 495 -496 0
-347 -495 496 0
347 495 -497 0
347 -495 497 0
-347 495 497 0
-347 -495 -497 0
494 496 -498 0
494 -496 498 0
-494 496 498 0
-494 -496 -498 0
10 31 -499 0
10 -31 -499 0
-10 31 -499 0
-10 -31 499 0
358 499 -500 0
358 -499 -500 0
-358 499 -500 0
-358 -499 500 0
358 499 -501 0
358 -499 501 0
-358 499 501 0
-358 -499 -501 0
353 501 -502 0
353 -501 -502 0
-353 501 -502 0
-353 -501 502 0
353 501 -503 0
353 -501 503 0
-353 501 503 0
-353 -501 -503 0
500 502 -504 0
500 -502 504 0
-500 502 504 0
-500 -502 -504 0
11 31 -505 0
11 -31 -505 0
-11 31 -505 0
-11 -31 505 0
364 505 -506 0
364 -505 -506 0
-364 505 -506 0
-364 -505 506 0
364 505 -507 0
364 -505 507 0
-364 505 507 0
-364 -505 -507 0
359 507 -508 0
359 -507 -508 0
-359 507 -508 0
-359 -507 508 0
359 507 -509 0
359 -507 509 0
-359 507 509 0
-359 -507 -509 0
506 508 -510 0
506 -508 510 0
-506 508 510 0
-506 -508 -510 0
12 31 -511 0
12 -31 -511 0
-12 31 -511 0
-12 -31 511 0
370 511 -512 0
370 -511 -512 0
-370 511 -512 0
-370 -511 512 0
370 511 -513 0
370 -511 513 0
-370 511 513 0
-370 -511 -513 0
365 513 -514 0
365 -513 -514 0
-365 513 -514 0
-365 -513 514 0
365 513 -515 0
365 -513 515 0
-365 513 515 0
-365 -513 -515 0
512 514 -516 0
512 -514 516 0
-512 514 516 0
-512 -514 -516 0
13 31 -517 0
13 -31 -517 0
-13 31 -517 0
-13 -31 517 0
376 517 -518 0
376 -517 -518 0
-376 517 -518 0
-376 -517 518 0
376 517 -519 0
376 -517 519 0
-376 517 519 0
-376 -517 -519 0
371 519 -520 0
371 -519 -520 0
-371 519 -520 0
-371 -519 520 0
371 519 -521 0
371 -519 521 0
-371 519 521 0
-371 -519 -521 0
518 520 -522 0
518 -520 522 0
-518 520 522 0
-518 -520 -522 0
14 31 -523 0
14 -31 -523 0
-14 31 -523 0
-14 -31 523 0
382 523 -524 0
382 -523 -524 0
-382 523 -524 0
-382 -523 524 0
382 523 -525 0
382 -523 525 0
-382 523 525 0
-382 -523 -525 0
377 525 -526 0
377 -525 -526 0
-377 525 -526 0
-377 -525 526 0
377 525 -527 0
377 -525 527 0
-377 525 527 0
-377 -525 -527 0
524 526 -528 0
524 -526 528 0
-524 526 528 0
-524 -526 -528 0
15 31 -529 0
15 -31 -529 0
-15 31 -529 0
-15 -31 529 0
388 529 -530 0
388 -529 -530 0
-388 529 -530 0
-388 -529 530 0
388 529 -531 0
388 -529 531 0
-388 529 531 0
-388 -529 -531 0
383 531 -532 0
383 -531 -532 0
-383 531 -532 0
-383 -531 532 0
383 531 -533 0
383 -531 533 0
-383 531 533 0
-383 -531 -533 0
530 532 -534 0
530 -532 534 0
-530 532 534 0
-530 -532 -534 0
16 31 -535 0
16 -31 -535 0
-16 31 -535 0
-16 -31 535 0
394 535 -536 0
394 -535 -536 0
-394 535 -536 0
-394 -535 536 0
394 535 -537 0
394 -535 537 0
-394 535 537 0
-394 -535 -537 0
389 537 -538 0
389 -537 -538 0
-389 537 -538 0
-389 -537 538 0
389 537 -539 0
389 -537 539 0
-389 537 539 0
-389 -537 -539 0
536 538 -540 0
536 -538 540 0
-536 538 540 0
-536 -538 -540 0
17 31 -541 0
17 -31 -541 0
-17 31 -541 0
-17 -31 541 0
400 541 -542 0
400 -541 -542 0
-400 541 -542 0
-400 -541 542 0
400 541 -543 0
400 -541 543 0
-400 541 543 0
-400 -541 -543 0
395 543 -544 0
395 -543 -544 0
-395 543 -544 0
-395 -543 544 0
395 543 -545 0
395 -543 545 0
-395 543 545 0
-395 -543 -545 0
542 544 -546 0
542 -544 546 0
-542 544 546 0
-542 -544 -546 0
18 31 -547 0
18 -31 -547 0
-18 31 -547 0
-18 -31 547 0
406 547 -548 0
406 -547 -548 0
-406 547 -548 0
-406 -547 548 0
406 547 -549 0
406 -547 549 0
-406 547 549 0
-406 -547 -549 0
401 549 -550 0
401 -549 -550 0
-401 549 -550 0
-401 -549 550 0
401 549 -551 0
401 -549 551 0
-401 549 551 0
-401 -549 -551 0
548 550 -552 0
548 -550 552 0
-548 550 552 0
-548 -550 -552 0
19 31 -553 0
19 -31 -553 0
-19 31 -553 0
-19 -31 553 0
412 553 -554 0
412 -553 -554 0
-412 553 -554 0
-412 -553 554 0
412 553 -555 0
412 -553 555 0
-412 553 555 0
-412 -553 -555 0
407 555 -556 0
407 -555 -556 0
-407 555 -556 0
-407 -555 556 0
407 555 -557 0
407 -555 557 0
-407 555 557 0
-407 -555 -557 0
554 556 -558 0
554 -556 558 0
-554 556 558 0
-554 -556 -558 0
20 31 -559 0
20 -31 -559 0
-20 31 -559 0
-20 -31 559 0
418 559 -560 0
418 -559 -560 0
-418 559 -560 0
-418 -559 560 0
418 559 -561 0
418 -559 561 0
-418 559 561 0
-418 -559 -561 0
413 561 -562 0
413 -561 -562 0
-413 561 -562 0
-413 -561 562 0
413 561 -563 0
413 -561 563 0
-413 561 563 0
-413 -561 -563 0
560 562 -564 0
560 -562 564 0
-560 562 564 0
-560 -562 -564 0
21 31 -565 0
21 -31 -565 0
-21 31 -565 0
-21 -31 565 0
424 565 -566 0
424 -565 -566 0
-424 565 -566 0
-424 -565 566 0
424 565 -567 0
424 -565 567 0
-424 565 567 0
-424 -565 -567 0
419 567 -568 0
419 -567 -568 0
-419 567 -568 0
-419 -567 568 0
419 567 -569 0
419 -567 569 0
-419 567 569 0
-419 -567 -569 0
566 568 -570 0
566 -568 570 0
-566 568 570 0
-566 -568 -570 0
22 31 -571 0
22 -31 -571 0
-22 31 -571 0
-22 -31 571 0
430 571 -572 0
430 -571 -572 0
-430 571 -572 0
-430 -571 572 0
430 571 -573 0
430 -571 573 0
-430 571 573 0
-430 -571 -573 0
425 573 -574 0
425 -573 -574 0
-425 573 -574 0
-425 -573 574 0
425 573 -575 0
425 -573 575 0
-425 573 575 0
-425 -573 -575 0
572 574 -576 0
572 -574 576 0
-572 574 576 0
-572 -574 -576 0
23 31 -577 0
23 -31 -577 0
-23 31 -577 0
-23 -31 577 0
436 577 -578 0
436 -577 -578 0
-436 577 -578 0
-436 -577 578 0
436 577 -579 0
436 -577 579 0
-436 577 579 0
-436 -577 -579 0
431 579 -580 0
431 -579 -580 0
-431 579 -580 0
-431 -579 580 0
431 579 -581 0
431 -579 581 0
-431 579 581 0
-431 -579 -581 0
578 580 -582 0
578 -580 582 0
-578 580 582 0
-578 -580 -582 0
24 31 -583 0
24 -31 -583 0
-24 31 -583 0
-24 -31 583 0
442 583 -584 0
442 -583 -584 0
-442 583 -584 0
-442 -583 584 0
442 583 -585 0
442 -583 585 0
-442 583 585 0
-442 -583 -585 0
437 585 -586 0
437 -585 -586 0
-437 585 -586 0
-437 -585 586 0
437 585 -587 0
437 -585 587 0
-437 585 587 0
-437 -585 -587 0
584 586 -588 0
584 -586 588 0
-584 586 588 0
-584 -586 -588 0
25 31 -589 0
25 -31 -589 0
-25 31 -589 0
-25 -31 589 0
444 589 -590 0
444 -589 -590 0
-444 589 -590 0
-444 -589 590 0
444 589 -591 0
444 -589 591 0
-444 589 591 0
-444 -589 -591 0
443 591 -592 0
443 -591 -592 0
-443 591 -592 0
-443 -591 592 0
443 591 -593 0
443 -591 593 0
-443 591 593 0
-443 -591 -593 0
590 592 -594 0
590 -592 594 0
-590 592 594 0
-590 -592 -594 0
26 31 -595 0
26 -31 -595 0
-26 31 -595 0
-26 -31 595 0
1 32 -596 0
1 -32 -596 0
-1 32 -596 0
-1 -32 596 0
455 596 -597 0
455 -596 -597 0
-455 596 -597 0
-455 -596 597 0
455 596 -598 0
455 -596 598 0
-455 596 598 0
-455 -596 -598 0
450 598 -599 0
450 -598 -599 0
-450 598 -599 0
-450 -598 599 0
450 598 -600 0
450 -598 600 0
-450 598 600 0
-450 -598 -600 0
597 599 -601 0
597 -599 601 0
-597 599 601 0
-597 -599 -601 0
2 32 -602 0
2 -32 -602 0
-2 32 -602 0
-2 -32 602 0
461 602 -603 0
461 -602 -603 0
-461 602 -603 0
-461 -602 603 0
461 602 -604 0
461 -602 604 0
-461 602 604 0
-461 -602 -604 0
456 604 -605 0
456 -604 -605 0
-456 604 -605 0
-456 -604 605 0
456 604 -606 0
456 -604 606 0
-456 604 606 0
-456 -604 -606 0
603 605 -607 0
603 -605 607 0
-603 605 607 0
-603 -605 -607 0
3 32 -608 0
3 -32 -608 0
-3 32 -608 0
-3 -32 608 0
467 608 -609 0
467 -608 -609 0
-467 608 -609 0
-467 -608 609 0
467 608 -610 0
467 -608 610 0
-467 608 610 0
-467 -608 -610 0
462 610 -611 0
462 -610 -611 0
-462 610 -611 0
-462 -610 611 0
462 610 -612 0
462 -610 612 0
-462 610 612 0
-462 -610 -612 0
609 611 -613 0
609 -611 613 0
-609 611 613 0
-609 -611 -613 0
4 32 -614 0
4 -32 -614 0
-4 32 -614 0
-4 -32 614 0
473 614 -615 0
473 -614 -615 0
-473 614 -615 0
-473 -614 615 0
473 614 -616 0
473 -614 616 0
-473 614 616 0
-473 -614 -616 0
468 616 -617 0
468 -616 -617 0
-468 616 -617 0
-468 -616 617 0
468 616 -618 0
468 -616 618 0
-468 616 618 0
-468 -616 -618 0
615 617 -619 0
615 -617 619 0
-615 617 619 0
-615 -617 -619 0
5 32 -620 0
5 -32 -620 0
-5 32 -620 0
-5 -32 620 0
479 620 -621 0
479 -620 -621 0
-479 620 -621 0
-479 -620 621 0
479 620 -622 0
479 -620 622 0
-479 620 622 0
-479 -620 -622 0
474 622 -623 0
474 -622 -623 0
-474 622 -623 0
-474 -622 623 0
474 622 -624 0
474 -622 624 0
-474 622 624 0
-474 -622 -624 0
621 623 -625 0
621 -623 625 0
-621 623 625 0
-621 -623 -625 0
6 32 -626 0
6 -32 -626 0
-6 32 -626 0
-6 -32 626 0
485 626 -627 0
485 -626 -627 0
-485 626 -627 0
-485 -626 627 0
485 626 -628 0
485 -626 628 0
-485 626 628 0
-485 -626 -628 0
480 628 -629 0
480 -628 -629 0
-480 628 -629 0
-480 -628 629 0
480 628 -630 0
480 -628 630 0
-480 628 630 0
-480 -628 -630 0
627 629 -631 0
627 -629 631 0
-627 629 631 0
-627 -629 -631 0
7 32 -632 0
7 -32 -632 0
-7 32 -632 0
-7 -32 632 0
491 632 -633 0
491 -632 -633 0
-491 632 -633 0
-491 -632 633 0
491 632 -634 0
491 -632 634 0
-491 632 634 0
-491 -632 -634 0
486 634 -635 0
486 -634 -635 0
-486 634 -635 0
-486 -634 635 0
486 634 -636 0
486 -634 636 0
-486 634 636 0
-486 -634 -636 0
633 635 -637 0
633 -635 637 0
-633 635 637 0
-633 -635 -637 0
8 32 -638 0
8 -32 -638 0
-8 32 -638 0
-8 -32 638 0
497 638 -639 0
497 -638 -639 0
-497 638 -639 0
-497 -638 639 0
497 638 -640 0
497 -638 640 0
-497 638 640 0
-497 -638 -640 0
492 640 -641 0
492 -640 -641 0
-492 640 -641 0
-492 -640 641 0
492 640 -642 0
492 -640 642 0
-492 640 642 0
-492 -640 -642 0
639 641 -643 0
639 -641 643 0
-639 641 643 0
-639 -641 -643 0
9 32 -644 0
9 -32 -644 0
-9 32 -644 0
-9 -32 644 0
503 644 -645 0
503 -644 -645 0
-503 644 -645 0
-503 -644 645 0
503 644 -646 0
503 -644 646 0
-503 644 646 0
-503 -644 -646 0
498 646 -647 0
498 -646 -647 0
-498 646 -647 0
-498 -646 647 0
498 646 -648 0
498 -646 648 0
-498 646 648 0
-498 -646 -648 0
645 647 -649 0
645 -647 649 0
-645 647 649 0
-645 -647 -649 0
10 32 -650 0
10 -32 -650 0
-10 32 -650 0
-10 -32 650 0
509 650 -651 0
509 -650 -651 0
-509 650 -651 0
-509 -650 651 0
509 650 -652 0
509 -650 652 0
-509 650 652 0
-509 -650 -652 0
504 652 -653 0
504 -652 -653 0
-504 652 -653 0
-504 -652 653 0
504 652 -654 0
504 -652 654 0
-504 652 654 0
-504 -652 -654 0
651 653 -655 0
651 -653 655 0
-651 653 655 0
-651 -653 -655 0
11 32 -656 0
11 -32 -656 0
-11 32 -656 0
-11 -32 656 0
515 656 -657 0
515 -656 -657 0
-515 656 -657 0
-515 -656 657 0
515 656 -658 0
515 -656 658 0
-515 656 658 0
-515 -656 -658 0
510 658 -659 0
510 -658 -659 0
-510 658 -659 0
-510 -658 659 0
510 658 -660 0
510 -658 660 0
-510 658 660 0
-510 -658 -660 0
657 659 -661 0
657 -659 661 0
-657 659 661 0
-657 -659 -661 0
12 32 -662 0
12 -32 -662 0
-12 32 -662 0
-12 -32 662 0
521 662 -663 0
521 -662 -663 0
-521 662 -663 0
-521 -662 663 0
521 662 -664 0
521 -662 664 0
-521 662 664 0
-521 -662 -664 0
516 664 -665 0
516 -664 -665 0
-516 664 -665 0
-516 -664 665 0
516 664 -666 0
516 -664 666 0
-516 664 666 0
-516 -664 -666 0
663 665 -667 0
663 -665 667 0
-663 665 667 0
-663 -665 -667 0
13 32 -668 0
13 -32 -668 0
-13 32 -668 0
-13 -32 668 0
527 668 -669 0
527 -668 -669 0
-527 668 -669 0
-527 -668 669 0
527 668 -670 0
527 -668 670 0
-527 668 670 0
-527 -668 -670 0
522 670 -671 0
522 -670 -671 0
-522 670 -671 0
-522 -670 671 0
522 670 -672 0
522 -670 672 0
-522 670 672 0
-522 -670 -672 0
669 671 -673 0
669 -671 673 0
-669 671 673 0
-669 -671 -673 0
14 32 -674 0
14 -32 -674 0
-14 32 -674 0
-14 -32 674 0
533 674 -675 0
533 -674 -675 0
-533 674 -675 0
-533 -674 675 0
533 674 -676 0
533 -674 676 0
-533 674 676 0
-533 -674 -676 0
528 676 -677 0
528 -676 -677 0
-528 676 -677 0
-528 -676 677 0
528 676 -678 0
528 -676 678 0
-528 676 678 0
-528 -676 -678 0
675 677 -679 0
675 -677 679 0
-675 677 679 0
-675 -677 -679 0
15 32 -680 0
15 -32 -680 0
-15 32 -680 0
-15 -32 680 0
539 680 -681 0
539 -680 -681 0
-539 680 -681 0
-539 -680 681 0
539 680 -682 0
539 -680 682 0
-539 680 682 0
-539 -680 -682 0
534 682 -683 0
534 -682 -683 0
-534 682 -683 0
-534 -682 683 0
534 682 -684 0
534 -682 684 0
-534 682 684 0
-534 -682 -684 0
681 683 -685 0
681 -683 685 0
-681 683 685 0
-681 -683 -685 0
16 32 -686 0
16 -32 -686 0
-16 32 -686 0
-16 -32 686 0
545 686 -687 0
545 -686 -687 0
-545 686 -687 0
-545 -686 687 0
545 686 -688 0
545 -686 688 0
-545 686 688 0
-545 -686 -688 0
540 688 -689 0
540 -688 -689 0
-540 688 -689 0
-540 -688 689 0
540 688 -690 0
540 -688 690 0
-540 688 690 0
-540 -688 -690 0
687 689 -691 0
687 -689 691 0
-687 689 691 0
-687 -689 -691 0
17 32 -692 0
17 -32 -692 0
-17 32 -692 0
-17 -32 692 0
551 692 -693 0
551 -692 -693 0
-551 692 -693 0
-551 -692 693 0
551 692 -694 0
551 -692 694 0
-551 692 694 0
-551 -692 -694 0
546 694 -695 0
546 -694 -695 0
-546 694 -695 0
-546 -694 695 0
546 694 -696 0
546 -694 696 0
-546 694 696 0
-546 -694 -696 0
693 695 -697 0
693 -695 697 0
-693 695 697 0
-693 -695 -697 0
18 32 -698 0
18 -32 -698 0
-18 32 -698 0
-18 -32 698 0
557 698 -699 0
557 -698 -699 0
-557 698 -699 0
-557 -698 699 0
557 698 -700 0
557 -698 700 0
-557 698 700 0
-557 -698 -700 0
552 700 -701 0
552 -700 -701 0
-552 700 -701 0
-552 -700 701 0
552 700 -702 0
552 -700 702 0
-552 700 702 0
-552 -700 -702 0
699 701 -703 0
699 -701 703 0
-699 701 703 0
-699 -701 -703 0
19 32 -704 0
19 -32 -704 0
-19 32 -704 0
-19 -32 704 0
563 704 -705 0
563 -704 -705 0
-563 704 -705 0
-563 -704 705 0
563 704 -706 0
563 -704 706 0
-563 704 706 0
-563 -704 -706 0
558 706 -707 0
558 -706 -707 0
-558 706 -707 0
-558 -706 707 0
558 706 -708 0
558 -706 708 0
-558 706 708 0
-558 -706 -708 0
705 707 -709 0
705 -707 709 0
-705 707 709 0
-705 -707 -709 0
20 32 -710 0
20 -32 -710 0
-20 32 -710 0
-20 -32 710 0
569 710 -711 0
569 -710 -711 0
-569 710 -711 0
-569 -710 711 0
569 710 -712 0
569 -710 712 0
-569 710 712 0
-569 -710 -712 0
564 712 -713 0
564 -712 -713 0
-564 712 -713 0
-564 -712 713 0
564 712 -714 0
564 -712 714 0
-564 712 714 0
-564 -712 -714 0
711 713 -715 0
711 -713 715 0
-711 713 715 0
-711 -713 -715 0
21 32 -716 0
21 -32 -716 0
-21 32 -716 0
-21 -32 716 0
575 716 -717 0
575 -716 -717 0
-575 716 -717 0
-575 -716 717 0
575 716 -718 0
575 -716 718 0
-575 716 718 0
-575 -716 -718 0
570 718 -719 0
570 -718 -719 0
-570 718 -719 0
-570 -718 719 0
570 718 -720 0
570 -718 720 0
-570 718 720 0
-570 -718 -720 0
717 719 -721 0
717 -719 721 0
-717 719 721 0
-717 -719 -721 0
22 32 -722 0
22 -32 -722 0
-22 32 -722 0
-22 -32 722 0
581 722 -723 0
581 -722 -723 0
-581 722 -723 0
-581 -722 723 0
581 722 -724 0
581 -722 724 0
-581 722 724 0
-581 -722 -724 0
576 724 -725 0
576 -724 -725 0
-576 724 -725 0
-576 -724 725 0
576 724 -726 0
576 -724 726 0
-576 724 726 0
-576 -724 -726 0
723 725 -727 0
723 -725 727 0
-723 725 727 0
-723 -725 -727 0
23 32 -728 0
23 -32 -728 0
-23 32 -728 0
-23 -32 728 0
587 728 -729 0
587 -728 -729 0
-587 728 -729 0
-587 -728 729 0
587 728 -730 0
587 -728 730 0
-587 728 730 0
-587 -728 -730 0
582 730 -731 0
582 -730 -731 0
-582 730 -731 0
-582 -730 731 0
582 730 -732 0
582 -730 732 0
-582 730 732 0
-582 -730 -732 0
729 731 -733 0
729 -731 733 0
-729 731 733 0
-729 -731 -733 0
24 32 -734 0
24 -32 -734 0
-24 32 -734 0
-24 -32 734 0
593 734 -735 0
593 -734 -735 0
-593 734 -735 0
-593 -734 735 0
593 734 -736 0
593 -734 736 0
-593 734 736 0
-593 -734 -736 0
588 736 -737 0
588 -736 -737 0
-588 736 -737 0
-588 -736 737 0
588 736 -738 0
588 -736 738 0
-588 736 738 0
-588 -736 -738 0
735 737 -739 0
735 -737 739 0
-735 737 739 0
-735 -737 -739 0
25 32 -740 0
25 -32 -740 0
-25 32 -740 0
-25 -32 740 0
595 740 -741 0
595 -740 -741 0
-595 740 -741 0
-595 -740 741 0
595 740 -742 0
595 -740 742 0
-595 740 742 0
-595 -740 -742 0
594 742 -743 0
594 -742 -743 0
-594 742 -743 0
-594 -742 743 0
594 742 -744 0
594 -742 744 0
-594 742 744 0
-594 -742 -744 0
741 743 -745 0
741 -743 745 0
-741 743 745 0
-741 -743 -745 0
26 32 -746 0
26 -32 -746 0
-26 32 -746 0
-26 -32 746 0
1 33 -747 0
1 -33 -747 0
-1 33 -747 0
-1 -33 747 0
606 747 -748 0
606 -747 -748 0
-606 747 -748 0
-606 -747 748 0
606 747 -749 0
606 -747 749 0
-606 747 749 0
-606 -747 -749 0
601 749 -750 0
601 -749 -750 0
-601 749 -750 0
-601 -749 750 0
601 749 -751 0
601 -749 751 0
-601 749 751 0
-601 -749 -751 0
748 750 -752 0
748 -750 752 0
-748 750 752 0
-748 -750 -752 0
2 33 -753 0
2 -33 -753 0
-2 33 -753 0
-2 -33 753 0
612 753 -754 0
612 -753 -754 0
-612 753 -754 0
-612 -753 754 0
612 753 -755 0
612 -753 755 0
-612 753 755 0
-612 -753 -755 0
607 755 -756 0
607 -755 -756 0
-607 755 -756 0
-607 -755 756 0
607 755 -757 0
607 -755 757 0
-607 755 757 0
-607 -755 -757 0
754 756 -758 0
754 -756 758 0
-754 756 758 0
-754 -756 -758 0
3 33 -759 0
3 -33 -759 0
-3 33 -759 0
-3 -33 759 0
618 759 -760 0
618 -759 -760 0
-618 759 -760 0
-618 -759 760 0
618 759 -761 0
618 -759 761 0
-618 759 761 0
-618 -759 -761 0
613 761 -762 0
613 -761 -762 0
-613 761 -762 0
-613 -761 762 0
613 761 -763 0
613 -761 763 0
-613 761 763 0
-613 -761 -763 0
760 762 -764 0
760 -762 764 0
-760 762 764 0
-760 -762 -764 0
4 33 -765 0
4 -33 -765 0
-4 33 -765 0
-4 -33 765 0
624 765 -766 0
624 -765 -766 0
-624 765 -766 0
-624 -765 766 0
624 765 -767 0
624 -765 767 0
-624 765 767 0
-624 -765 -767 0
619 767 -768 0
619 -767 -768 0
-619 767 -768 0
-619 -767 768 0
619 767 -769 0
619 -767 769 0
-619 767 769 0
-619 -767 -769 0
766 768 -770 0
766 -768 770 0
-766 768 770 0
-766 -768 -770 0
5 33 -771 0
5 -33 -771 0
-5 33 -771 0
-5 -33 771 0
630 771 -772 0
630 -771 -772 0
-630 771 -772 0
-630 -771 772 0
630 771 -773 0
630 -771 773 0
-630 771 773 0
-630 -771 -773 0
625 773 -774 0
625 -773 -774 0
-625 773 -774 0
-625 -773 774 0
625 773 -775 0
625 -773 775 0
-625 773 775 0
-625 -773 -775 0
772 774 -776 0
772 -774 776 0
-772 774 776 0
-772 -774 -776 0
6 33 -777 0
6 -33 -777 0
-6 33 -777 0
-6 -33 777 0
636 777 -778 0
636 -777 -778 0
-636 777 -778 0
-636 -777 778 0
636 777 -779 0
636 -777 779 0
-636 777 779 0
-636 -777 -779 0
631 779 -780 0
631 -779 -780 0
-631 779 -780 0
-631 -779 780 0
631 779 -781 0
631 -779 781 0
-631 779 781 0
-631 -779 -781 0
778 780 -782 0
778 -780 782 0
-778 780 782 0
-778 -780 -782 0
7 33 -783 0
7 -33 -783 0
-7 33 -783 0
-7 -33 783 0
642 783 -784 0
642 -783 -784 0
-642 783 -784 0
-642 -783 784 0
642 783 -785 0
642 -783 785 0
-642 783 785 0
-642 -783 -785 0
637 785 -786 0
637 -785 -786 0
-637 785 -786 0
-637 -785 786 0
637 785 -787 0
637 -785 787 0
-637 785 787 0
-637 -785 -787 0
784 786 -788 0
784 -786 788 0
-784 786 788 0
-784 -786 -788 0
8 33 -789 0
8 -33 -789 0
-8 33 -789 0
-8 -33 789 0
648 789 -790 0
648 -789 -790 0
-648 789 -790 0
-648 -789 790 0
648 789 -791 0
648 -789 791 0
-648 789 791 0
-648 -789 -791 0
643 791 -792 0
643 -791 -792 0
-643 791 -792 0
-643 -791 792 0
643 791 -793 0
643 -791 793 0
-643 791 793 0
-643 -791 -793 0
790 792 -794 0
790 -792 794 0
-790 792 794 0
-790 -792 -794 0
9 33 -795 0
9 -33 -795 0
-9 33 -795 0
-9 -33 795 0
654 795 -796 0
654 -795 -796 0
-654 795 -796 0
-654 -795 796 0
654 795 -797 0
654 -795 797 0
-654 795 797 0
-654 -795 -797 0
649 797 -798 0
649 -797 -798 0
-649 797 -798 0
-649 -797 798 0
649 797 -799 0
649 -797 799 0
-649 797 799 0
-649 -797 -799 0
796 798 -800 0
796 -798 800 0
-796 798 800 0
-796 -798 -800 0
10 33 -801 0
10 -33 -801 0
-10 33 -801 0
-10 -33 801 0
660 801 -802 0
660 -801 -802 0
-660 801 -802 0
-660 -801 802 0
660 801 -803 0
660 -801 803 0
-660 801 803 0
-660 -801 -803 0
655 803 -804 0
655 -803 -804 0
-655 803 -804 0
-655 -803 804 0
655 803 -805 0
655 -803 805 0
-655 803 805 0
-655 -803 -805 0
802 804 -806 0
802 -804 806 0
-802 804 806 0
-802 -804 -806 0
11 33 -807 0
11 -33 -807 0
-11 33 -807 0
-11 -33 807 0
666 807 -808 0
666 -807 -808 0
-666 807 -808 0
-666 -807 808 0
666 807 -809 0
666 -807 809 0
-666 807 809 0
-666 -807 -809 0
661 809 -810 0
661 -809 -810 0
-661 809 -810 0
-661 -809 810 0
661 809 -811 0
661 -809 811 0
-661 809 811 0
-661 -809 -811 0
808 810 -812 0
808 -810 812 0
-808 810 812 0
-808 -810 -812 0
12 33 -813 0
12 -33 -813 0
-12 33 -813 0
-12 -33 813 0
672 813 -814 0
672 -813 -814 0
-672 813 -814 0
-672 -813 814 0
672 813 -815 0
672 -813 815 0
-672 813 815 0
-672 -813 -815 0
667 815 -816 0
667 -815 -816 0
-667 815 -816 0
-667 -815 816 0
667 815 -817 0
667 -815 817 0
-667 815 817 0
-667 -815 -817 0
814 816 -818 0
814 -816 818 0
-814 816 818 0
-814 -816 -818 0
13 33 -819 0
13 -33 -819 0
-13 33 -819 0
-13 -33 819 0
678 819 -820 0
678 -819 -820 0
-678 819 -820 0
-678 -819 820 0
678 819 -821 0
678 -819 821 0
-678 819 821 0
-678 -819 -821 0
673 821 -822 0
673 -821 -822 0
-673 821 -822 0
-673 -821 822 0
673 821 -823 0
673 -821 823 0
-673 821 823 0
-673 -821 -823 0
820 822 -824 0
820 -822 824 0
-820 822 824 0
-820 -822 -824 0
14 33 -825 0
14 -33 -825 0
-14 33 -825 0
-14 -33 825 0
684 825 -826 0
684 -825 -826 0
-684 825 -826 0
-684 -825 826 0
684 825 -827 0
684 -825 827 0
-684 825 827 0
-684 -825 -827 0
679 827 -828 0
679 -827 -828 0
-679 827 -828 0
-679 -827 828 0
679 827 -829 0
679 -827 829 0
-679 827 829 0
-679 -827 -829 0
826 828 -830 0
826 -828 830 0
-826 828 830 0
-826 -828 -830 0
15 33 -831 0
15 -33 -831 0
-15 33 -831 0
-15 -33 831 0
690 831 -832 0
690 -831 -832 0
-690 831 -832 0
-690 -831 832 0
690 831 -833 0
690 -831 833 0
-690 831 833 0
-690 -831 -833 0
685 833 -834 0
685 -833 -834 0
-685 833 -834 0
-685 -833 834 0
685 833 -835 0
685 -833 835 0
-685 833 835 0
-685 -833 -835 0
832 834 -836 0
832 -834 836 0
-832 834 836 0
-832 -834 -836 0
16 33 -837 0
16 -33 -837 0
-16 33 -837 0
-16 -33 837 0
696 837 -838 0
696 -837 -838 0
-696 837 -838 0
-696 -837 838 0
696 837 -839 0
696 -837 839 0
-696 837 839 0
-696 -837 -839 0
691 839 -840 0
691 -839 -840 0
-691 839 -840 0
-691 -839 840 0
691 839 -841 0
691 -839 841 0
-691 839 841 0
-691 -839 -841 0
838 840 -842 0
838 -840 842 0
-838 840 842 0
-838 -840 -842 0
17 33 -843 0
17 -33 -843 0
-17 33 -843 0
-17 -33 843 0
702 843 -844 0
702 -843 -844 0
-702 843 -844 0
-702 -843 844 0
702 843 -845 0
702 -843 845 0
-702 843 845 0
-702 -843 -845 0
697 845 -846 0
697 -845 -846 0
-697 845 -846 0
-697 -845 846 0
697 845 -847 0
697 -845 847 0
-697 845 847 0
-697 -845 -847 0
844 846 -848 0
844 -846 848 0
-844 846 848 0
-844 -846 -848 0
18 33 -849 0
18 -33 -849 0
-18 33 -849 0
-18 -33 849 0
708 849 -850 0
708 -849 -850 0
-708 849 -850 0
-708 -849 850 0
708 849 -851 0
708 -849 851 0
-708 849 851 0
-708 -849 -851 0
703 851 -852 0
703 -851 -852 0
-703 851 -852 0
-703 -851 852 0
703 851 -853 0
703 -851 853 0
-703 851 853 0
-703 -851 -853 0
850 852 -854 0
850 -852 854 0
-850 852 854 0
-850 -852 -854 0
19 33 -855 0
19 -33 -855 0
-19 33 -855 0
-19 -33 855 0
714 855 -856 0
714 -855 -856 0
-714 855 -856 0
-714 -855 856 0
714 855 -857 0
714 -855 857 0
-714 855 857 0
-714 -855 -857 0
709 857 -858 0
709 -857 -858 0
-709 857 -858 0
-709 -857 858 0
709 857 -859 0
709 -857 859 0
-709 857 859 0
-709 -857 -859 0
856 858 -860 0
856 -858 860 0
-856 858 860 0
-856 -858 -860 0
20 33 -861 0
20 -33 -861 0
-20 33 -861 0
-20 -33 861 0
720 861 -862 0
720 -861 -862 0
-720 861 -862 0
-720 -861 862 0
720 861 -863 0
720 -861 863 0
-720 861 863 0
-720 -861 -863 0
715 863 -864 0
715 -863 -864 0
-715 863 -864 0
-715 -863 864 0
715 863 -865 0
715 -863 865 0
-715 863 865 0
-715 -863 -865 0
862 864 -866 0
862 -864 866 0
-862 864 866 0
-862 -864 -866 0
21 33 -867 0
21 -33 -867 0
-21 33 -867 0
-21 -33 867 0
726 867 -868 0
726 -867 -868 0
-726 867 -868 0
-726 -867 868 0
726 867 -869 0
726 -867 869 0
-726 867 869 0
-726 -867 -869 0
721 869 -870 0
721 -869 -870 0
-721 869 -870 0
-721 -869 870 0
721 869 -871 0
721 -869 871 0
-721 869 871 0
-721 -869 -871 0
868 870 -872 0
868 -870 872 0
-868 870 872 0
-868 -870 -872 0
22 33 -873 0
22 -33 -873 0
-22 33 -873 0
-22 -33 873 0
732 873 -874 0
732 -873 -874 0
-732 873 -874 0
-732 -873 874 0
732 873 -875 0
732 -873 875 0
-732 873 875 0
-732 -873 -875 0
727 875 -876 0
727 -875 -876 0
-727 875 -876 0
-727 -875 876 0
727 875 -877 0
727 -875 877 0
-727 875 877 0
-727 -875 -877 0
874 876 -878 0
874 -876 878 0
-874 876 878 0
-874 -876 -878 0
23 33 -879 0
23 -33 -879 0
-23 33 -879 0
-23 -33 879 0
738 879 -880 0
738 -879 -880 0
-738 879 -880 0
-738 -879 880 0
738 879 -881 0
738 -879 881 0
-738 879 881 0
-738 -879 -881 0
733 881 -882 0
733 -881 -882 0
-733 881 -882 0
-733 -881 882 0
733 881 -883 0
733 -881 883 0
-733 881 883 0
-733 -881 -883 0
880 882 -884 0
880 -882 884 0
-880 882 884 0
-880 -882 -884 0
24 33 -885 0
24 -33 -885 0
-24 33 -885 0
-24 -33 885 0
744 885 -886 0
744 -885 -886 0
-744 885 -886 0
-744 -885 886 0
744 885 -887 0
744 -885 887 0
-744 885 887 0
-744 -885 -887 0
739 887 -888 0
739 -887 -888 0
-739 887 -888 0
-739 -887 888 0
739 887 -889 0
739 -887 889 0
-739 887 889 0
-739 -887 -889 0
886 888 -890 0
886 -888 890 0
-886 888 890 0
-886 -888 -890 0
25 33 -891 0
25 -33 -891 0
-25 33 -891 0
-25 -33 891 0
746 891 -892 0
746 -891 -892 0
-746 891 -892 0
-746 -891 892 0
746 891 -893 0
746 -891 893 0
-746 891 893 0
-746 -891 -893 0
745 893 -894 0
745 -893 -894 0
-745 893 -894 0
-745 -893 894 0
745 893 -895 0
745 -893 895 0
-745 893 895 0
-745 -893 -895 0
892 894 -896 0
892 -894 896 0
-892 894 896 0
-892 -894 -896 0
26 33 -897 0
26 -33 -897 0
-26 33 -897 0
-26 -33 897 0
1 34 -898 0
1 -34 -898 0
-1 34 -898 0
-1 -34 898 0
757 898 -899 0
757 -898 -899 0
-757 898 -899 0
-757 -898 899 0
757 898 -900 0
757 -898 900 0
-757 898 900 0
-757 -898 -900 0
752 900 -901 0
752 -900 -901 0
-752 900 -901 0
-752 -900 901 0
752 900 -902 0
752 -900 902 0
-752 900 902 0
-752 -900 -902 0
899 901 -903 0
899 -901 903 0
-899 901 903 0
-899 -901 -903 0
2 34 -904 0
2 -34 -904 0
-2 34 -904 0
-2 -34 904 0
763 904 -905 0
763 -904 -905 0
-763 904 -905 0
-763 -904 905 0
763 904 -906 0
763 -904 906 0
-763 904 906 0
-763 -904 -906 0
758 906 -907 0
758 -906 -907 0
-758 906 -907 0
-758 -906 907 0
758 906 -908 0
758 -906 908 0
-758 906 908 0
-758 -906 -908 0
905 907 -909 0
905 -907 909 0
-905 907 909 0
-905 -907 -909 0
3 34 -910 0
3 -34 -910 0
-3 34 -910 0
-3 -34 910 0
769 910 -911 0
769 -910 -911 0
-769 910 -911 0
-769 -910 911 0
769 910 -912 0
769 -910 912 0
-769 910 912 0
-769 -910 -912 0
764 912 -913 0
764 -912 -913 0
-764 912 -913 0
-764 -912 913 0
764 912 -914 0
764 -912 914 0
-764 912 914 0
-764 -912 -914 0
911 913 -915 0
911 -913 915 0
-911 913 915 0
-911 -913 -915 0
4 34 -916 0
4 -34 -916 0
-4 34 -916 0
-4 -34 916 0
775 916 -917 0
775 -916 -917 0
-775 916 -917 0
-775 -916 917 0
775 916 -918 0
775 -916 918 0
-775 916 918 0
-775 -916 -918 0
770 918 -919 0
770 -918 -919 0
-770 918 -919 0
-770 -918 919 0
770 918 -920 0
770 -918 920 0
-770 918 920 0
-770 -918 -920 0
917 919 -921 0
917 -919 921 0
-917 919 921 0
-917 -919 -921 0
5 34 -922 0
5 -34 -922 0
-5 34 -922 0
-5 -34 922 0
781 922 -923 0
781 -922 -923 0
-781 922 -923 0
-781 -922 923 0
781 922 -924 0
781 -922 924 0
-781 922 924 0
-781 -922 -924 0
776 924 -925 0
776 -924 -925 0
-776 924 -925 0
-776 -924 925 0
776 924 -926 0
776 -924 926 0
-776 924 926 0
-776 -924 -926 0
923 925 -927 0
923 -925 927 0
-923 925 927 0
-923 -925 -927 0
6 34 -928 0
6 -34 -928 0
-6 34 -928 0
-6 -34 928 0
787 928 -929 0
787 -928 -929 0
-787 928 -929 0
-787 -928 929 0
787 928 -930 0
787 -928 930 0
-787 928 930 0
-787 -928 -930 0
782 930 -931 0
782 -930 -931 0
-782 930 -931 0
-782 -930 931 0
782 930 -932 0
782 -930 932 0
-782 930 932 0
-782 -930 -932 0
929 931 -933 0
929 -931 933 0
-929 931 933 0
-929 -931 -933 0
7 34 -934 0
7 -34 -934 0
-7 34 -934 0
-7 -34 934 0
793 934 -935 0
793 -934 -935 0
-793 934 -935 0
-793 -934 935 0
793 934 -936 0
793 -934 936 0
-793 934 936 0
-793 -934 -936 0
788 936 -937 0
788 -936 -937 0
-788 936 -937 0
-788 -936 937 0
788 936 -938 0
788 -936 938 0
-788 936 938 0
-788 -936 -938 0
935 937 -939 0
935 -937 939 0
-935 937 939 0
-935 -937 -939 0
8 34 -940 0
8 -34 -940 0
-8 34 -940 0
-8 -34 940 0
799 940 -941 0
799 -940 -941 0
-799 940 -941 0
-799 -940 941 0
799 940 -942 0
799 -940 942 0
-799 940 942 0
-799 -940 -942 0
794 942 -943 0
794 -942 -943 0
-794 942 -943 0
-794 -942 943 0
794 942 -944 0
794 -942 944 0
-794 942 944 0
-794 -942 -944 0
941 943 -945 0
941 -943 945 0
-941 943 945 0
-941 -943 -945 0
9 34 -946 0
9 -34 -946 0
-9 34 -946 0
-9 -34 946 0
805 946 -947 0
805 -946 -947 0
-805 946 -947 0
-805 -946 947 0
805 946 -948 0
805 -946 948 0
-805 946 948 0
-805 -946 -948 0
800 948 -949 0
800 -948 -949 0
-800 948 -949 0
-800 -948 949 0
800 948 -950 0
800 -948 950 0
-800 948 950 0
-800 -948 -950 0
947 949 -951 0
947 -949 951 0
-947 949 951 0
-947 -949 -951 0
10 34 -952 0
10 -34 -952 0
-10 34 -952 0
-10 -34 952 0
811 952 -953 0
811 -952 -953 0
-811 952 -953 0
-811 -952 953 0
811 952 -954 0
811 -952 954 0
-811 952 954 0
-811 -952 -954 0
806 954 -955 0
806 -954 -955 0
-806 954 -955 0
-806 -954 955 0
806 954 -956 0
806 -954 956 0
-806 954 956 0
-806 -954 -956 0
953 955 -957 0
953 -955 957 0
-953 955 957 0
-953 -955 -957 0
11 34 -958 0
11 -34 -958 0
-11 34 -958 0
-11 -34 958 0
817 958 -959 0
817 -958 -959 0
-817 958 -959 0
-817 -958 959 0
817 958 -960 0
817 -958 960 0
-817 958 960 0
-817 -958 -960 0
812 960 -961 0
812 -960 -961 0
-812 960 -961 0
-812 -960 961 0
812 960 -962 0
812 -960 962 0
-812 960 962 0
-812 -960 -962 0
959 961 -963 0
959 -961 963 0
-959 961 963 0
-959 -961 -963 0
12 34 -964 0
12 -34 -964 0
-12 34 -964 0
-12 -34 964 0
823 964 -965 0
823 -964 -965 0
-823 964 -965 0
-823 -964 965 0
823 964 -966 0
823 -964 966 0
-823 964 966 0
-823 -964 -966 0
818 966 -967 0
818 -966 -967 0
-818 966 -967 0
-818 -966 967 0
818 966 -968 0
818 -966 968 0
-818 966 968 0
-818 -966 -968 0
965 967 -969 0
965 -967 969 0
-965 967 969 0
-965 -967 -969 0
13 34 -970 0
13 -34 -970 0
-13 34 -970 0
-13 -34 970 0
829 970 -971 0
829 -970 -971 0
-829 970 -971 0
-829 -970 971 0
829 970 -972 0
829 -970 972 0
-829 970 972 0
-829 -970 -972 0
824 972 -973 0
824 -972 -973 0
-824 972 -973 0
-824 -972 973 0
824 972 -974 0
824 -972 974 0
-824 972 974 0
-824 -972 -974 0
971 973 -975 0
971 -973 975 0
-971 973 975 0
-971 -973 -975 0
14 34 -976 0
14 -34 -976 0
-14 34 -976 0
-14 -34 976 0
835 976 -977 0
835 -976 -977 0
-835 976 -977 0
-835 -976 977 0
835 976 -978 0
835 -976 978 0
-835 976 978 0
-835 -976 -978 0
830 978 -979 0
830 -978 -979 0
-830 978 -979 0
-830 -978 979 0
830 978 -980 0
830 -978 980 0
-830 978 980 0
-830 -978 -980 0
977 979 -981 0
977 -979 981 0
-977 979 981 0
-977 -979 -981 0
15 34 -982 0
15 -34 -982 0
-15 34 -982 0
-15 -34 982 0
841 982 -983 0
841 -982 -983 0
-841 982 -983 0
-841 -982 983 0
841 982 -984 0
841 -982 984 0
-841 982 984 0
-841 -982 -984 0
836 984 -985 0
836 -984 -985 0
-836 984 -985 0
-836 -984 985 0
836 984 -986 0
836 -984 986 0
-836 984 986 0
-836 -984 -986 0
983 985 -987 0
983 -985 987 0
-983 985 987 0
-983 -985 -987 0
16 34 -988 0
16 -34 -988 0
-16 34 -988 0
-16 -34 988 0
847 988 -989 0
847 -988 -989 0
-847 988 -989 0
-847 -988 989 0
847 988 -990 0
847 -988 990 0
-847 988 990 0
-847 -988 -990 0
842 990 -991 0
842 -990 -991 0
-842 990 -991 0
-842 -990 991 0
842 990 -992 0
842 -990 992 0
-842 990 992 0
-842 -990 -992 0
989 991 -993 0
989 -991 993 0
-989 991 993 0
-989 -991 -993 0
17 34 -994 0
17 -34 -994 0
-17 34 -994 0
-17 -34 994 0
853 994 -995 0
853 -994 -995 0
-853 994 -995 0
-853 -994 995 0
853 994 -996 0
853 -994 996 0
-853 994 996 0
-853 -994 -996 0
848 996 -997 0
848 -996 -997 0
-848 996 -997 0
-848 -996 997 0
848 996 -998 0
848 -996 998 0
-848 996 998 0
-848 -996 -998 0
995 997 -999 0
995 -997 999 0
-995 997 999 0
-995 -997 -999 0
18 34 -1000 0
18 -34 -1000 0
-18 34 -1000 0
-18 -34 1000 0
859 1000 -1001 0
859 -1000 -1001 0
-859 1000 -1001 0
-859 -1000 1001 0
859 1000 -1002 0
859 -1000 1002 0
-859 1000 1002 0
-859 -1000 -1002 0
854 1002 -1003 0
854 -1002 -1003 0
-854 1002 -1003 0
-854 -1002 1003 0
854 1002 -1004 0
854 -1002 1004 0
-854 1002 1004 0
-854 -1002 -1004 0
1001 1003 -1005 0
1001 -1003 1005 0
-1001 1003 1005 0
-1001 -1003 -1005 0
19 34 -1006 0
19 -34 -1006 0
-19 34 -1006 0
-19 -34 1006 0
865 1006 -1007 0
865 -1006 -1007 0
-865 1006 -1007 0
-865 -1006 1007 0
865 1006 -1008 0
865 -1006 1008 0
-865 1006 1008 0
-865 -1006 -1008 0
860 1008 -1009 0
860 -1008 -1009 0
-860 1008 -1009 0
-860 -1008 1009 0
860 1008 -1010 0
860 -1008 1010 0
-860 1008 1010 0
-860 -1008 -1010 0
1007 1009 -1011 0
1007 -1009 1011 0
-1007 1009 1011 0
-1007 -1009 -1011 0
20 34 -1012 0
20 -34 -1012 0
-20 34 -1012 0
-20 -34 1012 0
871 1012 -1013 0
871 -1012 -1013 0
-871 1012 -1013 0
-871 -1012 1013 0
871 1012 -1014 0
871 -1012 1014 0
-871 1012 1014 0
-871 -1012 -1014 0
866 1014 -1015 0
866 -1014 -1015 0
-866 1014 -1015 0
-866 -1014 1015 0
866 1014 -1016 0
866 -1014 1016 0
-866 1014 1016 0
-866 -1014 -1016 0
1013 1015 -1017 0
1013 -1015 1017 0
-1013 1015 1017 0
-1013 -1015 -1017 0
21 34 -1018 0
21 -34 -1018 0
-21 34 -1018 0
-21 -34 1018 0
877 1018 -1019 0
877 -1018 -1019 0
-877 1018 -1019 0
-877 -1018 1019 0
877 1018 -1020 0
877 -1018 1020 0
-877 1018 1020 0
-877 -1018 -1020 0
872 1020 -1021 0
872 -1020 -1021 0
-872 1020 -1021 0
-872 -1020 1021 0
872 1020 -1022 0
872 -1020 1022 0
-872 1020 1022 0
-872 -1020 -1022 0
1019 1021 -1023 0
1019 -1021 1023 0
-1019 1021 1023 0
-1019 -1021 -1023 0
22 34 -1024 0
22 -34 -1024 0
-22 34 -1024 0
-22 -34 1024 0
883 1024 -1025 0
883 -1024 -1025 0
-883 1024 -1025 0
-883 -1024 1025 0
883 1024 -1026 0
883 -1024 1026 0
-883 1024 1026 0
-883 -1024 -1026 0
878 1026 -1027 0
878 -1026 -1027 0
-878 1026 -1027 0
-878 -1026 1027 0
878 1026 -1028 0
878 -1026 1028 0
-878 1026 1028 0
-878 -1026 -1028 0
1025 1027 -1029 0
1025 -1027 1029 0
-1025 1027 1029 0
-1025 -1027 -1029 0
23 34 -1030 0
23 -34 -1030 0
-23 34 -1030 0
-23 -34 1030 0
889 1030 -1031 0
889 -1030 -1031 0
-889 1030 -1031 0
-889 -1030 1031 0
889 1030 -1032 0
889 -1030 1032 0
-889 1030 1032 0
-889 -1030 -1032 0
884 1032 -1033 0
884 -1032 -1033 0
-884 1032 -1033 0
-884 -1032 1033 0
884 1032 -1034 0
884 -1032 1034 0
-884 1032 1034 0
-884 -1032 -1034 0
1031 1033 -1035 0
1031 -1033 1035 0
-1031 1033 1035 0
-1031 -1033 -1035 0
24 34 -1036 0
24 -34 -1036 0
-24 34 -1036 0
-24 -34 1036 0
895 1036 -1037 0
895 -1036 -1037 0
-895 1036 -1037 0
-895 -1036 1037 0
895 1036 -1038 0
895 -1036 1038 0
-895 1036 1038 0
-895 -1036 -1038 0
890 1038 -1039 0
890 -1038 -1039 0
-890 1038 -1039 0
-890 -1038 1039 0
890 1038 -1040 0
890 -1038 1040 0
-890 1038 1040 0
-890 -1038 -1040 0
1037 1039 -1041 0
1037 -1039 1041 0
-1037 1039 1041 0
-1037 -1039 -1041 0
25 34 -1042 0
25 -34 -1042 0
-25 34 -1042 0
-25 -34 1042 0
897 1042 -1043 0
897 -1042 -1043 0
-897 1042 -1043 0
-897 -1042 1043 0
897 1042 -1044 0
897 -1042 1044 0
-897 1042 1044 0
-897 -1042 -1044 0
896 1044 -1045 0
896 -1044 -1045 0
-896 1044 -1045 0
-896 -1044 1045 0
896 1044 -1046 0
896 -1044 1046 0
-896 1044 1046 0
-896 -1044 -1046 0
1043 1045 -1047 0
1043 -1045 1047 0
-1043 1045 1047 0
-1043 -1045 -1047 0
26 34 -1048 0
26 -34 -1048 0
-26 34 -1048 0
-26 -34 1048 0
1 35 -1049 0
1 -35 -1049 0
-1 35 -1049 0
-1 -35 1049 0
908 1049 -1050 0
908 -1049 -1050 0
-908 1049 -1050 0
-908 -1049 1050 0
908 1049 -1051 0
908 -1049 1051 0
-908 1049 1051 0
-908 -1049 -1051 0
903 1051 -1052 0
903 -1051 -1052 0
-903 1051 -1052 0
-903 -1051 1052 0
903 1051 -1053 0
903 -1051 1053 0
-903 1051 1053 0
-903 -1051 -1053 0
1050 1052 -1054 0
1050 -1052 1054 0
-1050 1052 1054 0
-1050 -1052 -1054 0
2 35 -1055 0
2 -35 -1055 0
-2 35 -1055 0
-2 -35 1055 0
914 1055 -1056 0
914 -1055 -1056 0
-914 1055 -1056 0
-914 -1055 1056 0
914 1055 -1057 0
914 -1055 1057 0
-914 1055 1057 0
-914 -1055 -1057 0
909 1057 -1058 0
909 -1057 -1058 0
-909 1057 -1058 0
-909 -1057 1058 0
909 1057 -1059 0
909 -1057 1059 0
-909 1057 1059 0
-909 -1057 -1059 0
1056 1058 -1060 0
1056 -1058 1060 0
-1056 1058 1060 0
-1056 -1058 -1060 0
3 35 -1061 0
3 -35 -1061 0
-3 35 -1061 0
-3 -35 1061 0
920 1061 -1062 0
920 -1061 -1062 0
-920 1061 -1062 0
-920 -1061 1062 0
920 1061 -1063 0
920 -1061 1063 0
-920 1061 1063 0
-920 -1061 -1063 0
915 1063 -1064 0
915 -1063 -1064 0
-915 1063 -1064 0
-915 -1063 1064 0
915 1063 -1065 0
915 -1063 1065 0
-915 1063 1065 0
-915 -1063 -1065 0
1062 1064 -1066 0
1062 -1064 1066 0
-1062 1064 1066 0
-1062 -1064 -1066 0
4 35 -1067 0
4 -35 -1067 0
-4 35 -1067 0
-4 -35 1067 0
926 1067 -1068 0
926 -1067 -1068 0
-926 1067 -1068 0
-926 -1067 1068 0
926 1067 -1069 0
926 -1067 1069 0
-926 1067 1069 0
-926 -1067 -1069 0
921 1069 -1070 0
921 -1069 -1070 0
-921 1069 -1070 0
-921 -1069 1070 0
921 1069 -1071 0
921 -1069 1071 0
-921 1069 1071 0
-921 -1069 -1071 0
1068 1070 -1072 0
1068 -1070 1072 0
-1068 1070 1072 0
-1068 -1070 -1072 0
5 35 -1073 0
5 -35 -1073 0
-5 35 -1073 0
-5 -35 1073 0
932 1073 -1074 0
932 -1073 -1074 0
-932 1073 -1074 0
-932 -1073 1074 0
932 1073 -1075 0
932 -1073 1075 0
-932 1073 1075 0
-932 -1073 -1075 0
927 1075 -1076 0
927 -1075 -1076 0
-927 1075 -1076 0
-927 -1075 1076 0
927 1075 -1077 0
927 -1075 1077 0
-927 1075 1077 0
-927 -1075 -1077 0
1074 1076 -1078 0
1074 -1076 1078 0
-1074 1076 1078 0
-1074 -1076 -1078 0
6 35 -1079 0
6 -35 -1079 0
-6 35 -1079 0
-6 -35 1079 0
938 1079 -1080 0
938 -1079 -1080 0
-938 1079 -1080 0
-938 -1079 1080 0
938 1079 -1081 0
938 -1079 1081 0
-938 1079 1081 0
-938 -1079 -1081 0
933 1081 -1082 0
933 -1081 -1082 0
-933 1081 -1082 0
-933 -1081 1082 0
933 1081 -1083 0
933 -1081 1083 0
-933 1081 1083 0
-933 -1081 -1083 0
1080 1082 -1084 0
1080 -1082 1084 0
-1080 1082 1084 0
-1080 -1082 -1084 0
7 35 -1085 0
7 -35 -1085 0
-7 35 -1085 0
-7 -35 1085 0
944 1085 -1086 0
944 -1085 -1086 0
-944 1085 -1086 0
-944 -1085 1086 0
944 1085 -1087 0
944 -1085 1087 0
-944 1085 1087 0
-944 -1085 -1087 0
939 1087 -1088 0
939 -1087 -1088 0
-939 1087 -1088 0
-939 -1087 1088 0
939 1087 -1089 0
939 -1087 1089 0
-939 1087 1089 0
-939 -1087 -1089 0
1086 1088 -1090 0
1086 -1088 1090 0
-1086 1088 1090 0
-1086 -1088 -1090 0
8 35 -1091 0
8 -35 -1091 0
-8 35 -1091 0
-8 -35 1091 0
950 1091 -1092 0
950 -1091 -1092 0
-950 1091 -1092 0
-950 -1091 1092 0
950 1091 -1093 0
950 -1091 1093 0
-950 1091 1093 0
-950 -1091 -1093 0
945 1093 -1094 0
945 -1093 -1094 0
-945 1093 -1094 0
-945 -1093 1094 0
945 1093 -1095 0
945 -1093 1095 0
-945 1093 1095 0
-945 -1093 -1095 0
1092 1094 -1096 0
1092 -1094 1096 0
-1092 1094 1096 0
-1092 -1094 -1096 0
9 35 -1097 0
9 -35 -1097 0
-9 35 -1097 0
-9 -35 1097 0
956 1097 -1098 0
956 -1097 -1098 0
-956 1097 -1098 0
-956 -1097 1098 0
956 1097 -1099 0
956 -1097 1099 0
-956 1097 1099 0
-956 -1097 -1099 0
951 1099 -1100 0
951 -1099 -1100 0
-951 1099 -1100 0
-951 -1099 1100 0
951 1099 -1101 0
951 -1099 1101 0
-951 1099 1101 0
-951 -1099 -1101 0
1098 1100 -1102 0
1098 -1100 1102 0
-1098 1100 1102 0
-1098 -1100 -1102 0
10 35 -1103 0
10 -35 -1103 0
-10 35 -1103 0
-10 -35 1103 0
962 1103 -1104 0
962 -1103 -1104 0
-962 1103 -1104 0
-962 -1103 1104 0
962 1103 -1105 0
962 -1103 1105 0
-962 1103 1105 0
-962 -1103 -1105 0
957 1105 -1106 0
957 -1105 -1106 0
-957 1105 -1106 0
-957 -1105 1106 0
957 1105 -1107 0
957 -1105 1107 0
-957 1105 1107 0
-957 -1105 -1107 0
1104 1106 -1108 0
1104 -1106 1108 0
-1104 1106 1108 0
-1104 -1106 -1108 0
11 35 -1109 0
11 -35 -1109 0
-11 35 -1109 0
-11 -35 1109 0
968 1109 -1110 0
968 -1109 -1110 0
-968 1109 -1110 0
-968 -1109 1110 0
968 1109 -1111 0
968 -1109 1111 0
-968 1109 1111 0
-968 -1109 -1111 0
963 1111 -1112 0
963 -1111 -1112 0
-963 1111 -1112 0
-963 -1111 1112 0
963 1111 -1113 0
963 -1111 1113 0
-963 1111 1113 0
-963 -1111 -1113 0
1110 1112 -1114 0
1110 -1112 1114 0
-1110 1112 1114 0
-1110 -1112 -1114 0
12 35 -1115 0
12 -35 -1115 0
-12 35 -1115 0
-12 -35 1115 0
974 1115 -1116 0
974 -1115 -1116 0
-974 1115 -1116 0
-974 -1115 1116 0
974 1115 -1117 0
974 -1115 1117 0
-974 1115 1117 0
-974 -1115 -1117 0
969 1117 -1118 0
969 -1117 -1118 0
-969 1117 -1118 0
-969 -1117 1118 0
969 1117 -1119 0
969 -1117 1119 0
-969 1117 1119 0
-969 -1117 -1119 0
1116 1118 -1120 0
1116 -1118 1120 0
-1116 1118 1120 0
-1116 -1118 -1120 0
13 35 -1121 0
13 -35 -1121 0
-13 35 -1121 0
-13 -35 1121 0
980 1121 -1122 0
980 -1121 -1122 0
-980 1121 -1122 0
-980 -1121 1122 0
980 1121 -1123 0
980 -1121 1123 0
-980 1121 1123 0
-980 -1121 -1123 0
975 1123 -1124 0
975 -1123 -1124 0
-975 1123 -1124 0
-975 -1123 1124 0
975 1123 -1125 0
975 -1123 1125 0
-975 1123 1125 0
-975 -1123 -1125 0
1122 1124 -1126 0
1122 -1124 1126 0
-1122 1124 1126 0
-1122 -1124 -1126 0
14 35 -1127 0
14 -35 -1127 0
-14 35 -1127 0
-14 -35 1127 0
986 1127 -1128 0
986 -1127 -1128 0
-986 1127 -1128 0
-986 -1127 1128 0
986 1127 -1129 0
986 -1127 1129 0
-986 1127 1129 0
-986 -1127 -1129 0
981 1129 -1130 0
981 -1129 -1130 0
-981 1129 -1130 0
-981 -1129 1130 0
981 1129 -1131 0
981 -1129 1131 0
-981 1129 1131 0
-981 -1129 -1131 0
1128 1130 -1132 0
1128 -1130 1132 0
-1128 1130 1132 0
-1128 -1130 -1132 0
15 35 -1133 0
15 -35 -1133 0
-15 35 -1133 0
-15 -35 1133 0
992 1133 -1134 0
992 -1133 -1134 0
-992 1133 -1134 0
-992 -1133 1134 0
992 1133 -1135 0
992 -1133 1135 0
-992 1133 1135 0
-992 -1133 -1135 0
987 1135 -1136 0
987 -1135 -1136 0
-987 1135 -1136 0
-987 -1135 1136 0
987 1135 -1137 0
987 -1135 1137 0
-987 1135 1137 0
-987 -1135 -1137 0
1134 1136 -1138 0
1134 -1136 1138 0
-1134 1136 1138 0
-1134 -1136 -1138 0
16 35 -1139 0
16 -35 -1139 0
-16 35 -1139 0
-16 -35 1139 0
998 1139 -1140 0
998 -1139 -1140 0
-998 1139 -1140 0
-998 -1139 1140 0
998 1139 -1141 0
998 -1139 1141 0
-998 1139 1141 0
-998 -1139 -1141 0
993 1141 -1142 0
993 -1141 -1142 0
-993 1141 -1142 0
-993 -1141 1142 0
993 1141 -1143 0
993 -1141 1143 0
-993 1141 1143 0
-993 -1141 -1143 0
1140 1142 -1144 0
1140 -1142 1144 0
-1140 1142 1144 0
-1140 -1142 -1144 0
17 35 -1145 0
17 -35 -1145 0
-17 35 -1145 0
-17 -35 1145 0
1004 1145 -1146 0
1004 -1145 -1146 0
-1004 1145 -1146 0
-1004 -1145 1146 0
1004 1145 -1147 0
1004 -1145 1147 0
-1004 1145 1147 0
-1004 -1145 -1147 0
999 1147 -1148 0
999 -1147 -1148 0
-999 1147 -1148 0
-999 -1147 1148 0
999 1147 -1149 0
999 -1147 1149 0
-999 1147 1149 0
-999 -1147 -1149 0
1146 1148 -1150 0
1146 -1148 1150 0
-1146 1148 1150 0
-1146 -1148 -1150 0
18 35 -1151 0
18 -35 -1151 0
-18 35 -1151 0
-18 -35 1151 0
1010 1151 -1152 0
1010 -1151 -1152 0
-1010 1151 -1152 0
-1010 -1151 1152 0
1010 1151 -1153 0
1010 -1151 1153 0
-1010 1151 1153 0
-1010 -1151 -1153 0
1005 1153 -1154 0
1005 -1153 -1154 0
-1005 1153 -1154 0
-1005 -1153 1154 0
1005 1153 -1155 0
1005 -1153 1155 0
-1005 1153 1155 0
-1005 -1153 -1155 0
1152 1154 -1156 0
1152 -1154 1156 0
-1152 1154 1156 0
-1152 -1154 -1156 0
19 35 -1157 0
19 -35 -1157 0
-19 35 -1157 0
-19 -35 1157 0
1016 1157 -1158 0
1016 -1157 -1158 0
-1016 1157 -1158 0
-1016 -1157 1158 0
1016 1157 -1159 0
1016 -1157 1159 0
-1016 1157 1159 0
-1016 -1157 -1159 0
1011 1159 -1160 0
1011 -1159 -1160 0
-1011 1159 -1160 0
-1011 -1159 1160 0
1011 1159 -1161 0
1011 -1159 1161 0
-1011 1159 1161 0
-1011 -1159 -1161 0
1158 1160 -1162 0
1158 -1160 1162 0
-1158 1160 1162 0
-1158 -1160 -1162 0
20 35 -1163 0
20 -35 -1163 0
-20 35 -1163 0
-20 -35 1163 0
1022 1163 -1164 0
1022 -1163 -1164 0
-1022 1163 -1164 0
-1022 -1163 1164 0
1022 1163 -1165 0
1022 -1163 1165 0
-1022 1163 1165 0
-1022 -1163 -1165 0
1017 1165 -1166 0
1017 -1165 -1166 0
-1017 1165 -1166 0
-1017 -1165 1166 0
1017 1165 -1167 0
1017 -1165 1167 0
-1017 1165 1167 0
-1017 -1165 -1167 0
1164 1166 -1168 0
1164 -1166 1168 0
-1164 1166 1168 0
-1164 -1166 -1168 0
21 35 -1169 0
21 -35 -1169 0
-21 35 -1169 0
-21 -35 1169 0
1028 1169 -1170 0
1028 -1169 -1170 0
-1028 1169 -1170 0
-1028 -1169 1170 0
1028 1169 -1171 0
1028 -1169 1171 0
-1028 1169 1171 0
-1028 -1169 -1171 0
1023 1171 -1172 0
1023 -1171 -1172 0
-1023 1171 -1172 0
-1023 -1171 1172 0
1023 1171 -1173 0
1023 -1171 1173 0
-1023 1171 1173 0
-1023 -1171 -1173 0
1170 1172 -1174 0
1170 -1172 1174 0
-1170 1172 1174 0
-1170 -1172 -1174 0
22 35 -1175 0
22 -35 -1175 0
-22 35 -1175 0
-22 -35 1175 0
1034 1175 -1176 0
1034 -1175 -1176 0
-1034 1175 -1176 0
-1034 -1175 1176 0
1034 1175 -1177 0
1034 -1175 1177 0
-1034 1175 1177 0
-1034 -1175 -1177 0
1029 1177 -1178 0
1029 -1177 -1178 0
-1029 1177 -1178 0
-1029 -1177 1178 0
1029 1177 -1179 0
1029 -1177 1179 0
-1029 1177 1179 0
-1029 -1177 -1179 0
1176 1178 -1180 0
1176 -1178 1180 0
-1176 1178 1180 0
-1176 -1178 -1180 0
23 35 -1181 0
23 -35 -1181 0
-23 35 -1181 0
-23 -35 1181 0
1040 1181 -1182 0
1040 -1181 -1182 0
-1040 1181 -1182 0
-1040 -1181 1182 0
1040 1181 -1183 0
1040 -1181 1183 0
-1040 1181 1183 0
-1040 -1181 -1183 0
1035 1183 -1184 0
1035 -1183 -1184 0
-1035 1183 -1184 0
-1035 -1183 1184 0
1035 1183 -1185 0
1035 -1183 1185 0
-1035 1183 1185 0
-1035 -1183 -1185 0
1182 1184 -1186 0
1182 -1184 1186 0
-1182 1184 1186 0
-1182 -1184 -1186 0
24 35 -1187 0
24 -35 -1187 0
-24 35 -1187 0
-24 -35 1187 0
1046 1187 -1188 0
1046 -1187 -1188 0
-1046 1187 -1188 0
-1046 -1187 1188 0
1046 1187 -1189 0
1046 -1187 1189 0
-1046 1187 1189 0
-1046 -1187 -1189 0
1041 1189 -1190 0
1041 -1189 -1190 0
-1041 1189 -1190 0
-1041 -1189 1190 0
1041 1189 -1191 0
1041 -1189 1191 0
-1041 1189 1191 0
-1041 -1189 -1191 0
1188 1190 -1192 0
1188 -1190 1192 0
-1188 1190 1192 0
-1188 -1190 -1192 0
25 35 -1193 0
25 -35 -1193 0
-25 35 -1193 0
-25 -35 1193 0
1048 1193 -1194 0
1048 -1193 -1194 0
-1048 1193 -1194 0
-1048 -1193 1194 0
1048 1193 -1195 0
1048 -1193 1195 0
-1048 1193 1195 0
-1048 -1193 -1195 0
1047 1195 -1196 0
1047 -1195 -1196 0
-1047 1195 -1196 0
-1047 -1195 1196 0
1047 1195 -1197 0
1047 -1195 1197 0
-1047 1195 1197 0
-1047 -1195 -1197 0
1194 1196 -1198 0
1194 -1196 1198 0
-1194 1196 1198 0
-1194 -1196 -1198 0
26 35 -1199 0
26 -35 -1199 0
-26 35 -1199 0
-26 -35 1199 0
1 36 -1200 0
1 -36 -1200 0
-1 36 -1200 0
-1 -36 1200 0
1059 1200 -1201 0
1059 -1200 -1201 0
-1059 1200 -1201 0
-1059 -1200 1201 0
1059 1200 -1202 0
1059 -1200 1202 0
-1059 1200 1202 0
-1059 -1200 -1202 0
1054 1202 -1203 0
1054 -1202 -1203 0
-1054 1202 -1203 0
-1054 -1202 1203 0
1054 1202 -1204 0
1054 -1202 1204 0
-1054 1202 1204 0
-1054 -1202 -1204 0
1201 1203 -1205 0
1201 -1203 1205 0
-1201 1203 1205 0
-1201 -1203 -1205 0
2 36 -1206 0
2 -36 -1206 0
-2 36 -1206 0
-2 -36 1206 0
1065 1206 -1207 0
1065 -1206 -1207 0
-1065 1206 -1207 0
-1065 -1206 1207 0
1065 1206 -1208 0
1065 -1206 1208 0
-1065 1206 1208 0
-1065 -1206 -1208 0
1060 1208 -1209 0
1060 -1208 -1209 0
-1060 1208 -1209 0
-1060 -1208 1209 0
1060 1208 -1210 0
1060 -1208 1210 0
-1060 1208 1210 0
-1060 -1208 -1210 0
1207 1209 -1211 0
1207 -1209 1211 0
-1207 1209 1211 0
-1207 -1209 -1211 0
3 36 -1212 0
3 -36 -1212 0
-3 36 -1212 0
-3 -36 1212 0
1071 1212 -1213 0
1071 -1212 -1213 0
-1071 1212 -1213 0
-1071 -1212 1213 0
1071 1212 -1214 0
1071 -1212 1214 0
-1071 1212 1214 0
-1071 -1212 -1214 0
1066 1214 -1215 0
1066 -1214 -1215 0
-1066 1214 -1215 0
-1066 -1214 1215 0
1066 1214 -1216 0
1066 -1214 1216 0
-1066 1214 1216 0
-1066 -1214 -1216 0
1213 1215 -1217 0
1213 -1215 1217 0
-1213 1215 1217 0
-1213 -1215 -1217 0
4 36 -1218 0
4 -36 -1218 0
-4 36 -1218 0
-4 -36 1218 0
1077 1218 -1219 0
1077 -1218 -1219 0
-1077 1218 -1219 0
-1077 -1218 1219 0
1077 1218 -1220 0
1077 -1218 1220 0
-1077 1218 1220 0
-1077 -1218 -1220 0
1072 1220 -1221 0
1072 -1220 -1221 0
-1072 1220 -1221 0
-1072 -1220 1221 0
1072 1220 -1222 0
1072 -1220 1222 0
-1072 1220 1222 0
-1072 -1220 -1222 0
1219 1221 -1223 0
1219 -1221 1223 0
-1219 1221 1223 0
-1219 -1221 -1223 0
5 36 -1224 0
5 -36 -1224 0
-5 36 -1224 0
-5 -36 1224 0
1083 1224 -1225 0
1083 -1224 -1225 0
-1083 1224 -1225 0
-1083 -1224 1225 0
1083 1224 -1226 0
1083 -1224 1226 0
-1083 1224 1226 0
-1083 -1224 -1226 0
1078 1226 -1227 0
1078 -1226 -1227 0
-1078 1226 -1227 0
-1078 -1226 1227 0
1078 1226 -1228 0
1078 -1226 1228 0
-1078 1226 1228 0
-1078 -1226 -1228 0
1225 1227 -1229 0
1225 -1227 1229 0
-1225 1227 1229 0
-1225 -1227 -1229 0
6 36 -1230 0
6 -36 -1230 0
-6 36 -1230 0
-6 -36 1230 0
1089 1230 -1231 0
1089 -1230 -1231 0
-1089 1230 -1231 0
-1089 -1230 1231 0
1089 1230 -1232 0
1089 -1230 1232 0
-1089 1230 1232 0
-1089 -1230 -1232 0
1084 1232 -1233 0
1084 -1232 -1233 0
-1084 1232 -1233 0
-1084 -1232 1233 0
1084 1232 -1234 0
1084 -1232 1234 0
-1084 1232 1234 0
-1084 -1232 -1234 0
1231 1233 -1235 0
1231 -1233 1235 0
-1231 1233 1235 0
-1231 -1233 -1235 0
7 36 -1236 0
7 -36 -1236 0
-7 36 -1236 0
-7 -36 1236 0
1095 1236 -1237 0
1095 -1236 -1237 0
-1095 1236 -1237 0
-1095 -1236 1237 0
1095 1236 -1238 0
1095 -1236 1238 0
-1095 1236 1238 0
-1095 -1236 -1238 0
1090 1238 -1239 0
1090 -1238 -1239 0
-1090 1238 -1239 0
-1090 -1238 1239 0
1090 1238 -1240 0
1090 -1238 1240 0
-1090 1238 1240 0
-1090 -1238 -1240 0
1237 1239 -1241 0
1237 -1239 1241 0
-1237 1239 1241 0
-1237 -1239 -1241 0
8 36 -1242 0
8 -36 -1242 0
-8 36 -1242 0
-8 -36 1242 0
1101 1242 -1243 0
1101 -1242 -1243 0
-1101 1242 -1243 0
-1101 -1242 1243 0
1101 1242 -1244 0
1101 -1242 1244 0
-1101 1242 1244 0
-1101 -1242 -1244 0
1096 1244 -1245 0
1096 -1244 -1245 0
-1096 1244 -1245 0
-1096 -1244 1245 0
1096 1244 -1246 0
1096 -1244 1246 0
-1096 1244 1246 0
-1096 -1244 -1246 0
1243 1245 -1247 0
1243 -1245 1247 0
-1243 1245 1247 0
-1243 -1245 -1247 0
9 36 -1248 0
9 -36 -1248 0
-9 36 -1248 0
-9 -36 1248 0
1107 1248 -1249 0
1107 -1248 -1249 0
-1107 1248 -1249 0
-1107 -1248 1249 0
1107 1248 -1250 0
1107 -1248 1250 0
-1107 1248 1250 0
-1107 -1248 -1250 0
1102 1250 -1251 0
1102 -1250 -1251 0
-1102 1250 -1251 0
-1102 -1250 1251 0
1102 1250 -1252 0
1102 -1250 1252 0
-1102 1250 1252 0
-1102 -1250 -1252 0
1249 1251 -1253 0
1249 -1251 1253 0
-1249 1251 1253 0
-1249 -1251 -1253 0
10 36 -1254 0
10 -36 -1254 0
-10 36 -1254 0
-10 -36 1254 0
1113 1254 -1255 0
1113 -1254 -1255 0
-1113 1254 -1255 0
-1113 -1254 1255 0
1113 1254 -1256 0
1113 -1254 1256 0
-1113 1254 1256 0
-1113 -1254 -1256 0
1108 1256 -1257 0
1108 -1256 -1257 0
-1108 1256 -1257 0
-1108 -1256 1257 0
1108 1256 -1258 0
1108 -1256 1258 0
-1108 1256 1258 0
-1108 -1256 -1258 0
1255 1257 -1259 0
1255 -1257 1259 0
-1255 1257 1259 0
-1255 -1257 -1259 0
11 36 -1260 0
11 -36 -1260 0
-11 36 -1260 0
-11 -36 1260 0
1119 1260 -1261 0
1119 -1260 -1261 0
-1119 1260 -1261 0
-1119 -1260 1261 0
1119 1260 -1262 0
1119 -1260 1262 0
-1119 1260 1262 0
-1119 -1260 -1262 0
1114 1262 -1263 0
1114 -1262 -1263 0
-1114 1262 -1263 0
-1114 -1262 1263 0
1114 1262 -1264 0
1114 -1262 1264 0
-1114 1262 1264 0
-1114 -1262 -1264 0
1261 1263 -1265 0
1261 -1263 1265 0
-1261 1263 1265 0
-1261 -1263 -1265 0
12 36 -1266 0
12 -36 -1266 0
-12 36 -1266 0
-12 -36 1266 0
1125 1266 -1267 0
1125 -1266 -1267 0
-1125 1266 -1267 0
-1125 -1266 1267 0
1125 1266 -1268 0
1125 -1266 1268 0
-1125 1266 1268 0
-1125 -1266 -1268 0
1120 1268 -1269 0
1120 -1268 -1269 0
-1120 1268 -1269 0
-1120 -1268 1269 0
1120 1268 -1270 0
1120 -1268 1270 0
-1120 1268 1270 0
-1120 -1268 -1270 0
1267 1269 -1271 0
1267 -1269 1271 0
-1267 1269 1271 0
-1267 -1269 -1271 0
13 36 -1272 0
13 -36 -1272 0
-13 36 -1272 0
-13 -36 1272 0
1131 1272 -1273 0
1131 -1272 -1273 0
-1131 1272 -1273 0
-1131 -1272 1273 0
1131 1272 -1274 0
1131 -1272 1274 0
-1131 1272 1274 0
-1131 -1272 -1274 0
1126 1274 -1275 0
1126 -1274 -1275 0
-1126 1274 -1275 0
-1126 -1274 1275 0
1126 1274 -1276 0
1126 -1274 1276 0
-1126 1274 1276 0
-1126 -1274 -1276 0
1273 1275 -1277 0
1273 -1275 1277 0
-1273 1275 1277 0
-1273 -1275 -1277 0
14 36 -1278 0
14 -36 -1278 0
-14 36 -1278 0
-14 -36 1278 0
1137 1278 -1279 0
1137 -1278 -1279 0
-1137 1278 -1279 0
-1137 -1278 1279 0
1137 1278 -1280 0
1137 -1278 1280 0
-1137 1278 1280 0
-1137 -1278 -1280 0
1132 1280 -1281 0
1132 -1280 -1281 0
-1132 1280 -1281 0
-1132 -1280 1281 0
1132 1280 -1282 0
1132 -1280 1282 0
-1132 1280 1282 0
-1132 -1280 -1282 0
1279 1281 -1283 0
1279 -1281 1283 0
-1279 1281 1283 0
-1279 -1281 -1283 0
15 36 -1284 0
15 -36 -1284 0
-15 36 -1284 0
-15 -36 1284 0
1143 1284 -1285 0
1143 -1284 -1285 0
-1143 1284 -1285 0
-1143 -1284 1285 0
1143 1284 -1286 0
1143 -1284 1286 0
-1143 1284 1286 0
-1143 -1284 -1286 0
1138 1286 -1287 0
1138 -1286 -1287 0
-1138 1286 -1287 0
-1138 -1286 1287 0
1138 1286 -1288 0
1138 -1286 1288 0
-1138 1286 1288 0
-1138 -1286 -1288 0
1285 1287 -1289 0
1285 -1287 1289 0
-1285 1287 1289 0
-1285 -1287 -1289 0
16 36 -1290 0
16 -36 -1290 0
-16 36 -1290 0
-16 -36 1290 0
1149 1290 -1291 0
1149 -1290 -1291 0
-1149 1290 -1291 0
-1149 -1290 1291 0
1149 1290 -1292 0
1149 -1290 1292 0
-1149 1290 1292 0
-1149 -1290 -1292 0
1144 1292 -1293 0
1144 -1292 -1293 0
-1144 1292 -1293 0
-1144 -1292 1293 0
1144 1292 -1294 0
1144 -1292 1294 0
-1144 1292 1294 0
-1144 -1292 -1294 0
1291 1293 -1295 0
1291 -1293 1295 0
-1291 1293 1295 0
-1291 -1293 -1295 0
17 36 -1296 0
17 -36 -1296 0
-17 36 -1296 0
-17 -36 1296 0
1155 1296 -1297 0
1155 -1296 -1297 0
-1155 1296 -1297 0
-1155 -1296 1297 0
1155 1296 -1298 0
1155 -1296 1298 0
-1155 1296 1298 0
-1155 -1296 -1298 0
1150 1298 -1299 0
1150 -1298 -1299 0
-1150 1298 -1299 0
-1150 -1298 1299 0
1150 1298 -1300 0
1150 -1298 1300 0
-1150 1298 1300 0
-1150 -1298 -1300 0
1297 1299 -1301 0
1297 -1299 1301 0
-1297 1299 1301 0
-1297 -1299 -1301 0
18 36 -1302 0
18 -36 -1302 0
-18 36 -1302 0
-18 -36 1302 0
1161 1302 -1303 0
1161 -1302 -1303 0
-1161 1302 -1303 0
-1161 -1302 1303 0
1161 1302 -1304 0
1161 -1302 1304 0
-1161 1302 1304 0
-1161 -1302 -1304 0
1156 1304 -1305 0
1156 -1304 -1305 0
-1156 1304 -1305 0
-1156 -1304 1305 0
1156 1304 -1306 0
1156 -1304 1306 0
-1156 1304 1306 0
-1156 -1304 -1306 0
1303 1305 -1307 0
1303 -1305 1307 0
-1303 1305 1307 0
-1303 -1305 -1307 0
19 36 -1308 0
19 -36 -1308 0
-19 36 -1308 0
-19 -36 1308 0
1167 1308 -1309 0
1167 -1308 -1309 0
-1167 1308 -1309 0
-1167 -1308 1309 0
1167 1308 -1310 0
1167 -1308 1310 0
-1167 1308 1310 0
-1167 -1308 -1310 0
1162 1310 -1311 0
1162 -1310 -1311 0
-1162 1310 -1311 0
-1162 -1310 1311 0
1162 1310 -1312 0
1162 -1310 1312 0
-1162 1310 1312 0
-1162 -1310 -1312 0
1309 1311 -1313 0
1309 -1311 1313 0
-1309 1311 1313 0
-1309 -1311 -1313 0
20 36 -1314 0
20 -36 -1314 0
-20 36 -1314 0
-20 -36 1314 0
1173 1314 -1315 0
1173 -1314 -1315 0
-1173 1314 -1315 0
-1173 -1314 1315 0
1173 1314 -1316 0
1173 -1314 1316 0
-1173 1314 1316 0
-1173 -1314 -1316 0
1168 1316 -1317 0
1168 -1316 -1317 0
-1168 1316 -1317 0
-1168 -1316 1317 0
1168 1316 -1318 0
1168 -1316 1318 0
-1168 1316 1318 0
-1168 -1316 -1318 0
1315 1317 -1319 0
1315 -1317 1319 0
-1315 1317 1319 0
-1315 -1317 -1319 0
21 36 -1320 0
21 -36 -1320 0
-21 36 -1320 0
-21 -36 1320 0
1179 1320 -1321 0
1179 -1320 -1321 0
-1179 1320 -1321 0
-1179 -1320 1321 0
1179 1320 -1322 0
1179 -1320 1322 0
-1179 1320 1322 0
-1179 -1320 -1322 0
1174 1322 -1323 0
1174 -1322 -1323 0
-1174 1322 -1323 0
-1174 -1322 1323 0
1174 1322 -1324 0
1174 -1322 1324 0
-1174 1322 1324 0
-1174 -1322 -1324 0
1321 1323 -1325 0
1321 -1323 1325 0
-1321 1323 1325 0
-1321 -1323 -1325 0
22 36 -1326 0
22 -36 -1326 0
-22 36 -1326 0
-22 -36 1326 0
1185 1326 -1327 0
1185 -1326 -1327 0
-1185 1326 -1327 0
-1185 -1326 1327 0
1185 1326 -1328 0
1185 -1326 1328 0
-1185 1326 1328 0
-1185 -1326 -1328 0
1180 1328 -1329 0
1180 -1328 -1329 0
-1180 1328 -1329 0
-1180 -1328 1329 0
1180 1328 -1330 0
1180 -1328 1330 0
-1180 1328 1330 0
-1180 -1328 -1330 0
1327 1329 -1331 0
1327 -1329 1331 0
-1327 1329 1331 0
-1327 -1329 -1331 0
23 36 -1332 0
23 -36 -1332 0
-23 36 -1332 0
-23 -36 1332 0
1191 1332 -1333 0
1191 -1332 -1333 0
-1191 1332 -1333 0
-1191 -1332 1333 0
1191 1332 -1334 0
1191 -1332 1334 0
-1191 1332 1334 0
-1191 -1332 -1334 0
1186 1334 -1335 0
1186 -1334 -1335 0
-1186 1334 -1335 0
-1186 -1334 1335 0
1186 1334 -1336 0
1186 -1334 1336 0
-1186 1334 1336 0
-1186 -1334 -1336 0
1333 1335 -1337 0
1333 -1335 1337 0
-1333 1335 1337 0
-1333 -1335 -1337 0
24 36 -1338 0
24 -36 -1338 0
-24 36 -1338 0
-24 -36 1338 0
1197 1338 -1339 0
1197 -1338 -1339 0
-1197 1338 -1339 0
-1197 -1338 1339 0
1197 1338 -1340 0
1197 -1338 1340 0
-1197 1338 1340 0
-1197 -1338 -1340 0
1192 1340 -1341 0
1192 -1340 -1341 0
-1192 1340 -1341 0
-1192 -1340 1341 0
1192 1340 -1342 0
1192 -1340 1342 0
-1192 1340 1342 0
-1192 -1340 -1342 0
1339 1341 -1343 0
1339 -1341 1343 0
-1339 1341 1343 0
-1339 -1341 -1343 0
25 36 -1344 0
25 -36 -1344 0
-25 36 -1344 0
-25 -36 1344 0
1199 1344 -1345 0
1199 -1344 -1345 0
-1199 1344 -1345 0
-1199 -1344 1345 0
1199 1344 -1346 0
1199 -1344 1346 0
-1199 1344 1346 0
-1199 -1344 -1346 0
1198 1346 -1347 0
1198 -1346 -1347 0
-1198 1346 -1347 0
-1198 -1346 1347 0
1198 1346 -1348 0
1198 -1346 1348 0
-1198 1346 1348 0
-1198 -1346 -1348 0
1345 1347 -1349 0
1345 -1347 1349 0
-1345 1347 1349 0
-1345 -1347 -1349 0
26 36 -1350 0
26 -36 -1350 0
-26 36 -1350 0
-26 -36 1350 0
1 37 -1351 0
1 -37 -1351 0
-1 37 -1351 0
-1 -37 1351 0
1210 1351 -1352 0
1210 -1351 -1352 0
-1210 1351 -1352 0
-1210 -1351 1352 0
1210 1351 -1353 0
1210 -1351 1353 0
-1210 1351 1353 0
-1210 -1351 -1353 0
1205 1353 -1354 0
1205 -1353 -1354 0
-1205 1353 -1354 0
-1205 -1353 1354 0
1205 1353 -1355 0
1205 -1353 1355 0
-1205 1353 1355 0
-1205 -1353 -1355 0
1352 1354 -1356 0
1352 -1354 1356 0
-1352 1354 1356 0
-1352 -1354 -1356 0
2 37 -1357 0
2 -37 -1357 0
-2 37 -1357 0
-2 -37 1357 0
1216 1357 -1358 0
1216 -1357 -1358 0
-1216 1357 -1358 0
-1216 -1357 1358 0
1216 1357 -1359 0
1216 -1357 1359 0
-1216 1357 1359 0
-1216 -1357 -1359 0
1211 1359 -1360 0
1211 -1359 -1360 0
-1211 1359 -1360 0
-1211 -1359 1360 0
1211 1359 -1361 0
1211 -1359 1361 0
-1211 1359 1361 0
-1211 -1359 -1361 0
1358 1360 -1362 0
1358 -1360 1362 0
-1358 1360 1362 0
-1358 -1360 -1362 0
3 37 -1363 0
3 -37 -1363 0
-3 37 -1363 0
-3 -37 1363 0
1222 1363 -1364 0
1222 -1363 -1364 0
-1222 1363 -1364 0
-1222 -1363 1364 0
1222 1363 -1365 0
1222 -1363 1365 0
-1222 1363 1365 0
-1222 -1363 -1365 0
1217 1365 -1366 0
1217 -1365 -1366 0
-1217 1365 -1366 0
-1217 -1365 1366 0
1217 1365 -1367 0
1217 -1365 1367 0
-1217 1365 1367 0
-1217 -1365 -1367 0
1364 1366 -1368 0
1364 -1366 1368 0
-1364 1366 1368 0
-1364 -1366 -1368 0
4 37 -1369 0
4 -37 -1369 0
-4 37 -1369 0
-4 -37 1369 0
1228 1369 -1370 0
1228 -1369 -1370 0
-1228 1369 -1370 0
-1228 -1369 1370 0
1228 1369 -1371 0
1228 -1369 1371 0
-1228 1369 1371 0
-1228 -1369 -1371 0
1223 1371 -1372 0
1223 -1371 -1372 0
-1223 1371 -1372 0
-1223 -1371 1372 0
1223 1371 -1373 0
1223 -1371 1373 0
-1223 1371 1373 0
-1223 -1371 -1373 0
1370 1372 -1374 0
1370 -1372 1374 0
-1370 1372 1374 0
-1370 -1372 -1374 0
5 37 -1375 0
5 -37 -1375 0
-5 37 -1375 0
-5 -37 1375 0
1234 1375 -1376 0
1234 -1375 -1376 0
-1234 1375 -1376 0
-1234 -1375 1376 0
1234 1375 -1377 0
1234 -1375 1377 0
-1234 1375 1377 0
-1234 -1375 -1377 0
1229 1377 -1378 0
1229 -1377 -1378 0
-1229 1377 -1378 0
-1229 -1377 1378 0
1229 1377 -1379 0
1229 -1377 1379 0
-1229 1377 1379 0
-1229 -1377 -1379 0
1376 1378 -1380 0
1376 -1378 1380 0
-1376 1378 1380 0
-1376 -1378 -1380 0
6 37 -1381 0
6 -37 -1381 0
-6 37 -1381 0
-6 -37 1381 0
1240 1381 -1382 0
1240 -1381 -1382 0
-1240 1381 -1382 0
-1240 -1381 1382 0
1240 1381 -1383 0
1240 -1381 1383 0
-1240 1381 1383 0
-1240 -1381 -1383 0
1235 1383 -1384 0
1235 -1383 -1384 0
-1235 1383 -1384 0
-1235 -1383 1384 0
1235 1383 -1385 0
1235 -1383 1385 0
-1235 1383 1385 0
-1235 -1383 -1385 0
1382 1384 -1386 0
1382 -1384 1386 0
-1382 1384 1386 0
-1382 -1384 -1386 0
7 37 -1387 0
7 -37 -1387 0
-7 37 -1387 0
-7 -37 1387 0
1246 1387 -1388 0
1246 -1387 -1388 0
-1246 1387 -1388 0
-1246 -1387 1388 0
1246 1387 -1389 0
1246 -1387 1389 0
-1246 1387 1389 0
-1246 -1387 -1389 0
1241 1389 -1390 0
1241 -1389 -1390 0
-1241 1389 -1390 0
-1241 -1389 1390 0
1241 1389 -1391 0
1241 -1389 1391 0
-1241 1389 1391 0
-1241 -1389 -1391 0
1388 1390 -1392 0
1388 -1390 1392 0
-1388 1390 1392 0
-1388 -1390 -1392 0
8 37 -1393 0
8 -37 -1393 0
-8 37 -1393 0
-8 -37 1393 0
1252 1393 -1394 0
1252 -1393 -1394 0
-1252 1393 -1394 0
-1252 -1393 1394 0
1252 1393 -1395 0
1252 -1393 1395 0
-1252 1393 1395 0
-1252 -1393 -1395 0
1247 1395 -1396 0
1247 -1395 -1396 0
-1247 1395 -1396 0
-1247 -1395 1396 0
1247 1395 -1397 0
1247 -1395 1397 0
-1247 1395 1397 0
-1247 -1395 -1397 0
1394 1396 -1398 0
1394 -1396 1398 0
-1394 1396 1398 0
-1394 -1396 -1398 0
9 37 -1399 0
9 -37 -1399 0
-9 37 -1399 0
-9 -37 1399 0
1258 1399 -1400 0
1258 -1399 -1400 0
-1258 1399 -1400 0
-1258 -1399 1400 0
1258 1399 -1401 0
1258 -1399 1401 0
-1258 1399 1401 0
-1258 -1399 -1401 0
1253 1401 -1402 0
1253 -1401 -1402 0
-1253 1401 -1402 0
-1253 -1401 1402 0
1253 1401 -1403 0
1253 -1401 1403 0
-1253 1401 1403 0
-1253 -1401 -1403 0
1400 1402 -1404 0
1400 -1402 1404 0
-1400 1402 1404 0
-1400 -1402 -1404 0
10 37 -1405 0
10 -37 -1405 0
-10 37 -1405 0
-10 -37 1405 0
1264 1405 -1406 0
1264 -1405 -1406 0
-1264 1405 -1406 0
-1264 -1405 1406 0
1264 1405 -1407 0
1264 -1405 1407 0
-1264 1405 1407 0
-1264 -1405 -1407 0
1259 1407 -1408 0
1259 -1407 -1408 0
-1259 1407 -1408 0
-1259 -1407 1408 0
1259 1407 -1409 0
1259 -1407 1409 0
-1259 1407 1409 0
-1259 -1407 -1409 0
1406 1408 -1410 0
1406 -1408 1410 0
-1406 1408 1410 0
-1406 -1408 -1410 0
11 37 -1411 0
11 -37 -1411 0
-11 37 -1411 0
-11 -37 1411 0
1270 1411 -1412 0
1270 -1411 -1412 0
-1270 1411 -1412 0
-1270 -1411 1412 0
1270 1411 -1413 0
1270 -1411 1413 0
-1270 1411 1413 0
-1270 -1411 -1413 0
1265 1413 -1414 0
1265 -1413 -1414 0
-1265 1413 -1414 0
-1265 -1413 1414 0
1265 1413 -1415 0
1265 -1413 1415 0
-1265 1413 1415 0
-1265 -1413 -1415 0
1412 1414 -1416 0
1412 -1414 1416 0
-1412 1414 1416 0
-1412 -1414 -1416 0
12 37 -1417 0
12 -37 -1417 0
-12 37 -1417 0
-12 -37 1417 0
1276 1417 -1418 0
1276 -1417 -1418 0
-1276 1417 -1418 0
-1276 -1417 1418 0
1276 1417 -1419 0
1276 -1417 1419 0
-1276 1417 1419 0
-1276 -1417 -1419 0
1271 1419 -1420 0
1271 -1419 -1420 0
-1271 1419 -1420 0
-1271 -1419 1420 0
1271 1419 -1421 0
1271 -1419 1421 0
-1271 1419 1421 0
-1271 -1419 -1421 0
1418 1420 -1422 0
1418 -1420 1422 0
-1418 1420 1422 0
-1418 -1420 -1422 0
13 37 -1423 0
13 -37 -1423 0
-13 37 -1423 0
-13 -37 1423 0
1282 1423 -1424 0
1282 -1423 -1424 0
-1282 1423 -1424 0
-1282 -1423 1424 0
1282 1423 -1425 0
1282 -1423 1425 0
-1282 1423 1425 0
-1282 -1423 -1425 0
1277 1425 -1426 0
1277 -1425 -1426 0
-1277 1425 -1426 0
-1277 -1425 1426 0
1277 1425 -1427 0
1277 -1425 1427 0
-1277 1425 1427 0
-1277 -1425 -1427 0
1424 1426 -1428 0
1424 -1426 1428 0
-1424 1426 1428 0
-1424 -1426 -1428 0
14 37 -1429 0
14 -37 -1429 0
-14 37 -1429 0
-14 -37 1429 0
1288 1429 -1430 0
1288 -1429 -1430 0
-1288 1429 -1430 0
-1288 -1429 1430 0
1288 1429 -1431 0
1288 -1429 1431 0
-1288 1429 1431 0
-1288 -1429 -1431 0
1283 1431 -1432 0
1283 -1431 -1432 0
-1283 1431 -1432 0
-1283 -1431 1432 0
1283 1431 -1433 0
1283 -1431 1433 0
-1283 1431 1433 0
-1283 -1431 -1433 0
1430 1432 -1434 0
1430 -1432 1434 0
-1430 1432 1434 0
-1430 -1432 -1434 0
15 37 -1435 0
15 -37 -1435 0
-15 37 -1435 0
-15 -37 1435 0
1294 1435 -1436 0
1294 -1435 -1436 0
-1294 1435 -1436 0
-1294 -1435 1436 0
1294 1435 -1437 0
1294 -1435 1437 0
-1294 1435 1437 0
-1294 -1435 -1437 0
1289 1437 -1438 0
1289 -1437 -1438 0
-1289 1437 -1438 0
-1289 -1437 1438 0
1289 1437 -1439 0
1289 -1437 1439 0
-1289 1437 1439 0
-1289 -1437 -1439 0
1436 1438 -1440 0
1436 -1438 1440 0
-1436 1438 1440 0
-1436 -1438 -1440 0
16 37 -1441 0
16 -37 -1441 0
-16 37 -1441 0
-16 -37 1441 0
1300 1441 -1442 0
1300 -1441 -1442 0
-1300 1441 -1442 0
-1300 -1441 1442 0
1300 1441 -1443 0
1300 -1441 1443 0
-1300 1441 1443 0
-1300 -1441 -1443 0
1295 1443 -1444 0
1295 -1443 -1444 0
-1295 1443 -1444 0
-1295 -1443 1444 0
1295 1443 -1445 0
1295 -1443 1445 0
-1295 1443 1445 0
-1295 -1443 -1445 0
1442 1444 -1446 0
1442 -1444 1446 0
-1442 1444 1446 0
-1442 -1444 -1446 0
17 37 -1447 0
17 -37 -1447 0
-17 37 -1447 0
-17 -37 1447 0
1306 1447 -1448 0
1306 -1447 -1448 0
-1306 1447 -1448 0
-1306 -1447 1448 0
1306 1447 -1449 0
1306 -1447 1449 0
-1306 1447 1449 0
-1306 -1447 -1449 0
1301 1449 -1450 0
1301 -1449 -1450 0
-1301 1449 -1450 0
-1301 -1449 1450 0
1301 1449 -1451 0
1301 -1449 1451 0
-1301 1449 1451 0
-1301 -1449 -1451 0
1448 1450 -1452 0
1448 -1450 1452 0
-1448 1450 1452 0
-1448 -1450 -1452 0
18 37 -1453 0
18 -37 -1453 0
-18 37 -1453 0
-18 -37 1453 0
1312 1453 -1454 0
1312 -1453 -1454 0
-1312 1453 -1454 0
-1312 -1453 1454 0
1312 1453 -1455 0
1312 -1453 1455 0
-1312 1453 1455 0
-1312 -1453 -1455 0
1307 1455 -1456 0
1307 -1455 -1456 0
-1307 1455 -1456 0
-1307 -1455 1456 0
1307 1455 -1457 0
1307 -1455 1457 0
-1307 1455 1457 0
-1307 -1455 -1457 0
1454 1456 -1458 0
1454 -1456 1458 0
-1454 1456 1458 0
-1454 -1456 -1458 0
19 37 -1459 0
19 -37 -1459 0
-19 37 -1459 0
-19 -37 1459 0
1318 1459 -1460 0
1318 -1459 -1460 0
-1318 1459 -1460 0
-1318 -1459 1460 0
1318 1459 -1461 0
1318 -1459 1461 0
-1318 1459 1461 0
-1318 -1459 -1461 0
1313 1461 -1462 0
1313 -1461 -1462 0
-1313 1461 -1462 0
-1313 -1461 1462 0
1313 1461 -1463 0
1313 -1461 1463 0
-1313 1461 1463 0
-1313 -1461 -1463 0
1460 1462 -1464 0
1460 -1462 1464 0
-1460 1462 1464 0
-1460 -1462 -1464 0
20 37 -1465 0
20 -37 -1465 0
-20 37 -1465 0
-20 -37 1465 0
1324 1465 -1466 0
1324 -1465 -1466 0
-1324 1465 -1466 0
-1324 -1465 1466 0
1324 1465 -1467 0
1324 -1465 1467 0
-1324 1465 1467 0
-1324 -1465 -1467 0
1319 1467 -1468 0
1319 -1467 -1468 0
-1319 1467 -1468 0
-1319 -1467 1468 0
1319 1467 -1469 0
1319 -1467 1469 0
-1319 1467 1469 0
-1319 -1467 -1469 0
1466 1468 -1470 0
1466 -1468 1470 0
-1466 1468 1470 0
-1466 -1468 -1470 0
21 37 -1471 0
21 -37 -1471 0
-21 37 -1471 0
-21 -37 1471 0
1330 1471 -1472 0
1330 -1471 -1472 0
-1330 1471 -1472 0
-1330 -1471 1472 0
1330 1471 -1473 0
1330 -1471 1473 0
-1330 1471 1473 0
-1330 -1471 -1473 0
1325 1473 -1474 0
1325 -1473 -1474 0
-1325 1473 -1474 0
-1325 -1473 1474 0
1325 1473 -1475 0
1325 -1473 1475 0
-1325 1473 1475 0
-1325 -1473 -1475 0
1472 1474 -1476 0
1472 -1474 1476 0
-1472 1474 1476 0
-1472 -1474 -1476 0
22 37 -1477 0
22 -37 -1477 0
-22 37 -1477 0
-22 -37 1477 0
1336 1477 -1478 0
1336 -1477 -1478 0
-1336 1477 -1478 0
-1336 -1477 1478 0
1336 1477 -1479 0
1336 -1477 1479 0
-1336 1477 1479 0
-1336 -1477 -1479 0
1331 1479 -1480 0
1331 -1479 -1480 0
-1331 1479 -1480 0
-1331 -1479 1480 0
1331 1479 -1481 0
1331 -1479 1481 0
-1331 1479 1481 0
-1331 -1479 -1481 0
1478 1480 -1482 0
1478 -1480 1482 0
-1478 1480 1482 0
-1478 -1480 -1482 0
23 37 -1483 0
23 -37 -1483 0
-23 37 -1483 0
-23 -37 1483 0
1342 1483 -1484 0
1342 -1483 -1484 0
-1342 1483 -1484 0
-1342 -1483 1484 0
1342 1483 -1485 0
1342 -1483 1485 0
-1342 1483 1485 0
-1342 -1483 -1485 0
1337 1485 -1486 0
1337 -1485 -1486 0
-1337 1485 -1486 0
-1337 -1485 1486 0
1337 1485 -1487 0
1337 -1485 1487 0
-1337 1485 1487 0
-1337 -1485 -1487 0
1484 1486 -1488 0
1484 -1486 1488 0
-1484 1486 1488 0
-1484 -1486 -1488 0
24 37 -1489 0
24 -37 -1489 0
-24 37 -1489 0
-24 -37 1489 0
1348 1489 -1490 0
1348 -1489 -1490 0
-1348 1489 -1490 0
-1348 -1489 1490 0
1348 1489 -1491 0
1348 -1489 1491 0
-1348 1489 1491 0
-1348 -1489 -1491 0
1343 1491 -1492 0
1343 -1491 -1492 0
-1343 1491 -1492 0
-1343 -1491 1492 0
1343 1491 -1493 0
1343 -1491 1493 0
-1343 1491 1493 0
-1343 -1491 -1493 0
1490 1492 -1494 0
1490 -1492 1494 0
-1490 1492 1494 0
-1490 -1492 -1494 0
25 37 -1495 0
25 -37 -1495 0
-25 37 -1495 0
-25 -37 1495 0
1350 1495 -1496 0
1350 -1495 -1496 0
-1350 1495 -1496 0
-1350 -1495 1496 0
1350 1495 -1497 0
1350 -1495 1497 0
-1350 1495 1497 0
-1350 -1495 -1497 0
1349 1497 -1498 0
1349 -1497 -1498 0
-1349 1497 -1498 0
-1349 -1497 1498 0
1349 1497 -1499 0
1349 -1497 1499 0
-1349 1497 1499 0
-1349 -1497 -1499 0
1496 1498 -1500 0
1496 -1498 1500 0
-1496 1498 1500 0
-1496 -1498 -1500 0
26 37 -1501 0
26 -37 -1501 0
-26 37 -1501 0
-26 -37 1501 0
1 38 -1502 0
1 -38 -1502 0
-1 38 -1502 0
-1 -38 1502 0
1361 1502 -1503 0
1361 -1502 -1503 0
-1361 1502 -1503 0
-1361 -1502 1503 0
1361 1502 -1504 0
1361 -1502 1504 0
-1361 1502 1504 0
-1361 -1502 -1504 0
1356 1504 -1505 0
1356 -1504 -1505 0
-1356 1504 -1505 0
-1356 -1504 1505 0
1356 1504 -1506 0
1356 -1504 1506 0
-1356 1504 1506 0
-1356 -1504 -1506 0
1503 1505 -1507 0
1503 -1505 1507 0
-1503 1505 1507 0
-1503 -1505 -1507 0
2 38 -1508 0
2 -38 -1508 0
-2 38 -1508 0
-2 -38 1508 0
1367 1508 -1509 0
1367 -1508 -1509 0
-1367 1508 -1509 0
-1367 -1508 1509 0
1367 1508 -1510 0
1367 -1508 1510 0
-1367 1508 1510 0
-1367 -1508 -1510 0
1362 1510 -1511 0
1362 -1510 -1511 0
-1362 1510 -1511 0
-1362 -1510 1511 0
1362 1510 -1512 0
1362 -1510 1512 0
-1362 1510 1512 0
-1362 -1510 -1512 0
1509 1511 -1513 0
1509 -1511 1513 0
-1509 1511 1513 0
-1509 -1511 -1513 0
3 38 -1514 0
3 -38 -1514 0
-3 38 -1514 0
-3 -38 1514 0
1373 1514 -1515 0
1373 -1514 -1515 0
-1373 1514 -1515 0
-1373 -1514 1515 0
1373 1514 -1516 0
1373 -1514 1516 0
-1373 1514 1516 0
-1373 -1514 -1516 0
1368 1516 -1517 0
1368 -1516 -1517 0
-1368 1516 -1517 0
-1368 -1516 1517 0
1368 1516 -1518 0
1368 -1516 1518 0
-1368 1516 1518 0
-1368 -1516 -1518 0
1515 1517 -1519 0
1515 -1517 1519 0
-1515 1517 1519 0
-1515 -1517 -1519 0
4 38 -1520 0
4 -38 -1520 0
-4 38 -1520 0
-4 -38 1520 0
1379 1520 -1521 0
1379 -1520 -1521 0
-1379 1520 -1521 0
-1379 -1520 1521 0
1379 1520 -1522 0
1379 -1520 1522 0
-1379 1520 1522 0
-1379 -1520 -1522 0
1374 1522 -1523 0
1374 -1522 -1523 0
-1374 1522 -1523 0
-1374 -1522 1523 0
1374 1522 -1524 0
1374 -1522 1524 0
-1374 1522 1524 0
-1374 -1522 -1524 0
1521 1523 -1525 0
1521 -1523 1525 0
-1521 1523 1525 0
-1521 -1523 -1525 0
5 38 -1526 0
5 -38 -1526 0
-5 38 -1526 0
-5 -38 1526 0
1385 1526 -1527 0
1385 -1526 -1527 0
-1385 1526 -1527 0
-1385 -1526 1527 0
1385 1526 -1528 0
1385 -1526 1528 0
-1385 1526 1528 0
-1385 -1526 -1528 0
1380 1528 -1529 0
1380 -1528 -1529 0
-1380 1528 -1529 0
-1380 -1528 1529 0
1380 1528 -1530 0
1380 -1528 1530 0
-1380 1528 1530 0
-1380 -1528 -1530 0
1527 1529 -1531 0
1527 -1529 1531 0
-1527 1529 1531 0
-1527 -1529 -1531 0
6 38 -1532 0
6 -38 -1532 0
-6 38 -1532 0
-6 -38 1532 0
1391 1532 -1533 0
1391 -1532 -1533 0
-1391 1532 -1533 0
-1391 -1532 1533 0
1391 1532 -1534 0
1391 -1532 1534 0
-1391 1532 1534 0
-1391 -1532 -1534 0
1386 1534 -1535 0
1386 -1534 -1535 0
-1386 1534 -1535 0
-1386 -1534 1535 0
1386 1534 -1536 0
1386 -1534 1536 0
-1386 1534 1536 0
-1386 -1534 -1536 0
1533 1535 -1537 0
1533 -1535 1537 0
-1533 1535 1537 0
-1533 -1535 -1537 0
7 38 -1538 0
7 -38 -1538 0
-7 38 -1538 0
-7 -38 1538 0
1397 1538 -1539 0
1397 -1538 -1539 0
-1397 1538 -1539 0
-1397 -1538 1539 0
1397 1538 -1540 0
1397 -1538 1540 0
-1397 1538 1540 0
-1397 -1538 -1540 0
1392 1540 -1541 0
1392 -1540 -1541 0
-1392 1540 -1541 0
-1392 -1540 1541 0
1392 1540 -1542 0
1392 -1540 1542 0
-1392 1540 1542 0
-1392 -1540 -1542 0
1539 1541 -1543 0
1539 -1541 1543 0
-1539 1541 1543 0
-1539 -1541 -1543 0
8 38 -1544 0
8 -38 -1544 0
-8 38 -1544 0
-8 -38 1544 0
1403 1544 -1545 0
1403 -1544 -1545 0
-1403 1544 -1545 0
-1403 -1544 1545 0
1403 1544 -1546 0
1403 -1544 1546 0
-1403 1544 1546 0
-1403 -1544 -1546 0
1398 1546 -1547 0
1398 -1546 -1547 0
-1398 1546 -1547 0
-1398 -1546 1547 0
1398 1546 -1548 0
1398 -1546 1548 0
-1398 1546 1548 0
-1398 -1546 -1548 0
1545 1547 -1549 0
1545 -1547 1549 0
-1545 1547 1549 0
-1545 -1547 -1549 0
9 38 -1550 0
9 -38 -1550 0
-9 38 -1550 0
-9 -38 1550 0
1409 1550 -1551 0
1409 -1550 -1551 0
-1409 1550 -1551 0
-1409 -1550 1551 0
1409 1550 -1552 0
1409 -1550 1552 0
-1409 1550 1552 0
-1409 -1550 -1552 0
1404 1552 -1553 0
1404 -1552 -1553 0
-1404 1552 -1553 0
-1404 -1552 1553 0
1404 1552 -1554 0
1404 -1552 1554 0
-1404 1552 1554 0
-1404 -1552 -1554 0
1551 1553 -1555 0
1551 -1553 1555 0
-1551 1553 1555 0
-1551 -1553 -1555 0
10 38 -1556 0
10 -38 -1556 0
-10 38 -1556 0
-10 -38 1556 0
1415 1556 -1557 0
1415 -1556 -1557 0
-1415 1556 -1557 0
-1415 -1556 1557 0
1415 1556 -1558 0
1415 -1556 1558 0
-1415 1556 1558 0
-1415 -1556 -1558 0
1410 1558 -1559 0
1410 -1558 -1559 0
-1410 1558 -1559 0
-1410 -1558 1559 0
1410 1558 -1560 0
1410 -1558 1560 0
-1410 1558 1560 0
-1410 -1558 -1560 0
1557 1559 -1561 0
1557 -1559 1561 0
-1557 1559 1561 0
-1557 -1559 -1561 0
11 38 -1562 0
11 -38 -1562 0
-11 38 -1562 0
-11 -38 1562 0
1421 1562 -1563 0
1421 -1562 -1563 0
-1421 1562 -1563 0
-1421 -1562 1563 0
1421 1562 -1564 0
1421 -1562 1564 0
-1421 1562 1564 0
-1421 -1562 -1564 0
1416 1564 -1565 0
1416 -1564 -1565 0
-1416 1564 -1565 0
-1416 -1564 1565 0
1416 1564 -1566 0
1416 -1564 1566 0
-1416 1564 1566 0
-1416 -1564 -1566 0
1563 1565 -1567 0
1563 -1565 1567 0
-1563 1565 1567 0
-1563 -1565 -1567 0
12 38 -1568 0
12 -38 -1568 0
-12 38 -1568 0
-12 -38 1568 0
1427 1568 -1569 0
1427 -1568 -1569 0
-1427 1568 -1569 0
-1427 -1568 1569 0
1427 1568 -1570 0
1427 -1568 1570 0
-1427 1568 1570 0
-1427 -1568 -1570 0
1422 1570 -1571 0
1422 -1570 -1571 0
-1422 1570 -1571 0
-1422 -1570 1571 0
1422 1570 -1572 0
1422 -1570 1572 0
-1422 1570 1572 0
-1422 -1570 -1572 0
1569 1571 -1573 0
1569 -1571 1573 0
-1569 1571 1573 0
-1569 -1571 -1573 0
13 38 -1574 0
13 -38 -1574 0
-13 38 -1574 0
-13 -38 1574 0
1433 1574 -1575 0
1433 -1574 -1575 0
-1433 1574 -1575 0
-1433 -1574 1575 0
1433 1574 -1576 0
1433 -1574 1576 0
-1433 1574 1576 0
-1433 -1574 -1576 0
1428 1576 -1577 0
1428 -1576 -1577 0
-1428 1576 -1577 0
-1428 -1576 1577 0
1428 1576 -1578 0
1428 -1576 1578 0
-1428 1576 1578 0
-1428 -1576 -1578 0
1575 1577 -1579 0
1575 -1577 1579 0
-1575 1577 1579 0
-1575 -1577 -1579 0
14 38 -1580 0
14 -38 -1580 0
-14 38 -1580 0
-14 -38 1580 0
1439 1580 -1581 0
1439 -1580 -1581 0
-1439 1580 -1581 0
-1439 -1580 1581 0
1439 1580 -1582 0
1439 -1580 1582 0
-1439 1580 1582 0
-1439 -1580 -1582 0
1434 1582 -1583 0
1434 -1582 -1583 0
-1434 1582 -1583 0
-1434 -1582 1583 0
1434 1582 -1584 0
1434 -1582 1584 0
-1434 1582 1584 0
-1434 -1582 -1584 0
1581 1583 -1585 0
1581 -1583 1585 0
-1581 1583 1585 0
-1581 -1583 -1585 0
15 38 -1586 0
15 -38 -1586 0
-15 38 -1586 0
-15 -38 1586 0
1445 1586 -1587 0
1445 -1586 -1587 0
-1445 1586 -1587 0
-1445 -1586 1587 0
1445 1586 -1588 0
1445 -1586 1588 0
-1445 1586 1588 0
-1445 -1586 -1588 0
1440 1588 -1589 0
1440 -1588 -1589 0
-1440 1588 -1589 0
-1440 -1588 1589 0
1440 1588 -1590 0
1440 -1588 1590 0
-1440 1588 1590 0
-1440 -1588 -1590 0
1587 1589 -1591 0
1587 -1589 1591 0
-1587 1589 1591 0
-1587 -1589 -1591 0
16 38 -1592 0
16 -38 -1592 0
-16 38 -1592 0
-16 -38 1592 0
1451 1592 -1593 0
1451 -1592 -1593 0
-1451 1592 -1593 0
-1451 -1592 1593 0
1451 1592 -1594 0
1451 -1592 1594 0
-1451 1592 1594 0
-1451 -1592 -1594 0
1446 1594 -1595 0
1446 -1594 -1595 0
-1446 1594 -1595 0
-1446 -1594 1595 0
1446 1594 -1596 0
1446 -1594 1596 0
-1446 1594 1596 0
-1446 -1594 -1596 0
1593 1595 -1597 0
1593 -1595 1597 0
-1593 1595 1597 0
-1593 -1595 -1597 0
17 38 -1598 0
17 -38 -1598 0
-17 38 -1598 0
-17 -38 1598 0
1457 1598 -1599 0
1457 -1598 -1599 0
-1457 1598 -1599 0
-1457 -1598 1599 0
1457 1598 -1600 0
1457 -1598 1600 0
-1457 1598 1600 0
-1457 -1598 -1600 0
1452 1600 -1601 0
1452 -1600 -1601 0
-1452 1600 -1601 0
-1452 -1600 1601 0
1452 1600 -1602 0
1452 -1600 1602 0
-1452 1600 1602 0
-1452 -1600 -1602 0
1599 1601 -1603 0
1599 -1601 1603 0
-1599 1601 1603 0
-1599 -1601 -1603 0
18 38 -1604 0
18 -38 -1604 0
-18 38 -1604 0
-18 -38 1604 0
1463 1604 -1605 0
1463 -1604 -1605 0
-1463 1604 -1605 0
-1463 -1604 1605 0
1463 1604 -1606 0
1463 -1604 1606 0
-1463 1604 1606 0
-1463 -1604 -1606 0
1458 1606 -1607 0
1458 -1606 -1607 0
-1458 1606 -1607 0
-1458 -1606 1607 0
1458 1606 -1608 0
1458 -1606 1608 0
-1458 1606 1608 0
-1458 -1606 -1608 0
1605 1607 -1609 0
1605 -1607 1609 0
-1605 1607 1609 0
-1605 -1607 -1609 0
19 38 -1610 0
19 -38 -1610 0
-19 38 -1610 0
-19 -38 1610 0
1469 1610 -1611 0
1469 -1610 -1611 0
-1469 1610 -1611 0
-1469 -1610 1611 0
1469 1610 -1612 0
1469 -1610 1612 0
-1469 1610 1612 0
-1469 -1610 -1612 0
1464 1612 -1613 0
1464 -1612 -1613 0
-1464 1612 -1613 0
-1464 -1612 1613 0
1464 1612 -1614 0
1464 -1612 1614 0
-1464 1612 1614 0
-1464 -1612 -1614 0
1611 1613 -1615 0
1611 -1613 1615 0
-1611 1613 1615 0
-1611 -1613 -1615 0
20 38 -1616 0
20 -38 -1616 0
-20 38 -1616 0
-20 -38 1616 0
1475 1616 -1617 0
1475 -1616 -1617 0
-1475 1616 -1617 0
-1475 -1616 1617 0
1475 1616 -1618 0
1475 -1616 1618 0
-1475 1616 1618 0
-1475 -1616 -1618 0
1470 1618 -1619 0
1470 -1618 -1619 0
-1470 1618 -1619 0
-1470 -1618 1619 0
1470 1618 -1620 0
1470 -1618 1620 0
-1470 1618 1620 0
-1470 -1618 -1620 0
1617 1619 -1621 0
1617 -1619 1621 0
-1617 1619 1621 0
-1617 -1619 -1621 0
21 38 -1622 0
21 -38 -1622 0
-21 38 -1622 0
-21 -38 1622 0
1481 1622 -1623 0
1481 -1622 -1623 0
-1481 1622 -1623 0
-1481 -1622 1623 0
1481 1622 -1624 0
1481 -1622 1624 0
-1481 1622 1624 0
-1481 -1622 -1624 0
1476 1624 -1625 0
1476 -1624 -1625 0
-1476 1624 -1625 0
-1476 -1624 1625 0
1476 1624 -1626 0
1476 -1624 1626 0
-1476 1624 1626 0
-1476 -1624 -1626 0
1623 1625 -1627 0
1623 -1625 1627 0
-1623 1625 1627 0
-1623 -1625 -1627 0
22 38 -1628 0
22 -38 -1628 0
-22 38 -1628 0
-22 -38 1628 0
1487 1628 -1629 0
1487 -1628 -1629 0
-1487 1628 -1629 0
-1487 -1628 1629 0
1487 1628 -1630 0
1487 -1628 1630 0
-1487 1628 1630 0
-1487 -1628 -1630 0
1482 1630 -1631 0
1482 -1630 -1631 0
-1482 1630 -1631 0
-1482 -1630 1631 0
1482 1630 -1632 0
1482 -1630 1632 0
-1482 1630 1632 0
-1482 -1630 -1632 0
1629 1631 -1633 0
1629 -1631 1633 0
-1629 1631 1633 0
-1629 -1631 -1633 0
23 38 -1634 0
23 -38 -1634 0
-23 38 -1634 0
-23 -38 1634 0
1493 1634 -1635 0
1493 -1634 -1635 0
-1493 1634 -1635 0
-1493 -1634 1635 0
1493 1634 -1636 0
1493 -1634 1636 0
-1493 1634 1636 0
-1493 -1634 -1636 0
1488 1636 -1637 0
1488 -1636 -1637 0
-1488 1636 -1637 0
-1488 -1636 1637 0
1488 1636 -1638 0
1488 -1636 1638 0
-1488 1636 1638 0
-1488 -1636 -1638 0
1635 1637 -1639 0
1635 -1637 1639 0
-1635 1637 1639 0
-1635 -1637 -1639 0
24 38 -1640 0
24 -38 -1640 0
-24 38 -1640 0
-24 -38 1640 0
1499 1640 -1641 0
1499 -1640 -1641 0
-1499 1640 -1641 0
-1499 -1640 1641 0
1499 1640 -1642 0
1499 -1640 1642 0
-1499 1640 1642 0
-1499 -1640 -1642 0
1494 1642 -1643 0
1494 -1642 -1643 0
-1494 1642 -1643 0
-1494 -1642 1643 0
1494 1642 -1644 0
1494 -1642 1644 0
-1494 1642 1644 0
-1494 -1642 -1644 0
1641 1643 -1645 0
1641 -1643 1645 0
-1641 1643 1645 0
-1641 -1643 -1645 0
25 38 -1646 0
25 -38 -1646 0
-25 38 -1646 0
-25 -38 1646 0
1501 1646 -1647 0
1501 -1646 -1647 0
-1501 1646 -1647 0
-1501 -1646 1647 0
1501 1646 -1648 0
1501 -1646 1648 0
-1501 1646 1648 0
-1501 -1646 -1648 0
1500 1648 -1649 0
1500 -1648 -1649 0
-1500 1648 -1649 0
-1500 -1648 1649 0
1500 1648 -1650 0
1500 -1648 1650 0
-1500 1648 1650 0
-1500 -1648 -1650 0
1647 1649 -1651 0
1647 -1649 1651 0
-1647 1649 1651 0
-1647 -1649 -1651 0
26 38 -1652 0
26 -38 -1652 0
-26 38 -1652 0
-26 -38 1652 0
1 39 -1653 0
1 -39 -1653 0
-1 39 -1653 0
-1 -39 1653 0
1512 1653 -1654 0
1512 -1653 -1654 0
-1512 1653 -1654 0
-1512 -1653 1654 0
1512 1653 -1655 0
1512 -1653 1655 0
-1512 1653 1655 0
-1512 -1653 -1655 0
1507 1655 -1656 0
1507 -1655 -1656 0
-1507 1655 -1656 0
-1507 -1655 1656 0
1507 1655 -1657 0
1507 -1655 1657 0
-1507 1655 1657 0
-1507 -1655 -1657 0
1654 1656 -1658 0
1654 -1656 1658 0
-1654 1656 1658 0
-1654 -1656 -1658 0
2 39 -1659 0
2 -39 -1659 0
-2 39 -1659 0
-2 -39 1659 0
1518 1659 -1660 0
1518 -1659 -1660 0
-1518 1659 -1660 0
-1518 -1659 1660 0
1518 1659 -1661 0
1518 -1659 1661 0
-1518 1659 1661 0
-1518 -1659 -1661 0
1513 1661 -1662 0
1513 -1661 -1662 0
-1513 1661 -1662 0
-1513 -1661 1662 0
1513 1661 -1663 0
1513 -1661 1663 0
-1513 1661 1663 0
-1513 -1661 -1663 0
1660 1662 -1664 0
1660 -1662 1664 0
-1660 1662 1664 0
-1660 -1662 -1664 0
3 39 -1665 0
3 -39 -1665 0
-3 39 -1665 0
-3 -39 1665 0
1524 1665 -1666 0
1524 -1665 -1666 0
-1524 1665 -1666 0
-1524 -1665 1666 0
1524 1665 -1667 0
1524 -1665 1667 0
-1524 1665 1667 0
-1524 -1665 -1667 0
1519 1667 -1668 0
1519 -1667 -1668 0
-1519 1667 -1668 0
-1519 -1667 1668 0
1519 1667 -1669 0
1519 -1667 1669 0
-1519 1667 1669 0
-1519 -1667 -1669 0
1666 1668 -1670 0
1666 -1668 1670 0
-1666 1668 1670 0
-1666 -1668 -1670 0
4 39 -1671 0
4 -39 -1671 0
-4 39 -1671 0
-4 -39 1671 0
1530 1671 -1672 0
1530 -1671 -1672 0
-1530 1671 -1672 0
-1530 -1671 1672 0
1530 1671 -1673 0
1530 -1671 1673 0
-1530 1671 1673 0
-1530 -1671 -1673 0
1525 1673 -1674 0
1525 -1673 -1674 0
-1525 1673 -1674 0
-1525 -1673 1674 0
1525 1673 -1675 0
1525 -1673 1675 0
-1525 1673 1675 0
-1525 -1673 -1675 0
1672 1674 -1676 0
1672 -1674 1676 0
-1672 1674 1676 0
-1672 -1674 -1676 0
5 39 -1677 0
5 -39 -1677 0
-5 39 -1677 0
-5 -39 1677 0
1536 1677 -1678 0
1536 -1677 -1678 0
-1536 1677 -1678 0
-1536 -1677 1678 0
1536 1677 -1679 0
1536 -1677 1679 0
-1536 1677 1679 0
-1536 -1677 -1679 0
1531 1679 -1680 0
1531 -1679 -1680 0
-1531 1679 -1680 0
-1531 -1679 1680 0
1531 1679 -1681 0
1531 -1679 1681 0
-1531 1679 1681 0
-1531 -1679 -1681 0
1678 1680 -1682 0
1678 -1680 1682 0
-1678 1680 1682 0
-1678 -1680 -1682 0
6 39 -1683 0
6 -39 -1683 0
-6 39 -1683 0
-6 -39 1683 0
1542 1683 -1684 0
1542 -1683 -1684 0
-1542 1683 -1684 0
-1542 -1683 1684 0
1542 1683 -1685 0
1542 -1683 1685 0
-1542 1683 1685 0
-1542 -1683 -1685 0
1537 1685 -1686 0
1537 -1685 -1686 0
-1537 1685 -1686 0
-1537 -1685 1686 0
1537 1685 -1687 0
1537 -1685 1687 0
-1537 1685 1687 0
-1537 -1685 -1687 0
1684 1686 -1688 0
1684 -1686 1688 0
-1684 1686 1688 0
-1684 -1686 -1688 0
7 39 -1689 0
7 -39 -1689 0
-7 39 -1689 0
-7 -39 1689 0
1548 1689 -1690 0
1548 -1689 -1690 0
-1548 1689 -1690 0
-1548 -1689 1690 0
1548 1689 -1691 0
1548 -1689 1691 0
-1548 1689 1691 0
-1548 -1689 -1691 0
1543 1691 -1692 0
1543 -1691 -1692 0
-1543 1691 -1692 0
-1543 -1691 1692 0
1543 1691 -1693 0
1543 -1691 1693 0
-1543 1691 1693 0
-1543 -1691 -1693 0
1690 1692 -1694 0
1690 -1692 1694 0
-1690 1692 1694 0
-1690 -1692 -1694 0
8 39 -1695 0
8 -39 -1695 0
-8 39 -1695 0
-8 -39 1695 0
1554 1695 -1696 0
1554 -1695 -1696 0
-1554 1695 -1696 0
-1554 -1695 1696 0
1554 1695 -1697 0
1554 -1695 1697 0
-1554 1695 1697 0
-1554 -1695 -1697 0
1549 1697 -1698 0
1549 -1697 -1698 0
-1549 1697 -1698 0
-1549 -1697 1698 0
1549 1697 -1699 0
1549 -1697 1699 0
-1549 1697 1699 0
-1549 -1697 -1699 0
1696 1698 -1700 0
1696 -1698 1700 0
-1696 1698 1700 0
-1696 -1698 -1700 0
9 39 -1701 0
9 -39 -1701 0
-9 39 -1701 0
-9 -39 1701 0
1560 1701 -1702 0
1560 -1701 -1702 0
-1560 1701 -1702 0
-1560 -1701 1702 0
1560 1701 -1703 0
1560 -1701 1703 0
-1560 1701 1703 0
-1560 -1701 -1703 0
1555 1703 -1704 0
1555 -1703 -1704 0
-1555 1703 -1704 0
-1555 -1703 1704 0
1555 1703 -1705 0
1555 -1703 1705 0
-1555 1703 1705 0
-1555 -1703 -1705 0
1702 1704 -1706 0
1702 -1704 1706 0
-1702 1704 1706 0
-1702 -1704 -1706 0
10 39 -1707 0
10 -39 -1707 0
-10 39 -1707 0
-10 -39 1707 0
1566 1707 -1708 0
1566 -1707 -1708 0
-1566 1707 -1708 0
-1566 -1707 1708 0
1566 1707 -1709 0
1566 -1707 1709 0
-1566 1707 1709 0
-1566 -1707 -1709 0
1561 1709 -1710 0
1561 -1709 -1710 0
-1561 1709 -1710 0
-1561 -1709 1710 0
1561 1709 -1711 0
1561 -1709 1711 0
-1561 1709 1711 0
-1561 -1709 -1711 0
1708 1710 -1712 0
1708 -1710 1712 0
-1708 1710 1712 0
-1708 -1710 -1712 0
11 39 -1713 0
11 -39 -1713 0
-11 39 -1713 0
-11 -39 1713 0
1572 1713 -1714 0
1572 -1713 -1714 0
-1572 1713 -1714 0
-1572 -1713 1714 0
1572 1713 -1715 0
1572 -1713 1715 0
-1572 1713 1715 0
-1572 -1713 -1715 0
1567 1715 -1716 0
1567 -1715 -1716 0
-1567 1715 -1716 0
-1567 -1715 1716 0
1567 1715 -1717 0
1567 -1715 1717 0
-1567 1715 1717 0
-1567 -1715 -1717 0
1714 1716 -1718 0
1714 -1716 1718 0
-1714 1716 1718 0
-1714 -1716 -1718 0
12 39 -1719 0
12 -39 -1719 0
-12 39 -1719 0
-12 -39 1719 0
1578 1719 -1720 0
1578 -1719 -1720 0
-1578 1719 -1720 0
-1578 -1719 1720 0
1578 1719 -1721 0
1578 -1719 1721 0
-1578 1719 1721 0
-1578 -1719 -1721 0
1573 1721 -1722 0
1573 -1721 -1722 0
-1573 1721 -1722 0
-1573 -1721 1722 0
1573 1721 -1723 0
1573 -1721 1723 0
-1573 1721 1723 0
-1573 -1721 -1723 0
1720 1722 -1724 0
1720 -1722 1724 0
-1720 1722 1724 0
-1720 -1722 -1724 0
13 39 -1725 0
13 -39 -1725 0
-13 39 -1725 0
-13 -39 1725 0
1584 1725 -1726 0
1584 -1725 -1726 0
-1584 1725 -1726 0
-1584 -1725 1726 0
1584 1725 -1727 0
1584 -1725 1727 0
-1584 1725 1727 0
-1584 -1725 -1727 0
1579 1727 -1728 0
1579 -1727 -1728 0
-1579 1727 -1728 0
-1579 -1727 1728 0
1579 1727 -1729 0
1579 -1727 1729 0
-1579 1727 1729 0
-1579 -1727 -1729 0
1726 1728 -1730 0
1726 -1728 1730 0
-1726 1728 1730 0
-1726 -1728 -1730 0
14 39 -1731 0
14 -39 -1731 0
-14 39 -1731 0
-14 -39 1731 0
1590 1731 -1732 0
1590 -1731 -1732 0
-1590 1731 -1732 0
-1590 -1731 1732 0
1590 1731 -1733 0
1590 -1731 1733 0
-1590 1731 1733 0
-1590 -1731 -1733 0
1585 1733 -1734 0
1585 -1733 -1734 0
-1585 1733 -1734 0
-1585 -1733 1734 0
1585 1733 -1735 0
1585 -1733 1735 0
-1585 1733 1735 0
-1585 -1733 -1735 0
1732 1734 -1736 0
1732 -1734 1736 0
-1732 1734 1736 0
-1732 -1734 -1736 0
15 39 -1737 0
15 -39 -1737 0
-15 39 -1737 0
-15 -39 1737 0
1596 1737 -1738 0
1596 -1737 -1738 0
-1596 1737 -1738 0
-1596 -1737 1738 0
1596 1737 -1739 0
1596 -1737 1739 0
-1596 1737 1739 0
-1596 -1737 -1739 0
1591 1739 -1740 0
1591 -1739 -1740 0
-1591 1739 -1740 0
-1591 -1739 1740 0
1591 1739 -1741 0
1591 -1739 1741 0
-1591 1739 1741 0
-1591 -1739 -1741 0
1738 1740 -1742 0
1738 -1740 1742 0
-1738 1740 1742 0
-1738 -1740 -1742 0
16 39 -1743 0
16 -39 -1743 0
-16 39 -1743 0
-16 -39 1743 0
1602 1743 -1744 0
1602 -1743 -1744 0
-1602 1743 -1744 0
-1602 -1743 1744 0
1602 1743 -1745 0
1602 -1743 1745 0
-1602 1743 1745 0
-1602 -1743 -1745 0
1597 1745 -1746 0
1597 -1745 -1746 0
-1597 1745 -1746 0
-1597 -1745 1746 0
1597 1745 -1747 0
1597 -1745 1747 0
-1597 1745 1747 0
-1597 -1745 -1747 0
1744 1746 -1748 0
1744 -1746 1748 0
-1744 1746 1748 0
-1744 -1746 -1748 0
17 39 -1749 0
17 -39 -1749 0
-17 39 -1749 0
-17 -39 1749 0
1608 1749 -1750 0
1608 -1749 -1750 0
-1608 1749 -1750 0
-1608 -1749 1750 0
1608 1749 -1751 0
1608 -1749 1751 0
-1608 1749 1751 0
-1608 -1749 -1751 0
1603 1751 -1752 0
1603 -1751 -1752 0
-1603 1751 -1752 0
-1603 -1751 1752 0
1603 1751 -1753 0
1603 -1751 1753 0
-1603 1751 1753 0
-1603 -1751 -1753 0
1750 1752 -1754 0
1750 -1752 1754 0
-1750 1752 1754 0
-1750 -1752 -1754 0
18 39 -1755 0
18 -39 -1755 0
-18 39 -1755 0
-18 -39 1755 0
1614 1755 -1756 0
1614 -1755 -1756 0
-1614 1755 -1756 0
-1614 -1755 1756 0
1614 1755 -1757 0
1614 -1755 1757 0
-1614 1755 1757 0
-1614 -1755 -1757 0
1609 1757 -1758 0
1609 -1757 -1758 0
-1609 1757 -1758 0
-1609 -1757 1758 0
1609 1757 -1759 0
1609 -1757 1759 0
-1609 1757 1759 0
-1609 -1757 -1759 0
1756 1758 -1760 0
1756 -1758 1760 0
-1756 1758 1760 0
-1756 -1758 -1760 0
19 39 -1761 0
19 -39 -1761 0
-19 39 -1761 0
-19 -39 1761 0
1620 1761 -1762 0
1620 -1761 -1762 0
-1620 1761 -1762 0
-1620 -1761 1762 0
1620 1761 -1763 0
1620 -1761 1763 0
-1620 1761 1763 0
-1620 -1761 -1763 0
1615 1763 -1764 0
1615 -1763 -1764 0
-1615 1763 -1764 0
-1615 -1763 1764 0
1615 1763 -1765 0
1615 -1763 1765 0
-1615 1763 1765 0
-1615 -1763 -1765 0
1762 1764 -1766 0
1762 -1764 1766 0
-1762 1764 1766 0
-1762 -1764 -1766 0
20 39 -1767 0
20 -39 -1767 0
-20 39 -1767 0
-20 -39 1767 0
1626 1767 -1768 0
1626 -1767 -1768 0
-1626 1767 -1768 0
-1626 -1767 1768 0
1626 1767 -1769 0
1626 -1767 1769 0
-1626 1767 1769 0
-1626 -1767 -1769 0
1621 1769 -1770 0
1621 -1769 -1770 0
-1621 1769 -1770 0
-1621 -1769 1770 0
1621 1769 -1771 0
1621 -1769 1771 0
-1621 1769 1771 0
-1621 -1769 -1771 0
1768 1770 -1772 0
1768 -1770 1772 0
-1768 1770 1772 0
-1768 -1770 -1772 0
21 39 -1773 0
21 -39 -1773 0
-21 39 -1773 0
-21 -39 1773 0
1632 1773 -1774 0
1632 -1773 -1774 0
-1632 1773 -1774 0
-1632 -1773 1774 0
1632 1773 -1775 0
1632 -1773 1775 0
-1632 1773 1775 0
-1632 -1773 -1775 0
1627 1775 -1776 0
1627 -1775 -1776 0
-1627 1775 -1776 0
-1627 -1775 1776 0
1627 1775 -1777 0
1627 -1775 1777 0
-1627 1775 1777 0
-1627 -1775 -1777 0
1774 1776 -1778 0
1774 -1776 1778 0
-1774 1776 1778 0
-1774 -1776 -1778 0
22 39 -1779 0
22 -39 -1779 0
-22 39 -1779 0
-22 -39 1779 0
1638 1779 -1780 0
1638 -1779 -1780 0
-1638 1779 -1780 0
-1638 -1779 1780 0
1638 1779 -1781 0
1638 -1779 1781 0
-1638 1779 1781 0
-1638 -1779 -1781 0
1633 1781 -1782 0
1633 -1781 -1782 0
-1633 1781 -1782 0
-1633 -1781 1782 0
1633 1781 -1783 0
1633 -1781 1783 0
-1633 1781 1783 0
-1633 -1781 -1783 0
1780 1782 -1784 0
1780 -1782 1784 0
-1780 1782 1784 0
-1780 -1782 -1784 0
23 39 -1785 0
23 -39 -1785 0
-23 39 -1785 0
-23 -39 1785 0
1644 1785 -1786 0
1644 -1785 -1786 0
-1644 1785 -1786 0
-1644 -1785 1786 0
1644 1785 -1787 0
1644 -1785 1787 0
-1644 1785 1787 0
-1644 -1785 -1787 0
1639 1787 -1788 0
1639 -1787 -1788 0
-1639 1787 -1788 0
-1639 -1787 1788 0
1639 1787 -1789 0
1639 -1787 1789 0
-1639 1787 1789 0
-1639 -1787 -1789 0
1786 1788 -1790 0
1786 -1788 1790 0
-1786 1788 1790 0
-1786 -1788 -1790 0
24 39 -1791 0
24 -39 -1791 0
-24 39 -1791 0
-24 -39 1791 0
1650 1791 -1792 0
1650 -1791 -1792 0
-1650 1791 -1792 0
-1650 -1791 1792 0
1650 1791 -1793 0
1650 -1791 1793 0
-1650 1791 1793 0
-1650 -1791 -1793 0
1645 1793 -1794 0
1645 -1793 -1794 0
-1645 1793 -1794 0
-1645 -1793 1794 0
1645 1793 -1795 0
1645 -1793 1795 0
-1645 1793 1795 0
-1645 -1793 -1795 0
1792 1794 -1796 0
1792 -1794 1796 0
-1792 1794 1796 0
-1792 -1794 -1796 0
25 39 -1797 0
25 -39 -1797 0
-25 39 -1797 0
-25 -39 1797 0
1652 1797 -1798 0
1652 -1797 -1798 0
-1652 1797 -1798 0
-1652 -1797 1798 0
1652 1797 -1799 0
1652 -1797 1799 0
-1652 1797 1799 0
-1652 -1797 -1799 0
1651 1799 -1800 0
1651 -1799 -1800 0
-1651 1799 -1800 0
-1651 -1799 1800 0
1651 1799 -1801 0
1651 -1799 1801 0
-1651 1799 1801 0
-1651 -1799 -1801 0
1798 1800 -1802 0
1798 -1800 1802 0
-1798 1800 1802 0
-1798 -1800 -1802 0
26 39 -1803 0
26 -39 -1803 0
-26 39 -1803 0
-26 -39 1803 0
1 40 -1804 0
1 -40 -1804 0
-1 40 -1804 0
-1 -40 1804 0
1663 1804 -1805 0
1663 -1804 -1805 0
-1663 1804 -1805 0
-1663 -1804 1805 0
1663 1804 -1806 0
1663 -1804 1806 0
-1663 1804 1806 0
-1663 -1804 -1806 0
1658 1806 -1807 0
1658 -1806 -1807 0
-1658 1806 -1807 0
-1658 -1806 1807 0
1658 1806 -1808 0
1658 -1806 1808 0
-1658 1806 1808 0
-1658 -1806 -1808 0
1805 1807 -1809 0
1805 -1807 1809 0
-1805 1807 1809 0
-1805 -1807 -1809 0
2 40 -1810 0
2 -40 -1810 0
-2 40 -1810 0
-2 -40 1810 0
1669 1810 -1811 0
1669 -1810 -1811 0
-1669 1810 -1811 0
-1669 -1810 1811 0
1669 1810 -1812 0
1669 -1810 1812 0
-1669 1810 1812 0
-1669 -1810 -1812 0
1664 1812 -1813 0
1664 -1812 -1813 0
-1664 1812 -1813 0
-1664 -1812 1813 0
1664 1812 -1814 0
1664 -1812 1814 0
-1664 1812 1814 0
-1664 -1812 -1814 0
1811 1813 -1815 0
1811 -1813 1815 0
-1811 1813 1815 0
-1811 -1813 -1815 0
3 40 -1816 0
3 -40 -1816 0
-3 40 -1816 0
-3 -40 1816 0
1675 1816 -1817 0
1675 -1816 -1817 0
-1675 1816 -1817 0
-1675 -1816 1817 0
1675 1816 -1818 0
1675 -1816 1818 0
-1675 1816 1818 0
-1675 -1816 -1818 0
1670 1818 -1819 0
1670 -1818 -1819 0
-1670 1818 -1819 0
-1670 -1818 1819 0
1670 1818 -1820 0
1670 -1818 1820 0
-1670 1818 1820 0
-1670 -1818 -1820 0
1817 1819 -1821 0
1817 -1819 1821 0
-1817 1819 1821 0
-1817 -1819 -1821 0
4 40 -1822 0
4 -40 -1822 0
-4 40 -1822 0
-4 -40 1822 0
1681 1822 -1823 0
1681 -1822 -1823 0
-1681 1822 -1823 0
-1681 -1822 1823 0
1681 1822 -1824 0
1681 -1822 1824 0
-1681 1822 1824 0
-1681 -1822 -1824 0
1676 1824 -1825 0
1676 -1824 -1825 0
-1676 1824 -1825 0
-1676 -1824 1825 0
1676 1824 -1826 0
1676 -1824 1826 0
-1676 1824 1826 0
-1676 -1824 -1826 0
1823 1825 -1827 0
1823 -1825 1827 0
-1823 1825 1827 0
-1823 -1825 -1827 0
5 40 -1828 0
5 -40 -1828 0
-5 40 -1828 0
-5 -40 1828 0
1687 1828 -1829 0
1687 -1828 -1829 0
-1687 1828 -1829 0
-1687 -1828 1829 0
1687 1828 -1830 0
1687 -1828 1830 0
-1687 1828 1830 0
-1687 -1828 -1830 0
1682 1830 -1831 0
1682 -1830 -1831 0
-1682 1830 -1831 0
-1682 -1830 1831 0
1682 1830 -1832 0
1682 -1830 1832 0
-1682 1830 1832 0
-1682 -1830 -1832 0
1829 1831 -1833 0
1829 -1831 1833 0
-1829 1831 1833 0
-1829 -1831 -1833 0
6 40 -1834 0
6 -40 -1834 0
-6 40 -1834 0
-6 -40 1834 0
1693 1834 -1835 0
1693 -1834 -1835 0
-1693 1834 -1835 0
-1693 -1834 1835 0
1693 1834 -1836 0
1693 -1834 1836 0
-1693 1834 1836 0
-1693 -1834 -1836 0
1688 1836 -1837 0
1688 -1836 -1837 0
-1688 1836 -1837 0
-1688 -1836 1837 0
1688 1836 -1838 0
1688 -1836 1838 0
-1688 1836 1838 0
-1688 -1836 -1838 0
1835 1837 -1839 0
1835 -1837 1839 0
-1835 1837 1839 0
-1835 -1837 -1839 0
7 40 -1840 0
7 -40 -1840 0
-7 40 -1840 0
-7 -40 1840 0
1699 1840 -1841 0
1699 -1840 -1841 0
-1699 1840 -1841 0
-1699 -1840 1841 0
1699 1840 -1842 0
1699 -1840 1842 0
-1699 1840 1842 0
-1699 -1840 -1842 0
1694 1842 -1843 0
1694 -1842 -1843 0
-1694 1842 -1843 0
-1694 -1842 1843 0
1694 1842 -1844 0
1694 -1842 1844 0
-1694 1842 1844 0
-1694 -1842 -1844 0
1841 1843 -1845 0
1841 -1843 1845 0
-1841 1843 1845 0
-1841 -1843 -1845 0
8 40 -1846 0
8 -40 -1846 0
-8 40 -1846 0
-8 -40 1846 0
1705 1846 -1847 0
1705 -1846 -1847 0
-1705 1846 -1847 0
-1705 -1846 1847 0
1705 1846 -1848 0
1705 -1846 1848 0
-1705 1846 1848 0
-1705 -1846 -1848 0
1700 1848 -1849 0
1700 -1848 -1849 0
-1700 1848 -1849 0
-1700 -1848 1849 0
1700 1848 -1850 0
1700 -1848 1850 0
-1700 1848 1850 0
-1700 -1848 -1850 0
1847 1849 -1851 0
1847 -1849 1851 0
-1847 1849 1851 0
-1847 -1849 -1851 0
9 40 -1852 0
9 -40 -1852 0
-9 40 -1852 0
-9 -40 1852 0
1711 1852 -1853 0
1711 -1852 -1853 0
-1711 1852 -1853 0
-1711 -1852 1853 0
1711 1852 -1854 0
1711 -1852 1854 0
-1711 1852 1854 0
-1711 -1852 -1854 0
1706 1854 -1855 0
1706 -1854 -1855 0
-1706 1854 -1855 0
-1706 -1854 1855 0
1706 1854 -1856 0
1706 -1854 1856 0
-1706 1854 1856 0
-1706 -1854 -1856 0
1853 1855 -1857 0
1853 -1855 1857 0
-1853 1855 1857 0
-1853 -1855 -1857 0
10 40 -1858 0
10 -40 -1858 0
-10 40 -1858 0
-10 -40 1858 0
1717 1858 -1859 0
1717 -1858 -1859 0
-1717 1858 -1859 0
-1717 -1858 1859 0
1717 1858 -1860 0
1717 -1858 1860 0
-1717 1858 1860 0
-1717 -1858 -1860 0
1712 1860 -1861 0
1712 -1860 -1861 0
-1712 1860 -1861 0
-1712 -1860 1861 0
1712 1860 -1862 0
1712 -1860 1862 0
-1712 1860 1862 0
-1712 -1860 -1862 0
1859 1861 -1863 0
1859 -1861 1863 0
-1859 1861 1863 0
-1859 -1861 -1863 0
11 40 -1864 0
11 -40 -1864 0
-11 40 -1864 0
-11 -40 1864 0
1723 1864 -1865 0
1723 -1864 -1865 0
-1723 1864 -1865 0
-1723 -1864 1865 0
1723 1864 -1866 0
1723 -1864 1866 0
-1723 1864 1866 0
-1723 -1864 -1866 0
1718 1866 -1867 0
1718 -1866 -1867 0
-1718 1866 -1867 0
-1718 -1866 1867 0
1718 1866 -1868 0
1718 -1866 1868 0
-1718 1866 1868 0
-1718 -1866 -1868 0
1865 1867 -1869 0
1865 -1867 1869 0
-1865 1867 1869 0
-1865 -1867 -1869 0
12 40 -1870 0
12 -40 -1870 0
-12 40 -1870 0
-12 -40 1870 0
1729 1870 -1871 0
1729 -1870 -1871 0
-1729 1870 -1871 0
-1729 -1870 1871 0
1729 1870 -1872 0
1729 -1870 1872 0
-1729 1870 1872 0
-1729 -1870 -1872 0
1724 1872 -1873 0
1724 -1872 -1873 0
-1724 1872 -1873 0
-1724 -1872 1873 0
1724 1872 -1874 0
1724 -1872 1874 0
-1724 1872 1874 0
-1724 -1872 -1874 0
1871 1873 -1875 0
1871 -1873 1875 0
-1871 1873 1875 0
-1871 -1873 -1875 0
13 40 -1876 0
13 -40 -1876 0
-13 40 -1876 0
-13 -40 1876 0
1735 1876 -1877 0
1735 -1876 -1877 0
-1735 1876 -1877 0
-1735 -1876 1877 0
1735 1876 -1878 0
1735 -1876 1878 0
-1735 1876 1878 0
-1735 -1876 -1878 0
1730 1878 -1879 0
1730 -1878 -1879 0
-1730 1878 -1879 0
-1730 -1878 1879 0
1730 1878 -1880 0
1730 -1878 1880 0
-1730 1878 1880 0
-1730 -1878 -1880 0
1877 1879 -1881 0
1877 -1879 1881 0
-1877 1879 1881 0
-1877 -1879 -1881 0
14 40 -1882 0
14 -40 -1882 0
-14 40 -1882 0
-14 -40 1882 0
1741 1882 -1883 0
1741 -1882 -1883 0
-1741 1882 -1883 0
-1741 -1882 1883 0
1741 1882 -1884 0
1741 -1882 1884 0
-1741 1882 1884 0
-1741 -1882 -1884 0
1736 1884 -1885 0
1736 -1884 -1885 0
-1736 1884 -1885 0
-1736 -1884 1885 0
1736 1884 -1886 0
1736 -1884 1886 0
-1736 1884 1886 0
-1736 -1884 -1886 0
1883 1885 -1887 0
1883 -1885 1887 0
-1883 1885 1887 0
-1883 -1885 -1887 0
15 40 -1888 0
15 -40 -1888 0
-15 40 -1888 0
-15 -40 1888 0
1747 1888 -1889 0
1747 -1888 -1889 0
-1747 1888 -1889 0
-1747 -1888 1889 0
1747 1888 -1890 0
1747 -1888 1890 0
-1747 1888 1890 0
-1747 -1888 -1890 0
1742 1890 -1891 0
1742 -1890 -1891 0
-1742 1890 -1891 0
-1742 -1890 1891 0
1742 1890 -1892 0
1742 -1890 1892 0
-1742 1890 1892 0
-1742 -1890 -1892 0
1889 1891 -1893 0
1889 -1891 1893 0
-1889 1891 1893 0
-1889 -1891 -1893 0
16 40 -1894 0
16 -40 -1894 0
-16 40 -1894 0
-16 -40 1894 0
1753 1894 -1895 0
1753 -1894 -1895 0
-1753 1894 -1895 0
-1753 -1894 1895 0
1753 1894 -1896 0
1753 -1894 1896 0
-1753 1894 1896 0
-1753 -1894 -1896 0
1748 1896 -1897 0
1748 -1896 -1897 0
-1748 1896 -1897 0
-1748 -1896 1897 0
1748 1896 -1898 0
1748 -1896 1898 0
-1748 1896 1898 0
-1748 -1896 -1898 0
1895 1897 -1899 0
1895 -1897 1899 0
-1895 1897 1899 0
-1895 -1897 -1899 0
17 40 -1900 0
17 -40 -1900 0
-17 40 -1900 0
-17 -40 1900 0
1759 1900 -1901 0
1759 -1900 -1901 0
-1759 1900 -1901 0
-1759 -1900 1901 0
1759 1900 -1902 0
1759 -1900 1902 0
-1759 1900 1902 0
-1759 -1900 -1902 0
1754 1902 -1903 0
1754 -1902 -1903 0
-1754 1902 -1903 0
-1754 -1902 1903 0
1754 1902 -1904 0
1754 -1902 1904 0
-1754 1902 1904 0
-1754 -1902 -1904 0
1901 1903 -1905 0
1901 -1903 1905 0
-1901 1903 1905 0
-1901 -1903 -1905 0
18 40 -1906 0
18 -40 -1906 0
-18 40 -1906 0
-18 -40 1906 0
1765 1906 -1907 0
1765 -1906 -1907 0
-1765 1906 -1907 0
-1765 -1906 1907 0
1765 1906 -1908 0
1765 -1906 1908 0
-1765 1906 1908 0
-1765 -1906 -1908 0
1760 1908 -1909 0
1760 -1908 -1909 0
-1760 1908 -1909 0
-1760 -1908 1909 0
1760 1908 -1910 0
1760 -1908 1910 0
-1760 1908 1910 0
-1760 -1908 -1910 0
1907 1909 -1911 0
1907 -1909 1911 0
-1907 1909 1911 0
-1907 -1909 -1911 0
19 40 -1912 0
19 -40 -1912 0
-19 40 -1912 0
-19 -40 1912 0
1771 1912 -1913 0
1771 -1912 -1913 0
-1771 1912 -1913 0
-1771 -1912 1913 0
1771 1912 -1914 0
1771 -1912 1914 0
-1771 1912 1914 0
-1771 -1912 -1914 0
1766 1914 -1915 0
1766 -1914 -1915 0
-1766 1914 -1915 0
-1766 -1914 1915 0
1766 1914 -1916 0
1766 -1914 1916 0
-1766 1914 1916 0
-1766 -1914 -1916 0
1913 1915 -1917 0
1913 -1915 1917 0
-1913 1915 1917 0
-1913 -1915 -1917 0
20 40 -1918 0
20 -40 -1918 0
-20 40 -1918 0
-20 -40 1918 0
1777 1918 -1919 0
1777 -1918 -1919 0
-1777 1918 -1919 0
-1777 -1918 1919 0
1777 1918 -1920 0
1777 -1918 1920 0
-1777 1918 1920 0
-1777 -1918 -1920 0
1772 1920 -1921 0
1772 -1920 -1921 0
-1772 1920 -1921 0
-1772 -1920 1921 0
1772 1920 -1922 0
1772 -1920 1922 0
-1772 1920 1922 0
-1772 -1920 -1922 0
1919 1921 -1923 0
1919 -1921 1923 0
-1919 1921 1923 0
-1919 -1921 -1923 0
21 40 -1924 0
21 -40 -1924 0
-21 40 -1924 0
-21 -40 1924 0
1783 1924 -1925 0
1783 -1924 -1925 0
-1783 1924 -1925 0
-1783 -1924 1925 0
1783 1924 -1926 0
1783 -1924 1926 0
-1783 1924 1926 0
-1783 -1924 -1926 0
1778 1926 -1927 0
1778 -1926 -1927 0
-1778 1926 -1927 0
-1778 -1926 1927 0
1778 1926 -1928 0
1778 -1926 1928 0
-1778 1926 1928 0
-1778 -1926 -1928 0
1925 1927 -1929 0
1925 -1927 1929 0
-1925 1927 1929 0
-1925 -1927 -1929 0
22 40 -1930 0
22 -40 -1930 0
-22 40 -1930 0
-22 -40 1930 0
1789 1930 -1931 0
1789 -1930 -1931 0
-1789 1930 -1931 0
-1789 -1930 1931 0
1789 1930 -1932 0
1789 -1930 1932 0
-1789 1930 1932 0
-1789 -1930 -1932 0
1784 1932 -1933 0
1784 -1932 -1933 0
-1784 1932 -1933 0
-1784 -1932 1933 0
1784 1932 -1934 0
1784 -1932 1934 0
-1784 1932 1934 0
-1784 -1932 -1934 0
1931 1933 -1935 0
1931 -1933 1935 0
-1931 1933 1935 0
-1931 -1933 -1935 0
23 40 -1936 0
23 -40 -1936 0
-23 40 -1936 0
-23 -40 1936 0
1795 1936 -1937 0
1795 -1936 -1937 0
-1795 1936 -1937 0
-1795 -1936 1937 0
1795 1936 -1938 0
1795 -1936 1938 0
-1795 1936 1938 0
-1795 -1936 -1938 0
1790 1938 -1939 0
1790 -1938 -1939 0
-1790 1938 -1939 0
-1790 -1938 1939 0
1790 1938 -1940 0
1790 -1938 1940 0
-1790 1938 1940 0
-1790 -1938 -1940 0
1937 1939 -1941 0
1937 -1939 1941 0
-1937 1939 1941 0
-1937 -1939 -1941 0
24 40 -1942 0
24 -40 -1942 0
-24 40 -1942 0
-24 -40 1942 0
1801 1942 -1943 0
1801 -1942 -1943 0
-1801 1942 -1943 0
-1801 -1942 1943 0
1801 1942 -1944 0
1801 -1942 1944 0
-1801 1942 1944 0
-1801 -1942 -1944 0
1796 1944 -1945 0
1796 -1944 -1945 0
-1796 1944 -1945 0
-1796 -1944 1945 0
1796 1944 -1946 0
1796 -1944 1946 0
-1796 1944 1946 0
-1796 -1944 -1946 0
1943 1945 -1947 0
1943 -1945 1947 0
-1943 1945 1947 0
-1943 -1945 -1947 0
25 40 -1948 0
25 -40 -1948 0
-25 40 -1948 0
-25 -40 1948 0
1803 1948 -1949 0
1803 -1948 -1949 0
-1803 1948 -1949 0
-1803 -1948 1949 0
1803 1948 -1950 0
1803 -1948 1950 0
-1803 1948 1950 0
-1803 -1948 -1950 0
1802 1950 -1951 0
1802 -1950 -1951 0
-1802 1950 -1951 0
-1802 -1950 1951 0
1802 1950 -1952 0
1802 -1950 1952 0
-1802 1950 1952 0
-1802 -1950 -1952 0
1949 1951 -1953 0
1949 -1951 1953 0
-1949 1951 1953 0
-1949 -1951 -1953 0
26 40 -1954 0
26 -40 -1954 0
-26 40 -1954 0
-26 -40 1954 0
1809 1814 -1955 0
1809 -1814 -1955 0
-1809 1814 -1955 0
-1809 -1814 1955 0
1809 1814 -1956 0
1809 -1814 1956 0
-1809 1814 1956 0
-1809 -1814 -1956 0
1815 1820 -1957 0
1815 -1820 -1957 0
-1815 1820 -1957 0
-1815 -1820 1957 0
1815 1820 -1958 0
1815 -1820 1958 0
-1815 1820 1958 0
-1815 -1820 -1958 0
1955 1958 -1959 0
1955 -1958 -1959 0
-1955 1958 -1959 0
-1955 -1958 1959 0
1955 1958 -1960 0
1955 -1958 1960 0
-1955 1958 1960 0
-1955 -1958 -1960 0
1957 1959 -1961 0
1957 -1959 1961 0
-1957 1959 1961 0
-1957 -1959 -1961 0
1821 1826 -1962 0
1821 -1826 -1962 0
-1821 1826 -1962 0
-1821 -1826 1962 0
1821 1826 -1963 0
1821 -1826 1963 0
-1821 1826 1963 0
-1821 -1826 -1963 0
1961 1963 -1964 0
1961 -1963 -1964 0
-1961 1963 -1964 0
-1961 -1963 1964 0
1961 1963 -1965 0
1961 -1963 1965 0
-1961 1963 1965 0
-1961 -1963 -1965 0
1962 1964 -1966 0
1962 -1964 1966 0
-1962 1964 1966 0
-1962 -1964 -1966 0
1827 1832 -1967 0
1827 -1832 -1967 0
-1827 1832 -1967 0
-1827 -1832 1967 0
1827 1832 -1968 0
1827 -1832 1968 0
-1827 1832 1968 0
-1827 -1832 -1968 0
1966 1968 -1969 0
1966 -1968 -1969 0
-1966 1968 -1969 0
-1966 -1968 1969 0
1966 1968 -1970 0
1966 -1968 1970 0
-1966 1968 1970 0
-1966 -1968 -1970 0
1967 1969 -1971 0
1967 -1969 1971 0
-1967 1969 1971 0
-1967 -1969 -1971 0
1833 1838 -1972 0
1833 -1838 -1972 0
-1833 1838 -1972 0
-1833 -1838 1972 0
1833 1838 -1973 0
1833 -1838 1973 0
-1833 1838 1973 0
-1833 -1838 -1973 0
1971 1973 -1974 0
1971 -1973 -1974 0
-1971 1973 -1974 0
-1971 -1973 1974 0
1971 1973 -1975 0
1971 -1973 1975 0
-1971 1973 1975 0
-1971 -1973 -1975 0
1972 1974 -1976 0
1972 -1974 1976 0
-1972 1974 1976 0
-1972 -1974 -1976 0
1839 1844 -1977 0
1839 -1844 -1977 0
-1839 1844 -1977 0
-1839 -1844 1977 0
1839 1844 -1978 0
1839 -1844 1978 0
-1839 1844 1978 0
-1839 -1844 -1978 0
1976 1978 -1979 0
1976 -1978 -1979 0
-1976 1978 -1979 0
-1976 -1978 1979 0
1976 1978 -1980 0
1976 -1978 1980 0
-1976 1978 1980 0
-1976 -1978 -1980 0
1977 1979 -1981 0
1977 -1979 1981 0
-1977 1979 1981 0
-1977 -1979 -1981 0
1845 1850 -1982 0
1845 -1850 -1982 0
-1845 1850 -1982 0
-1845 -1850 1982 0
1845 1850 -1983 0
1845 -1850 1983 0
-1845 1850 1983 0
-1845 -1850 -1983 0
1981 1983 -1984 0
1981 -1983 -1984 0
-1981 1983 -1984 0
-1981 -1983 1984 0
1981 1983 -1985 0
1981 -1983 1985 0
-1981 1983 1985 0
-1981 -1983 -1985 0
1982 1984 -1986 0
1982 -1984 1986 0
-1982 1984 1986 0
-1982 -1984 -1986 0
1851 1856 -1987 0
1851 -1856 -1987 0
-1851 1856 -1987 0
-1851 -1856 1987 0
1851 1856 -1988 0
1851 -1856 1988 0
-1851 1856 1988 0
-1851 -1856 -1988 0
1986 1988 -1989 0
1986 -1988 -1989 0
-1986 1988 -1989 0
-1986 -1988 1989 0
1986 1988 -1990 0
1986 -1988 1990 0
-1986 1988 1990 0
-1986 -1988 -1990 0
1987 1989 -1991 0
1987 -1989 1991 0
-1987 1989 1991 0
-1987 -1989 -1991 0
1857 1862 -1992 0
1857 -1862 -1992 0
-1857 1862 -1992 0
-1857 -1862 1992 0
1857 1862 -1993 0
1857 -1862 1993 0
-1857 1862 1993 0
-1857 -1862 -1993 0
1991 1993 -1994 0
1991 -1993 -1994 0
-1991 1993 -1994 0
-1991 -1993 1994 0
1991 1993 -1995 0
1991 -1993 1995 0
-1991 1993 1995 0
-1991 -1993 -1995 0
1992 1994 -1996 0
1992 -1994 1996 0
-1992 1994 1996 0
-1992 -1994 -1996 0
1863 1868 -1997 0
1863 -1868 -1997 0
-1863 1868 -1997 0
-1863 -1868 1997 0
1863 1868 -1998 0
1863 -1868 1998 0
-1863 1868 1998 0
-1863 -1868 -1998 0
1996 1998 -1999 0
1996 -1998 -1999 0
-1996 1998 -1999 0
-1996 -1998 1999 0
1996 1998 -2000 0
1996 -1998 2000 0
-1996 1998 2000 0
-1996 -1998 -2000 0
1997 1999 -2001 0
1997 -1999 2001 0
-1997 1999 2001 0
-1997 -1999 -2001 0
1869 1874 -2002 0
1869 -1874 -2002 0
-1869 1874 -2002 0
-1869 -1874 2002 0
1869 1874 -2003 0
1869 -1874 2003 0
-1869 1874 2003 0
-1869 -1874 -2003 0
2001 2003 -2004 0
2001 -2003 -2004 0
-2001 2003 -2004 0
-2001 -2003 2004 0
2001 2003 -2005 0
2001 -2003 2005 0
-2001 2003 2005 0
-2001 -2003 -2005 0
2002 2004 -2006 0
2002 -2004 2006 0
-2002 2004 2006 0
-2002 -2004 -2006 0
1875 1880 -2007 0
1875 -1880 -2007 0
-1875 1880 -2007 0
-1875 -1880 2007 0
1875 1880 -2008 0
1875 -1880 2008 0
-1875 1880 2008 0
-1875 -1880 -2008 0
2006 2008 -2009 0
2006 -2008 -2009 0
-2006 2008 -2009 0
-2006 -2008 2009 0
2006 2008 -2010 0
2006 -2008 2010 0
-2006 2008 2010 0
-2006 -2008 -2010 0
2007 2009 -2011 0
2007 -2009 2011 0
-2007 2009 2011 0
-2007 -2009 -2011 0
1881 1886 -2012 0
1881 -1886 -2012 0
-1881 1886 -2012 0
-1881 -1886 2012 0
1881 1886 -2013 0
1881 -1886 2013 0
-1881 1886 2013 0
-1881 -1886 -2013 0
2011 2013 -2014 0
2011 -2013 -2014 0
-2011 2013 -2014 0
-2011 -2013 2014 0
2011 2013 -2015 0
2011 -2013 2015 0
-2011 2013 2015 0
-2011 -2013 -2015 0
2012 2014 -2016 0
2012 -2014 2016 0
-2012 2014 2016 0
-2012 -2014 -2016 0
1887 1892 -2017 0
1887 -1892 -2017 0
-1887 1892 -2017 0
-1887 -1892 2017 0
1887 1892 -2018 0
1887 -1892 2018 0
-1887 1892 2018 0
-1887 -1892 -2018 0
2016 2018 -2019 0
2016 -2018 -2019 0
-2016 2018 -2019 0
-2016 -2018 2019 0
2016 2018 -2020 0
2016 -2018 2020 0
-2016 2018 2020 0
-2016 -2018 -2020 0
2017 2019 -2021 0
2017 -2019 2021 0
-2017 2019 2021 0
-2017 -2019 -2021 0
1893 1898 -2022 0
1893 -1898 -2022 0
-1893 1898 -2022 0
-1893 -1898 2022 0
1893 1898 -2023 0
1893 -1898 2023 0
-1893 1898 2023 0
-1893 -1898 -2023 0
2021 2023 -2024 0
2021 -2023 -2024 0
-2021 2023 -2024 0
-2021 -2023 2024 0
2021 2023 -2025 0
2021 -2023 2025 0
-2021 2023 2025 0
-2021 -2023 -2025 0
2022 2024 -2026 0
2022 -2024 2026 0
-2022 2024 2026 0
-2022 -2024 -2026 0
1899 1904 -2027 0
1899 -1904 -2027 0
-1899 1904 -2027 0
-1899 -1904 2027 0
1899 1904 -2028 0
1899 -1904 2028 0
-1899 1904 2028 0
-1899 -1904 -2028 0
2026 2028 -2029 0
2026 -2028 -2029 0
-2026 2028 -2029 0
-2026 -2028 2029 0
2026 2028 -2030 0
2026 -2028 2030 0
-2026 2028 2030 0
-2026 -2028 -2030 0
2027 2029 -2031 0
2027 -2029 2031 0
-2027 2029 2031 0
-2027 -2029 -2031 0
1905 1910 -2032 0
1905 -1910 -2032 0
-1905 1910 -2032 0
-1905 -1910 2032 0
1905 1910 -2033 0
1905 -1910 2033 0
-1905 1910 2033 0
-1905 -1910 -2033 0
2031 2033 -2034 0
2031 -2033 -2034 0
-2031 2033 -2034 0
-2031 -2033 2034 0
2031 2033 -2035 0
2031 -2033 2035 0
-2031 2033 2035 0
-2031 -2033 -2035 0
2032 2034 -2036 0
2032 -2034 2036 0
-2032 2034 2036 0
-2032 -2034 -2036 0
1911 1916 -2037 0
1911 -1916 -2037 0
-1911 1916 -2037 0
-1911 -1916 2037 0
1911 1916 -2038 0
1911 -1916 2038 0
-1911 1916 2038 0
-1911 -1916 -2038 0
2036 2038 -2039 0
2036 -2038 -2039 0
-2036 2038 -2039 0
-2036 -2038 2039 0
2036 2038 -2040 0
2036 -2038 2040 0
-2036 2038 2040 0
-2036 -2038 -2040 0
2037 2039 -2041 0
2037 -2039 2041 0
-2037 2039 2041 0
-2037 -2039 -2041 0
1917 1922 -2042 0
1917 -1922 -2042 0
-1917 1922 -2042 0
-1917 -1922 2042 0
1917 1922 -2043 0
1917 -1922 2043 0
-1917 1922 2043 0
-1917 -1922 -2043 0
2041 2043 -2044 0
2041 -2043 -2044 0
-2041 2043 -2044 0
-2041 -2043 2044 0
2041 2043 -2045 0
2041 -2043 2045 0
-2041 2043 2045 0
-2041 -2043 -2045 0
2042 2044 -2046 0
2042 -2044 2046 0
-2042 2044 2046 0
-2042 -2044 -2046 0
1923 1928 -2047 0
1923 -1928 -2047 0
-1923 1928 -2047 0
-1923 -1928 2047 0
1923 1928 -2048 0
1923 -1928 2048 0
-1923 1928 2048 0
-1923 -1928 -2048 0
2046 2048 -2049 0
2046 -2048 -2049 0
-2046 2048 -2049 0
-2046 -2048 2049 0
2046 2048 -2050 0
2046 -2048 2050 0
-2046 2048 2050 0
-2046 -2048 -2050 0
2047 2049 -2051 0
2047 -2049 2051 0
-2047 2049 2051 0
-2047 -2049 -2051 0
1929 1934 -2052 0
1929 -1934 -2052 0
-1929 1934 -2052 0
-1929 -1934 2052 0
1929 1934 -2053 0
1929 -1934 2053 0
-1929 1934 2053 0
-1929 -1934 -2053 0
2051 2053 -2054 0
2051 -2053 -2054 0
-2051 2053 -2054 0
-2051 -2053 2054 0
2051 2053 -2055 0
2051 -2053 2055 0
-2051 2053 2055 0
-2051 -2053 -2055 0
2052 2054 -2056 0
2052 -2054 2056 0
-2052 2054 2056 0
-2052 -2054 -2056 0
1935 1940 -2057 0
1935 -1940 -2057 0
-1935 1940 -2057 0
-1935 -1940 2057 0
1935 1940 -2058 0
1935 -1940 2058 0
-1935 1940 2058 0
-1935 -1940 -2058 0
2056 2058 -2059 0
2056 -2058 -2059 0
-2056 2058 -2059 0
-2056 -2058 2059 0
2056 2058 -2060 0
2056 -2058 2060 0
-2056 2058 2060 0
-2056 -2058 -2060 0
2057 2059 -2061 0
2057 -2059 2061 0
-2057 2059 2061 0
-2057 -2059 -2061 0
1941 1946 -2062 0
1941 -1946 -2062 0
-1941 1946 -2062 0
-1941 -1946 2062 0
1941 1946 -2063 0
1941 -1946 2063 0
-1941 1946 2063 0
-1941 -1946 -2063 0
2061 2063 -2064 0
2061 -2063 -2064 0
-2061 2063 -2064 0
-2061 -2063 2064 0
2061 2063 -2065 0
2061 -2063 2065 0
-2061 2063 2065 0
-2061 -2063 -2065 0
2062 2064 -2066 0
2062 -2064 2066 0
-2062 2064 2066 0
-2062 -2064 -2066 0
1947 1952 -2067 0
1947 -1952 -2067 0
-1947 1952 -2067 0
-1947 -1952 2067 0
1947 1952 -2068 0
1947 -1952 2068 0
-1947 1952 2068 0
-1947 -1952 -2068 0
2066 2068 -2069 0
2066 -2068 -2069 0
-2066 2068 -2069 0
-2066 -2068 2069 0
2066 2068 -2070 0
2066 -2068 2070 0
-2066 2068 2070 0
-2066 -2068 -2070 0
2067 2069 -2071 0
2067 -2069 2071 0
-2067 2069 2071 0
-2067 -2069 -2071 0
1953 1954 -2072 0
1953 -1954 -2072 0
-1953 1954 -2072 0
-1953 -1954 2072 0
1953 1954 -2073 0
1953 -1954 2073 0
-1953 1954 2073 0
-1953 -1954 -2073 0
2071 2073 -2074 0
2071 -2073 -2074 0
-2071 2073 -2074 0
-2071 -2073 2074 0
2071 2073 -2075 0
2071 -2073 2075 0
-2071 2073 2075 0
-2071 -2073 -2075 0
2072 2074 -2076 0
2072 -2074 2076 0
-2072 2074 2076 0
-2072 -2074 -2076 0
41 0
-69 0
-147 0
298 0
449 0
600 0
751 0
-902 0
-1053 0
1204 0
1355 0
-1506 0
-1657 0
1808 0
-1956 0
1960 0
1965 0
-1970 0
1975 0
1980 0
-1985 0
1990 0
1995 0
2000 0
2005 0
-2010 0
2015 0
-2020 0
-2025 0
-2030 0
-2035 0
-2040 0
-2045 0
-2050 0
-2055 0
-2060 0
-2065 0
-2070 0
-2075 0
-2076 0