c Problem generated from carry-save[n-bit] multiplication circuit
c by Paul Purdom and Amr Sabry
c
c Circuit for product = 99999820000081 [True,False,True,True,False,True,False,True,True,True,True,False,False,True,True,False,False,False,False,False,True,False,True,True,False,True,True,True,True,True,True,True,False,True,False,True,False,True,True,False,True,False,True,False,False,False,True]
c Variables for output [msb,...,lsb]: [6436,6435,6430,6425,6420,6415,6410,6405,6400,6395,6390,6385,6380,6375,6370,6365,6360,6355,6350,6345,6340,6335,6330,6325,6320,6315,6310,6305,6300,6295,6290,6285,6280,6275,6270,6265,6260,6255,6250,6245,6240,6235,6230,6225,6220,6216,5948,5677,5406,5135,4864,4593,4322,4051,3780,3509,3238,2967,2696,2425,2154,1883,1612,1341,1070,799,528,257,119,71]
c Variables for first input [msb,...,lsb]: [46,45,44,43,42,41,40,39,38,37,36,35,34,33,32,31,30,29,28,27,26,25,24,23,22,21,20,19,18,17,16,15,14,13,12,11,10,9,8,7,6,5,4,3,2,1]
c Variables for second input [msb,...,lsb]: [70,69,68,67,66,65,64,63,62,61,60,59,58,57,56,55,54,53,52,51,50,49,48,47]
c
c
p cnf 6436 25534
1 47 -71 0
1 -47 -71 0
-1 47 -71 0
-1 -47 71 0
2 47 -72 0
2 -47 -72 0
-2 47 -72 0
-2 -47 72 0
3 47 -73 0
3 -47 -73 0
-3 47 -73 0
-3 -47 73 0
4 47 -74 0
4 -47 -74 0
-4 47 -74 0
-4 -47 74 0
5 47 -75 0
5 -47 -75 0
-5 47 -75 0
-5 -47 75 0
6 47 -76 0
6 -47 -76 0
-6 47 -76 0
-6 -47 76 0
7 47 -77 0
7 -47 -77 0
-7 47 -77 0
-7 -47 77 0
8 47 -78 0
8 -47 -78 0
-8 47 -78 0
-8 -47 78 0
9 47 -79 0
9 -47 -79 0
-9 47 -79 0
-9 -47 79 0
10 47 -80 0
10 -47 -80 0
-10 47 -80 0
-10 -47 80 0
11 47 -81 0
11 -47 -81 0
-11 47 -81 0
-11 -47 81 0
12 47 -82 0
12 -47 -82 0
-12 47 -82 0
-12 -47 82 0
13 47 -83 0
13 -47 -83 0
-13 47 -83 0
-13 -47 83 0
14 47 -84 0
14 -47 -84 0
-14 47 -84 0
-14 -47 84 0
15 47 -85 0
15 -47 -85 0
-15 47 -85 0
-15 -47 85 0
16 47 -86 0
16 -47 -86 0
-16 47 -86 0
-16 -47 86 0
17 47 -87 0
17 -47 -87 0
-17 47 -87 0
-17 -47 87 0
18 47 -88 0
18 -47 -88 0
-18 47 -88 0
-18 -47 88 0
19 47 -89 0
19 -47 -89 0
-19 47 -89 0
-19 -47 89 0
20 47 -90 0
20 -47 -90 0
-20 47 -90 0
-20 -47 90 0
21 47 -91 0
21 -47 -91 0
-21 47 -91 0
-21 -47 91 0
22 47 -92 0
22 -47 -92 0
-22 47 -92 0
-22 -47 92 0
23 47 -93 0
23 -47 -93 0
-23 47 -93 0
-23 -47 93 0
24 47 -94 0
24 -47 -94 0
-24 47 -94 0
-24 -47 94 0
25 47 -95 0
25 -47 -95 0
-25 47 -95 0
-25 -47 95 0
26 47 -96 0
26 -47 -96 0
-26 47 -96 0
-26 -47 96 0
27 47 -97 0
27 -47 -97 0
-27 47 -97 0
-27 -47 97 0
28 47 -98 0
28 -47 -98 0
-28 47 -98 0
-28 -47 98 0
29 47 -99 0
29 -47 -99 0
-29 47 -99 0
-29 -47 99 0
30 47 -100 0
30 -47 -100 0
-30 47 -100 0
-30 -47 100 0
31 47 -101 0
31 -47 -101 0
-31 47 -101 0
-31 -47 101 0
32 47 -102 0
32 -47 -102 0
-32 47 -102 0
-32 -47 102 0
33 47 -103 0
33 -47 -103 0
-33 47 -103 0
-33 -47 103 0
34 47 -104 0
34 -47 -104 0
-34 47 -104 0
-34 -47 104 0
35 47 -105 0
35 -47 -105 0
-35 47 -105 0
-35 -47 105 0
36 47 -106 0
36 -47 -106 0
-36 47 -106 0
-36 -47 106 0
37 47 -107 0
37 -47 -107 0
-37 47 -107 0
-37 -47 107 0
38 47 -108 0
38 -47 -108 0
-38 47 -108 0
-38 -47 108 0
39 47 -109 0
39 -47 -109 0
-39 47 -109 0
-39 -47 109 0
40 47 -110 0
40 -47 -110 0
-40 47 -110 0
-40 -47 110 0
41 47 -111 0
41 -47 -111 0
-41 47 -111 0
-41 -47 111 0
42 47 -112 0
42 -47 -112 0
-42 47 -112 0
-42 -47 112 0
43 47 -113 0
43 -47 -113 0
-43 47 -113 0
-43 -47 113 0
44 47 -114 0
44 -47 -114 0
-44 47 -114 0
-44 -47 114 0
45 47 -115 0
45 -47 -115 0
-45 47 -115 0
-45 -47 115 0
46 47 -116 0
46 -47 -116 0
-46 47 -116 0
-46 -47 116 0
1 48 -117 0
1 -48 -117 0
-1 48 -117 0
-1 -48 117 0
72 117 -118 0
72 -117 -118 0
-72 117 -118 0
-72 -117 118 0
72 117 -119 0
72 -117 119 0
-72 117 119 0
-72 -117 -119 0
2 48 -120 0
2 -48 -120 0
-2 48 -120 0
-2 -48 120 0
73 120 -121 0
73 -120 -121 0
-73 120 -121 0
-73 -120 121 0
73 120 -122 0
73 -120 122 0
-73 120 122 0
-73 -120 -122 0
3 48 -123 0
3 -48 -123 0
-3 48 -123 0
-3 -48 123 0
74 123 -124 0
74 -123 -124 0
-74 123 -124 0
-74 -123 124 0
74 123 -125 0
74 -123 125 0
-74 123 125 0
-74 -123 -125 0
4 48 -126 0
4 -48 -126 0
-4 48 -126 0
-4 -48 126 0
75 126 -127 0
75 -126 -127 0
-75 126 -127 0
-75 -126 127 0
75 126 -128 0
75 -126 128 0
-75 126 128 0
-75 -126 -128 0
5 48 -129 0
5 -48 -129 0
-5 48 -129 0
-5 -48 129 0
76 129 -130 0
76 -129 -130 0
-76 129 -130 0
-76 -129 130 0
76 129 -131 0
76 -129 131 0
-76 129 131 0
-76 -129 -131 0
6 48 -132 0
6 -48 -132 0
-6 48 -132 0
-6 -48 132 0
77 132 -133 0
77 -132 -133 0
-77 132 -133 0
-77 -132 133 0
77 132 -134 0
77 -132 134 0
-77 132 134 0
-77 -132 -134 0
7 48 -135 0
7 -48 -135 0
-7 48 -135 0
-7 -48 135 0
78 135 -136 0
78 -135 -136 0
-78 135 -136 0
-78 -135 136 0
78 135 -137 0
78 -135 137 0
-78 135 137 0
-78 -135 -137 0
8 48 -138 0
8 -48 -138 0
-8 48 -138 0
-8 -48 138 0
79 138 -139 0
79 -138 -139 0
-79 138 -139 0
-79 -138 139 0
79 138 -140 0
79 -138 140 0
-79 138 140 0
-79 -138 -140 0
9 48 -141 0
9 -48 -141 0
-9 48 -141 0
-9 -48 141 0
80 141 -142 0
80 -141 -142 0
-80 141 -142 0
-80 -141 142 0
80 141 -143 0
80 -141 143 0
-80 141 143 0
-80 -141 -143 0
10 48 -144 0
10 -48 -144 0
-10 48 -144 0
-10 -48 144 0
81 144 -145 0
81 -144 -145 0
-81 144 -145 0
-81 -144 145 0
81 144 -146 0
81 -144 146 0
-81 144 146 0
-81 -144 -146 0
11 48 -147 0
11 -48 -147 0
-11 48 -147 0
-11 -48 147 0
82 147 -148 0
82 -147 -148 0
-82 147 -148 0
-82 -147 148 0
82 147 -149 0
82 -147 149 0
-82 147 149 0
-82 -147 -149 0
12 48 -150 0
12 -48 -150 0
-12 48 -150 0
-12 -48 150 0
83 150 -151 0
83 -150 -151 0
-83 150 -151 0
-83 -150 151 0
83 150 -152 0
83 -150 152 0
-83 150 152 0
-83 -150 -152 0
13 48 -153 0
13 -48 -153 0
-13 48 -153 0
-13 -48 153 0
84 153 -154 0
84 -153 -154 0
-84 153 -154 0
-84 -153 154 0
84 153 -155 0
84 -153 155 0
-84 153 155 0
-84 -153 -155 0
14 48 -156 0
14 -48 -156 0
-14 48 -156 0
-14 -48 156 0
85 156 -157 0
85 -156 -157 0
-85 156 -157 0
-85 -156 157 0
85 156 -158 0
85 -156 158 0
-85 156 158 0
-85 -156 -158 0
15 48 -159 0
15 -48 -159 0
-15 48 -159 0
-15 -48 159 0
86 159 -160 0
86 -159 -160 0
-86 159 -160 0
-86 -159 160 0
86 159 -161 0
86 -159 161 0
-86 159 161 0
-86 -159 -161 0
16 48 -162 0
16 -48 -162 0
-16 48 -162 0
-16 -48 162 0
87 162 -163 0
87 -162 -163 0
-87 162 -163 0
-87 -162 163 0
87 162 -164 0
87 -162 164 0
-87 162 164 0
-87 -162 -164 0
17 48 -165 0
17 -48 -165 0
-17 48 -165 0
-17 -48 165 0
88 165 -166 0
88 -165 -166 0
-88 165 -166 0
-88 -165 166 0
88 165 -167 0
88 -165 167 0
-88 165 167 0
-88 -165 -167 0
18 48 -168 0
18 -48 -168 0
-18 48 -168 0
-18 -48 168 0
89 168 -169 0
89 -168 -169 0
-89 168 -169 0
-89 -168 169 0
89 168 -170 0
89 -168 170 0
-89 168 170 0
-89 -168 -170 0
19 48 -171 0
19 -48 -171 0
-19 48 -171 0
-19 -48 171 0
90 171 -172 0
90 -171 -172 0
-90 171 -172 0
-90 -171 172 0
90 171 -173 0
90 -171 173 0
-90 171 173 0
-90 -171 -173 0
20 48 -174 0
20 -48 -174 0
-20 48 -174 0
-20 -48 174 0
91 174 -175 0
91 -174 -175 0
-91 174 -175 0
-91 -174 175 0
91 174 -176 0
91 -174 176 0
-91 174 176 0
-91 -174 -176 0
21 48 -177 0
21 -48 -177 0
-21 48 -177 0
-21 -48 177 0
92 177 -178 0
92 -177 -178 0
-92 177 -178 0
-92 -177 178 0
92 177 -179 0
92 -177 179 0
-92 177 179 0
-92 -177 -179 0
22 48 -180 0
22 -48 -180 0
-22 48 -180 0
-22 -48 180 0
93 180 -181 0
93 -180 -181 0
-93 180 -181 0
-93 -180 181 0
93 180 -182 0
93 -180 182 0
-93 180 182 0
-93 -180 -182 0
23 48 -183 0
23 -48 -183 0
-23 48 -183 0
-23 -48 183 0
94 183 -184 0
94 -183 -184 0
-94 183 -184 0
-94 -183 184 0
94 183 -185 0
94 -183 185 0
-94 183 185 0
-94 -183 -185 0
24 48 -186 0
24 -48 -186 0
-24 48 -186 0
-24 -48 186 0
95 186 -187 0
95 -186 -187 0
-95 186 -187 0
-95 -186 187 0
95 186 -188 0
95 -186 188 0
-95 186 188 0
-95 -186 -188 0
25 48 -189 0
25 -48 -189 0
-25 48 -189 0
-25 -48 189 0
96 189 -190 0
96 -189 -190 0
-96 189 -190 0
-96 -189 190 0
96 189 -191 0
96 -189 191 0
-96 189 191 0
-96 -189 -191 0
26 48 -192 0
26 -48 -192 0
-26 48 -192 0
-26 -48 192 0
97 192 -193 0
97 -192 -193 0
-97 192 -193 0
-97 -192 193 0
97 192 -194 0
97 -192 194 0
-97 192 194 0
-97 -192 -194 0
27 48 -195 0
27 -48 -195 0
-27 48 -195 0
-27 -48 195 0
98 195 -196 0
98 -195 -196 0
-98 195 -196 0
-98 -195 196 0
98 195 -197 0
98 -195 197 0
-98 195 197 0
-98 -195 -197 0
28 48 -198 0
28 -48 -198 0
-28 48 -198 0
-28 -48 198 0
99 198 -199 0
99 -198 -199 0
-99 198 -199 0
-99 -198 199 0
99 198 -200 0
99 -198 200 0
-99 198 200 0
-99 -198 -200 0
29 48 -201 0
29 -48 -201 0
-29 48 -201 0
-29 -48 201 0
100 201 -202 0
100 -201 -202 0
-100 201 -202 0
-100 -201 202 0
100 201 -203 0
100 -201 203 0
-100 201 203 0
-100 -201 -203 0
30 48 -204 0
30 -48 -204 0
-30 48 -204 0
-30 -48 204 0
101 204 -205 0
101 -204 -205 0
-101 204 -205 0
-101 -204 205 0
101 204 -206 0
101 -204 206 0
-101 204 206 0
-101 -204 -206 0
31 48 -207 0
31 -48 -207 0
-31 48 -207 0
-31 -48 207 0
102 207 -208 0
102 -207 -208 0
-102 207 -208 0
-102 -207 208 0
102 207 -209 0
102 -207 209 0
-102 207 209 0
-102 -207 -209 0
32 48 -210 0
32 -48 -210 0
-32 48 -210 0
-32 -48 210 0
103 210 -211 0
103 -210 -211 0
-103 210 -211 0
-103 -210 211 0
103 210 -212 0
103 -210 212 0
-103 210 212 0
-103 -210 -212 0
33 48 -213 0
33 -48 -213 0
-33 48 -213 0
-33 -48 213 0
104 213 -214 0
104 -213 -214 0
-104 213 -214 0
-104 -213 214 0
104 213 -215 0
104 -213 215 0
-104 213 215 0
-104 -213 -215 0
34 48 -216 0
34 -48 -216 0
-34 48 -216 0
-34 -48 216 0
105 216 -217 0
105 -216 -217 0
-105 216 -217 0
-105 -216 217 0
105 216 -218 0
105 -216 218 0
-105 216 218 0
-105 -216 -218 0
35 48 -219 0
35 -48 -219 0
-35 48 -219 0
-35 -48 219 0
106 219 -220 0
106 -219 -220 0
-106 219 -220 0
-106 -219 220 0
106 219 -221 0
106 -219 221 0
-106 219 221 0
-106 -219 -221 0
36 48 -222 0
36 -48 -222 0
-36 48 -222 0
-36 -48 222 0
107 222 -223 0
107 -222 -223 0
-107 222 -223 0
-107 -222 223 0
107 222 -224 0
107 -222 224 0
-107 222 224 0
-107 -222 -224 0
37 48 -225 0
37 -48 -225 0
-37 48 -225 0
-37 -48 225 0
108 225 -226 0
108 -225 -226 0
-108 225 -226 0
-108 -225 226 0
108 225 -227 0
108 -225 227 0
-108 225 227 0
-108 -225 -227 0
38 48 -228 0
38 -48 -228 0
-38 48 -228 0
-38 -48 228 0
109 228 -229 0
109 -228 -229 0
-109 228 -229 0
-109 -228 229 0
109 228 -230 0
109 -228 230 0
-109 228 230 0
-109 -228 -230 0
39 48 -231 0
39 -48 -231 0
-39 48 -231 0
-39 -48 231 0
110 231 -232 0
110 -231 -232 0
-110 231 -232 0
-110 -231 232 0
110 231 -233 0
110 -231 233 0
-110 231 233 0
-110 -231 -233 0
40 48 -234 0
40 -48 -234 0
-40 48 -234 0
-40 -48 234 0
111 234 -235 0
111 -234 -235 0
-111 234 -235 0
-111 -234 235 0
111 234 -236 0
111 -234 236 0
-111 234 236 0
-111 -234 -236 0
41 48 -237 0
41 -48 -237 0
-41 48 -237 0
-41 -48 237 0
112 237 -238 0
112 -237 -238 0
-112 237 -238 0
-112 -237 238 0
112 237 -239 0
112 -237 239 0
-112 237 239 0
-112 -237 -239 0
42 48 -240 0
42 -48 -240 0
-42 48 -240 0
-42 -48 240 0
113 240 -241 0
113 -240 -241 0
-113 240 -241 0
-113 -240 241 0
113 240 -242 0
113 -240 242 0
-113 240 242 0
-113 -240 -242 0
43 48 -243 0
43 -48 -243 0
-43 48 -243 0
-43 -48 243 0
114 243 -244 0
114 -243 -244 0
-114 243 -244 0
-114 -243 244 0
114 243 -245 0
114 -243 245 0
-114 243 245 0
-114 -243 -245 0
44 48 -246 0
44 -48 -246 0
-44 48 -246 0
-44 -48 246 0
115 246 -247 0
115 -246 -247 0
-115 246 -247 0
-115 -246 247 0
115 246 -248 0
115 -246 248 0
-115 246 248 0
-115 -246 -248 0
45 48 -249 0
45 -48 -249 0
-45 48 -249 0
-45 -48 249 0
116 249 -250 0
116 -249 -250 0
-116 249 -250 0
-116 -249 250 0
116 249 -251 0
116 -249 251 0
-116 249 251 0
-116 -249 -251 0
46 48 -252 0
46 -48 -252 0
-46 48 -252 0
-46 -48 252 0
1 49 -253 0
1 -49 -253 0
-1 49 -253 0
-1 -49 253 0
122 253 -254 0
122 -253 -254 0
-122 253 -254 0
-122 -253 254 0
122 253 -255 0
122 -253 255 0
-122 253 255 0
-122 -253 -255 0
118 255 -256 0
118 -255 -256 0
-118 255 -256 0
-118 -255 256 0
118 255 -257 0
118 -255 257 0
-118 255 257 0
-118 -255 -257 0
254 256 -258 0
254 -256 258 0
-254 256 258 0
-254 -256 -258 0
2 49 -259 0
2 -49 -259 0
-2 49 -259 0
-2 -49 259 0
125 259 -260 0
125 -259 -260 0
-125 259 -260 0
-125 -259 260 0
125 259 -261 0
125 -259 261 0
-125 259 261 0
-125 -259 -261 0
121 261 -262 0
121 -261 -262 0
-121 261 -262 0
-121 -261 262 0
121 261 -263 0
121 -261 263 0
-121 261 263 0
-121 -261 -263 0
260 262 -264 0
260 -262 264 0
-260 262 264 0
-260 -262 -264 0
3 49 -265 0
3 -49 -265 0
-3 49 -265 0
-3 -49 265 0
128 265 -266 0
128 -265 -266 0
-128 265 -266 0
-128 -265 266 0
128 265 -267 0
128 -265 267 0
-128 265 267 0
-128 -265 -267 0
124 267 -268 0
124 -267 -268 0
-124 267 -268 0
-124 -267 268 0
124 267 -269 0
124 -267 269 0
-124 267 269 0
-124 -267 -269 0
266 268 -270 0
266 -268 270 0
-266 268 270 0
-266 -268 -270 0
4 49 -271 0
4 -49 -271 0
-4 49 -271 0
-4 -49 271 0
131 271 -272 0
131 -271 -272 0
-131 271 -272 0
-131 -271 272 0
131 271 -273 0
131 -271 273 0
-131 271 273 0
-131 -271 -273 0
127 273 -274 0
127 -273 -274 0
-127 273 -274 0
-127 -273 274 0
127 273 -275 0
127 -273 275 0
-127 273 275 0
-127 -273 -275 0
272 274 -276 0
272 -274 276 0
-272 274 276 0
-272 -274 -276 0
5 49 -277 0
5 -49 -277 0
-5 49 -277 0
-5 -49 277 0
134 277 -278 0
134 -277 -278 0
-134 277 -278 0
-134 -277 278 0
134 277 -279 0
134 -277 279 0
-134 277 279 0
-134 -277 -279 0
130 279 -280 0
130 -279 -280 0
-130 279 -280 0
-130 -279 280 0
130 279 -281 0
130 -279 281 0
-130 279 281 0
-130 -279 -281 0
278 280 -282 0
278 -280 282 0
-278 280 282 0
-278 -280 -282 0
6 49 -283 0
6 -49 -283 0
-6 49 -283 0
-6 -49 283 0
137 283 -284 0
137 -283 -284 0
-137 283 -284 0
-137 -283 284 0
137 283 -285 0
137 -283 285 0
-137 283 285 0
-137 -283 -285 0
133 285 -286 0
133 -285 -286 0
-133 285 -286 0
-133 -285 286 0
133 285 -287 0
133 -285 287 0
-133 285 287 0
-133 -285 -287 0
284 286 -288 0
284 -286 288 0
-284 286 288 0
-284 -286 -288 0
7 49 -289 0
7 -49 -289 0
-7 49 -289 0
-7 -49 289 0
140 289 -290 0
140 -289 -290 0
-140 289 -290 0
-140 -289 290 0
140 289 -291 0
140 -289 291 0
-140 289 291 0
-140 -289 -291 0
136 291 -292 0
136 -291 -292 0
-136 291 -292 0
-136 -291 292 0
136 291 -293 0
136 -291 293 0
-136 291 293 0
-136 -291 -293 0
290 292 -294 0
290 -292 294 0
-290 292 294 0
-290 -292 -294 0
8 49 -295 0
8 -49 -295 0
-8 49 -295 0
-8 -49 295 0
143 295 -296 0
143 -295 -296 0
-143 295 -296 0
-143 -295 296 0
143 295 -297 0
143 -295 297 0
-143 295 297 0
-143 -295 -297 0
139 297 -298 0
139 -297 -298 0
-139 297 -298 0
-139 -297 298 0
139 297 -299 0
139 -297 299 0
-139 297 299 0
-139 -297 -299 0
296 298 -300 0
296 -298 300 0
-296 298 300 0
-296 -298 -300 0
9 49 -301 0
9 -49 -301 0
-9 49 -301 0
-9 -49 301 0
146 301 -302 0
146 -301 -302 0
-146 301 -302 0
-146 -301 302 0
146 301 -303 0
146 -301 303 0
-146 301 303 0
-146 -301 -303 0
142 303 -304 0
142 -303 -304 0
-142 303 -304 0
-142 -303 304 0
142 303 -305 0
142 -303 305 0
-142 303 305 0
-142 -303 -305 0
302 304 -306 0
302 -304 306 0
-302 304 306 0
-302 -304 -306 0
10 49 -307 0
10 -49 -307 0
-10 49 -307 0
-10 -49 307 0
149 307 -308 0
149 -307 -308 0
-149 307 -308 0
-149 -307 308 0
149 307 -309 0
149 -307 309 0
-149 307 309 0
-149 -307 -309 0
145 309 -310 0
145 -309 -310 0
-145 309 -310 0
-145 -309 310 0
145 309 -311 0
145 -309 311 0
-145 309 311 0
-145 -309 -311 0
308 310 -312 0
308 -310 312 0
-308 310 312 0
-308 -310 -312 0
11 49 -313 0
11 -49 -313 0
-11 49 -313 0
-11 -49 313 0
152 313 -314 0
152 -313 -314 0
-152 313 -314 0
-152 -313 314 0
152 313 -315 0
152 -313 315 0
-152 313 315 0
-152 -313 -315 0
148 315 -316 0
148 -315 -316 0
-148 315 -316 0
-148 -315 316 0
148 315 -317 0
148 -315 317 0
-148 315 317 0
-148 -315 -317 0
314 316 -318 0
314 -316 318 0
-314 316 318 0
-314 -316 -318 0
12 49 -319 0
12 -49 -319 0
-12 49 -319 0
-12 -49 319 0
155 319 -320 0
155 -319 -320 0
-155 319 -320 0
-155 -319 320 0
155 319 -321 0
155 -319 321 0
-155 319 321 0
-155 -319 -321 0
151 321 -322 0
151 -321 -322 0
-151 321 -322 0
-151 -321 322 0
151 321 -323 0
151 -321 323 0
-151 321 323 0
-151 -321 -323 0
320 322 -324 0
320 -322 324 0
-320 322 324 0
-320 -322 -324 0
13 49 -325 0
13 -49 -325 0
-13 49 -325 0
-13 -49 325 0
158 325 -326 0
158 -325 -326 0
-158 325 -326 0
-158 -325 326 0
158 325 -327 0
158 -325 327 0
-158 325 327 0
-158 -325 -327 0
154 327 -328 0
154 -327 -328 0
-154 327 -328 0
-154 -327 328 0
154 327 -329 0
154 -327 329 0
-154 327 329 0
-154 -327 -329 0
326 328 -330 0
326 -328 330 0
-326 328 330 0
-326 -328 -330 0
14 49 -331 0
14 -49 -331 0
-14 49 -331 0
-14 -49 331 0
161 331 -332 0
161 -331 -332 0
-161 331 -332 0
-161 -331 332 0
161 331 -333 0
161 -331 333 0
-161 331 333 0
-161 -331 -333 0
157 333 -334 0
157 -333 -334 0
-157 333 -334 0
-157 -333 334 0
157 333 -335 0
157 -333 335 0
-157 333 335 0
-157 -333 -335 0
332 334 -336 0
332 -334 336 0
-332 334 336 0
-332 -334 -336 0
15 49 -337 0
15 -49 -337 0
-15 49 -337 0
-15 -49 337 0
164 337 -338 0
164 -337 -338 0
-164 337 -338 0
-164 -337 338 0
164 337 -339 0
164 -337 339 0
-164 337 339 0
-164 -337 -339 0
160 339 -340 0
160 -339 -340 0
-160 339 -340 0
-160 -339 340 0
160 339 -341 0
160 -339 341 0
-160 339 341 0
-160 -339 -341 0
338 340 -342 0
338 -340 342 0
-338 340 342 0
-338 -340 -342 0
16 49 -343 0
16 -49 -343 0
-16 49 -343 0
-16 -49 343 0
167 343 -344 0
167 -343 -344 0
-167 343 -344 0
-167 -343 344 0
167 343 -345 0
167 -343 345 0
-167 343 345 0
-167 -343 -345 0
163 345 -346 0
163 -345 -346 0
-163 345 -346 0
-163 -345 346 0
163 345 -347 0
163 -345 347 0
-163 345 347 0
-163 -345 -347 0
344 346 -348 0
344 -346 348 0
-344 346 348 0
-344 -346 -348 0
17 49 -349 0
17 -49 -349 0
-17 49 -349 0
-17 -49 349 0
170 349 -350 0
170 -349 -350 0
-170 349 -350 0
-170 -349 350 0
170 349 -351 0
170 -349 351 0
-170 349 351 0
-170 -349 -351 0
166 351 -352 0
166 -351 -352 0
-166 351 -352 0
-166 -351 352 0
166 351 -353 0
166 -351 353 0
-166 351 353 0
-166 -351 -353 0
350 352 -354 0
350 -352 354 0
-350 352 354 0
-350 -352 -354 0
18 49 -355 0
18 -49 -355 0
-18 49 -355 0
-18 -49 355 0
173 355 -356 0
173 -355 -356 0
-173 355 -356 0
-173 -355 356 0
173 355 -357 0
173 -355 357 0
-173 355 357 0
-173 -355 -357 0
169 357 -358 0
169 -357 -358 0
-169 357 -358 0
-169 -357 358 0
169 357 -359 0
169 -357 359 0
-169 357 359 0
-169 -357 -359 0
356 358 -360 0
356 -358 360 0
-356 358 360 0
-356 -358 -360 0
19 49 -361 0
19 -49 -361 0
-19 49 -361 0
-19 -49 361 0
176 361 -362 0
176 -361 -362 0
-176 361 -362 0
-176 -361 362 0
176 361 -363 0
176 -361 363 0
-176 361 363 0
-176 -361 -363 0
172 363 -364 0
172 -363 -364 0
-172 363 -364 0
-172 -363 364 0
172 363 -365 0
172 -363 365 0
-172 363 365 0
-172 -363 -365 0
362 364 -366 0
362 -364 366 0
-362 364 366 0
-362 -364 -366 0
20 49 -367 0
20 -49 -367 0
-20 49 -367 0
-20 -49 367 0
179 367 -368 0
179 -367 -368 0
-179 367 -368 0
-179 -367 368 0
179 367 -369 0
179 -367 369 0
-179 367 369 0
-179 -367 -369 0
175 369 -370 0
175 -369 -370 0
-175 369 -370 0
-175 -369 370 0
175 369 -371 0
175 -369 371 0
-175 369 371 0
-175 -369 -371 0
368 370 -372 0
368 -370 372 0
-368 370 372 0
-368 -370 -372 0
21 49 -373 0
21 -49 -373 0
-21 49 -373 0
-21 -49 373 0
182 373 -374 0
182 -373 -374 0
-182 373 -374 0
-182 -373 374 0
182 373 -375 0
182 -373 375 0
-182 373 375 0
-182 -373 -375 0
178 375 -376 0
178 -375 -376 0
-178 375 -376 0
-178 -375 376 0
178 375 -377 0
178 -375 377 0
-178 375 377 0
-178 -375 -377 0
374 376 -378 0
374 -376 378 0
-374 376 378 0
-374 -376 -378 0
22 49 -379 0
22 -49 -379 0
-22 49 -379 0
-22 -49 379 0
185 379 -380 0
185 -379 -380 0
-185 379 -380 0
-185 -379 380 0
185 379 -381 0
185 -379 381 0
-185 379 381 0
-185 -379 -381 0
181 381 -382 0
181 -381 -382 0
-181 381 -382 0
-181 -381 382 0
181 381 -383 0
181 -381 383 0
-181 381 383 0
-181 -381 -383 0
380 382 -384 0
380 -382 384 0
-380 382 384 0
-380 -382 -384 0
23 49 -385 0
23 -49 -385 0
-23 49 -385 0
-23 -49 385 0
188 385 -386 0
188 -385 -386 0
-188 385 -386 0
-188 -385 386 0
188 385 -387 0
188 -385 387 0
-188 385 387 0
-188 -385 -387 0
184 387 -388 0
184 -387 -388 0
-184 387 -388 0
-184 -387 388 0
184 387 -389 0
184 -387 389 0
-184 387 389 0
-184 -387 -389 0
386 388 -390 0
386 -388 390 0
-386 388 390 0
-386 -388 -390 0
24 49 -391 0
24 -49 -391 0
-24 49 -391 0
-24 -49 391 0
191 391 -392 0
191 -391 -392 0
-191 391 -392 0
-191 -391 392 0
191 391 -393 0
191 -391 393 0
-191 391 393 0
-191 -391 -393 0
187 393 -394 0
187 -393 -394 0
-187 393 -394 0
-187 -393 394 0
187 393 -395 0
187 -393 395 0
-187 393 395 0
-187 -393 -395 0
392 394 -396 0
392 -394 396 0
-392 394 396 0
-392 -394 -396 0
25 49 -397 0
25 -49 -397 0
-25 49 -397 0
-25 -49 397 0
194 397 -398 0
194 -397 -398 0
-194 397 -398 0
-194 -397 398 0
194 397 -399 0
194 -397 399 0
-194 397 399 0
-194 -397 -399 0
190 399 -400 0
190 -399 -400 0
-190 399 -400 0
-190 -399 400 0
190 399 -401 0
190 -399 401 0
-190 399 401 0
-190 -399 -401 0
398 400 -402 0
398 -400 402 0
-398 400 402 0
-398 -400 -402 0
26 49 -403 0
26 -49 -403 0
-26 49 -403 0
-26 -49 403 0
197 403 -404 0
197 -403 -404 0
-197 403 -404 0
-197 -403 404 0
197 403 -405 0
197 -403 405 0
-197 403 405 0
-197 -403 -405 0
193 405 -406 0
193 -405 -406 0
-193 405 -406 0
-193 -405 406 0
193 405 -407 0
193 -405 407 0
-193 405 407 0
-193 -405 -407 0
404 406 -408 0
404 -406 408 0
-404 406 408 0
-404 -406 -408 0
27 49 -409 0
27 -49 -409 0
-27 49 -409 0
-27 -49 409 0
200 409 -410 0
200 -409 -410 0
-200 409 -410 0
-200 -409 410 0
200 409 -411 0
200 -409 411 0
-200 409 411 0
-200 -409 -411 0
196 411 -412 0
196 -411 -412 0
-196 411 -412 0
-196 -411 412 0
196 411 -413 0
196 -411 413 0
-196 411 413 0
-196 -411 -413 0
410 412 -414 0
410 -412 414 0
-410 412 414 0
-410 -412 -414 0
28 49 -415 0
28 -49 -415 0
-28 49 -415 0
-28 -49 415 0
203 415 -416 0
203 -415 -416 0
-203 415 -416 0
-203 -415 416 0
203 415 -417 0
203 -415 417 0
-203 415 417 0
-203 -415 -417 0
199 417 -418 0
199 -417 -418 0
-199 417 -418 0
-199 -417 418 0
199 417 -419 0
199 -417 419 0
-199 417 419 0
-199 -417 -419 0
416 418 -420 0
416 -418 420 0
-416 418 420 0
-416 -418 -420 0
29 49 -421 0
29 -49 -421 0
-29 49 -421 0
-29 -49 421 0
206 421 -422 0
206 -421 -422 0
-206 421 -422 0
-206 -421 422 0
206 421 -423 0
206 -421 423 0
-206 421 423 0
-206 -421 -423 0
202 423 -424 0
202 -423 -424 0
-202 423 -424 0
-202 -423 424 0
202 423 -425 0
202 -423 425 0
-202 423 425 0
-202 -423 -425 0
422 424 -426 0
422 -424 426 0
-422 424 426 0
-422 -424 -426 0
30 49 -427 0
30 -49 -427 0
-30 49 -427 0
-30 -49 427 0
209 427 -428 0
209 -427 -428 0
-209 427 -428 0
-209 -427 428 0
209 427 -429 0
209 -427 429 0
-209 427 429 0
-209 -427 -429 0
205 429 -430 0
205 -429 -430 0
-205 429 -430 0
-205 -429 430 0
205 429 -431 0
205 -429 431 0
-205 429 431 0
-205 -429 -431 0
428 430 -432 0
428 -430 432 0
-428 430 432 0
-428 -430 -432 0
31 49 -433 0
31 -49 -433 0
-31 49 -433 0
-31 -49 433 0
212 433 -434 0
212 -433 -434 0
-212 433 -434 0
-212 -433 434 0
212 433 -435 0
212 -433 435 0
-212 433 435 0
-212 -433 -435 0
208 435 -436 0
208 -435 -436 0
-208 435 -436 0
-208 -435 436 0
208 435 -437 0
208 -435 437 0
-208 435 437 0
-208 -435 -437 0
434 436 -438 0
434 -436 438 0
-434 436 438 0
-434 -436 -438 0
32 49 -439 0
32 -49 -439 0
-32 49 -439 0
-32 -49 439 0
215 439 -440 0
215 -439 -440 0
-215 439 -440 0
-215 -439 440 0
215 439 -441 0
215 -439 441 0
-215 439 441 0
-215 -439 -441 0
211 441 -442 0
211 -441 -442 0
-211 441 -442 0
-211 -441 442 0
211 441 -443 0
211 -441 443 0
-211 441 443 0
-211 -441 -443 0
440 442 -444 0
440 -442 444 0
-440 442 444 0
-440 -442 -444 0
33 49 -445 0
33 -49 -445 0
-33 49 -445 0
-33 -49 445 0
218 445 -446 0
218 -445 -446 0
-218 445 -446 0
-218 -445 446 0
218 445 -447 0
218 -445 447 0
-218 445 447 0
-218 -445 -447 0
214 447 -448 0
214 -447 -448 0
-214 447 -448 0
-214 -447 448 0
214 447 -449 0
214 -447 449 0
-214 447 449 0
-214 -447 -449 0
446 448 -450 0
446 -448 450 0
-446 448 450 0
-446 -448 -450 0
34 49 -451 0
34 -49 -451 0
-34 49 -451 0
-34 -49 451 0
221 451 -452 0
221 -451 -452 0
-221 451 -452 0
-221 -451 452 0
221 451 -453 0
221 -451 453 0
-221 451 453 0
-221 -451 -453 0
217 453 -454 0
217 -453 -454 0
-217 453 -454 0
-217 -453 454 0
217 453 -455 0
217 -453 455 0
-217 453 455 0
-217 -453 -455 0
452 454 -456 0
452 -454 456 0
-452 454 456 0
-452 -454 -456 0
35 49 -457 0
35 -49 -457 0
-35 49 -457 0
-35 -49 457 0
224 457 -458 0
224 -457 -458 0
-224 457 -458 0
-224 -457 458 0
224 457 -459 0
224 -457 459 0
-224 457 459 0
-224 -457 -459 0
220 459 -460 0
220 -459 -460 0
-220 459 -460 0
-220 -459 460 0
220 459 -461 0
220 -459 461 0
-220 459 461 0
-220 -459 -461 0
458 460 -462 0
458 -460 462 0
-458 460 462 0
-458 -460 -462 0
36 49 -463 0
36 -49 -463 0
-36 49 -463 0
-36 -49 463 0
227 463 -464 0
227 -463 -464 0
-227 463 -464 0
-227 -463 464 0
227 463 -465 0
227 -463 465 0
-227 463 465 0
-227 -463 -465 0
223 465 -466 0
223 -465 -466 0
-223 465 -466 0
-223 -465 466 0
223 465 -467 0
223 -465 467 0
-223 465 467 0
-223 -465 -467 0
464 466 -468 0
464 -466 468 0
-464 466 468 0
-464 -466 -468 0
37 49 -469 0
37 -49 -469 0
-37 49 -469 0
-37 -49 469 0
230 469 -470 0
230 -469 -470 0
-230 469 -470 0
-230 -469 470 0
230 469 -471 0
230 -469 471 0
-230 469 471 0
-230 -469 -471 0
226 471 -472 0
226 -471 -472 0
-226 471 -472 0
-226 -471 472 0
226 471 -473 0
226 -471 473 0
-226 471 473 0
-226 -471 -473 0
470 472 -474 0
470 -472 474 0
-470 472 474 0
-470 -472 -474 0
38 49 -475 0
38 -49 -475 0
-38 49 -475 0
-38 -49 475 0
233 475 -476 0
233 -475 -476 0
-233 475 -476 0
-233 -475 476 0
233 475 -477 0
233 -475 477 0
-233 475 477 0
-233 -475 -477 0
229 477 -478 0
229 -477 -478 0
-229 477 -478 0
-229 -477 478 0
229 477 -479 0
229 -477 479 0
-229 477 479 0
-229 -477 -479 0
476 478 -480 0
476 -478 480 0
-476 478 480 0
-476 -478 -480 0
39 49 -481 0
39 -49 -481 0
-39 49 -481 0
-39 -49 481 0
236 481 -482 0
236 -481 -482 0
-236 481 -482 0
-236 -481 482 0
236 481 -483 0
236 -481 483 0
-236 481 483 0
-236 -481 -483 0
232 483 -484 0
232 -483 -484 0
-232 483 -484 0
-232 -483 484 0
232 483 -485 0
232 -483 485 0
-232 483 485 0
-232 -483 -485 0
482 484 -486 0
482 -484 486 0
-482 484 486 0
-482 -484 -486 0
40 49 -487 0
40 -49 -487 0
-40 49 -487 0
-40 -49 487 0
239 487 -488 0
239 -487 -488 0
-239 487 -488 0
-239 -487 488 0
239 487 -489 0
239 -487 489 0
-239 487 489 0
-239 -487 -489 0
235 489 -490 0
235 -489 -490 0
-235 489 -490 0
-235 -489 490 0
235 489 -491 0
235 -489 491 0
-235 489 491 0
-235 -489 -491 0
488 490 -492 0
488 -490 492 0
-488 490 492 0
-488 -490 -492 0
41 49 -493 0
41 -49 -493 0
-41 49 -493 0
-41 -49 493 0
242 493 -494 0
242 -493 -494 0
-242 493 -494 0
-242 -493 494 0
242 493 -495 0
242 -493 495 0
-242 493 495 0
-242 -493 -495 0
238 495 -496 0
238 -495 -496 0
-238 495 -496 0
-238 -495 496 0
238 495 -497 0
238 -495 497 0
-238 495 497 0
-238 -495 -497 0
494 496 -498 0
494 -496 498 0
-494 496 498 0
-494 -496 -498 0
42 49 -499 0
42 -49 -499 0
-42 49 -499 0
-42 -49 499 0
245 499 -500 0
245 -499 -500 0
-245 499 -500 0
-245 -499 500 0
245 499 -501 0
245 -499 501 0
-245 499 501 0
-245 -499 -501 0
241 501 -502 0
241 -501 -502 0
-241 501 -502 0
-241 -501 502 0
241 501 -503 0
241 -501 503 0
-241 501 503 0
-241 -501 -503 0
500 502 -504 0
500 -502 504 0
-500 502 504 0
-500 -502 -504 0
43 49 -505 0
43 -49 -505 0
-43 49 -505 0
-43 -49 505 0
248 505 -506 0
248 -505 -506 0
-248 505 -506 0
-248 -505 506 0
248 505 -507 0
248 -505 507 0
-248 505 507 0
-248 -505 -507 0
244 507 -508 0
244 -507 -508 0
-244 507 -508 0
-244 -507 508 0
244 507 -509 0
244 -507 509 0
-244 507 509 0
-244 -507 -509 0
506 508 -510 0
506 -508 510 0
-506 508 510 0
-506 -508 -510 0
44 49 -511 0
44 -49 -511 0
-44 49 -511 0
-44 -49 511 0
251 511 -512 0
251 -511 -512 0
-251 511 -512 0
-251 -511 512 0
251 511 -513 0
251 -511 513 0
-251 511 513 0
-251 -511 -513 0
247 513 -514 0
247 -513 -514 0
-247 513 -514 0
-247 -513 514 0
247 513 -515 0
247 -513 515 0
-247 513 515 0
-247 -513 -515 0
512 514 -516 0
512 -514 516 0
-512 514 516 0
-512 -514 -516 0
45 49 -517 0
45 -49 -517 0
-45 49 -517 0
-45 -49 517 0
252 517 -518 0
252 -517 -518 0
-252 517 -518 0
-252 -517 518 0
252 517 -519 0
252 -517 519 0
-252 517 519 0
-252 -517 -519 0
250 519 -520 0
250 -519 -520 0
-250 519 -520 0
-250 -519 520 0
250 519 -521 0
250 -519 521 0
-250 519 521 0
-250 -519 -521 0
518 520 -522 0
518 -520 522 0
-518 520 522 0
-518 -520 -522 0
46 49 -523 0
46 -49 -523 0
-46 49 -523 0
-46 -49 523 0
1 50 -524 0
1 -50 -524 0
-1 50 -524 0
-1 -50 524 0
263 524 -525 0
263 -524 -525 0
-263 524 -525 0
-263 -524 525 0
263 524 -526 0
263 -524 526 0
-263 524 526 0
-263 -524 -526 0
258 526 -527 0
258 -526 -527 0
-258 526 -527 0
-258 -526 527 0
258 526 -528 0
258 -526 528 0
-258 526 528 0
-258 -526 -528 0
525 527 -529 0
525 -527 529 0
-525 527 529 0
-525 -527 -529 0
2 50 -530 0
2 -50 -530 0
-2 50 -530 0
-2 -50 530 0
269 530 -531 0
269 -530 -531 0
-269 530 -531 0
-269 -530 531 0
269 530 -532 0
269 -530 532 0
-269 530 532 0
-269 -530 -532 0
264 532 -533 0
264 -532 -533 0
-264 532 -533 0
-264 -532 533 0
264 532 -534 0
264 -532 534 0
-264 532 534 0
-264 -532 -534 0
531 533 -535 0
531 -533 535 0
-531 533 535 0
-531 -533 -535 0
3 50 -536 0
3 -50 -536 0
-3 50 -536 0
-3 -50 536 0
275 536 -537 0
275 -536 -537 0
-275 536 -537 0
-275 -536 537 0
275 536 -538 0
275 -536 538 0
-275 536 538 0
-275 -536 -538 0
270 538 -539 0
270 -538 -539 0
-270 538 -539 0
-270 -538 539 0
270 538 -540 0
270 -538 540 0
-270 538 540 0
-270 -538 -540 0
537 539 -541 0
537 -539 541 0
-537 539 541 0
-537 -539 -541 0
4 50 -542 0
4 -50 -542 0
-4 50 -542 0
-4 -50 542 0
281 542 -543 0
281 -542 -543 0
-281 542 -543 0
-281 -542 543 0
281 542 -544 0
281 -542 544 0
-281 542 544 0
-281 -542 -544 0
276 544 -545 0
276 -544 -545 0
-276 544 -545 0
-276 -544 545 0
276 544 -546 0
276 -544 546 0
-276 544 546 0
-276 -544 -546 0
543 545 -547 0
543 -545 547 0
-543 545 547 0
-543 -545 -547 0
5 50 -548 0
5 -50 -548 0
-5 50 -548 0
-5 -50 548 0
287 548 -549 0
287 -548 -549 0
-287 548 -549 0
-287 -548 549 0
287 548 -550 0
287 -548 550 0
-287 548 550 0
-287 -548 -550 0
282 550 -551 0
282 -550 -551 0
-282 550 -551 0
-282 -550 551 0
282 550 -552 0
282 -550 552 0
-282 550 552 0
-282 -550 -552 0
549 551 -553 0
549 -551 553 0
-549 551 553 0
-549 -551 -553 0
6 50 -554 0
6 -50 -554 0
-6 50 -554 0
-6 -50 554 0
293 554 -555 0
293 -554 -555 0
-293 554 -555 0
-293 -554 555 0
293 554 -556 0
293 -554 556 0
-293 554 556 0
-293 -554 -556 0
288 556 -557 0
288 -556 -557 0
-288 556 -557 0
-288 -556 557 0
288 556 -558 0
288 -556 558 0
-288 556 558 0
-288 -556 -558 0
555 557 -559 0
555 -557 559 0
-555 557 559 0
-555 -557 -559 0
7 50 -560 0
7 -50 -560 0
-7 50 -560 0
-7 -50 560 0
299 560 -561 0
299 -560 -561 0
-299 560 -561 0
-299 -560 561 0
299 560 -562 0
299 -560 562 0
-299 560 562 0
-299 -560 -562 0
294 562 -563 0
294 -562 -563 0
-294 562 -563 0
-294 -562 563 0
294 562 -564 0
294 -562 564 0
-294 562 564 0
-294 -562 -564 0
561 563 -565 0
561 -563 565 0
-561 563 565 0
-561 -563 -565 0
8 50 -566 0
8 -50 -566 0
-8 50 -566 0
-8 -50 566 0
305 566 -567 0
305 -566 -567 0
-305 566 -567 0
-305 -566 567 0
305 566 -568 0
305 -566 568 0
-305 566 568 0
-305 -566 -568 0
300 568 -569 0
300 -568 -569 0
-300 568 -569 0
-300 -568 569 0
300 568 -570 0
300 -568 570 0
-300 568 570 0
-300 -568 -570 0
567 569 -571 0
567 -569 571 0
-567 569 571 0
-567 -569 -571 0
9 50 -572 0
9 -50 -572 0
-9 50 -572 0
-9 -50 572 0
311 572 -573 0
311 -572 -573 0
-311 572 -573 0
-311 -572 573 0
311 572 -574 0
311 -572 574 0
-311 572 574 0
-311 -572 -574 0
306 574 -575 0
306 -574 -575 0
-306 574 -575 0
-306 -574 575 0
306 574 -576 0
306 -574 576 0
-306 574 576 0
-306 -574 -576 0
573 575 -577 0
573 -575 577 0
-573 575 577 0
-573 -575 -577 0
10 50 -578 0
10 -50 -578 0
-10 50 -578 0
-10 -50 578 0
317 578 -579 0
317 -578 -579 0
-317 578 -579 0
-317 -578 579 0
317 578 -580 0
317 -578 580 0
-317 578 580 0
-317 -578 -580 0
312 580 -581 0
312 -580 -581 0
-312 580 -581 0
-312 -580 581 0
312 580 -582 0
312 -580 582 0
-312 580 582 0
-312 -580 -582 0
579 581 -583 0
579 -581 583 0
-579 581 583 0
-579 -581 -583 0
11 50 -584 0
11 -50 -584 0
-11 50 -584 0
-11 -50 584 0
323 584 -585 0
323 -584 -585 0
-323 584 -585 0
-323 -584 585 0
323 584 -586 0
323 -584 586 0
-323 584 586 0
-323 -584 -586 0
318 586 -587 0
318 -586 -587 0
-318 586 -587 0
-318 -586 587 0
318 586 -588 0
318 -586 588 0
-318 586 588 0
-318 -586 -588 0
585 587 -589 0
585 -587 589 0
-585 587 589 0
-585 -587 -589 0
12 50 -590 0
12 -50 -590 0
-12 50 -590 0
-12 -50 590 0
329 590 -591 0
329 -590 -591 0
-329 590 -591 0
-329 -590 591 0
329 590 -592 0
329 -590 592 0
-329 590 592 0
-329 -590 -592 0
324 592 -593 0
324 -592 -593 0
-324 592 -593 0
-324 -592 593 0
324 592 -594 0
324 -592 594 0
-324 592 594 0
-324 -592 -594 0
591 593 -595 0
591 -593 595 0
-591 593 595 0
-591 -593 -595 0
13 50 -596 0
13 -50 -596 0
-13 50 -596 0
-13 -50 596 0
335 596 -597 0
335 -596 -597 0
-335 596 -597 0
-335 -596 597 0
335 596 -598 0
335 -596 598 0
-335 596 598 0
-335 -596 -598 0
330 598 -599 0
330 -598 -599 0
-330 598 -599 0
-330 -598 599 0
330 598 -600 0
330 -598 600 0
-330 598 600 0
-330 -598 -600 0
597 599 -601 0
597 -599 601 0
-597 599 601 0
-597 -599 -601 0
14 50 -602 0
14 -50 -602 0
-14 50 -602 0
-14 -50 602 0
341 602 -603 0
341 -602 -603 0
-341 602 -603 0
-341 -602 603 0
341 602 -604 0
341 -602 604 0
-341 602 604 0
-341 -602 -604 0
336 604 -605 0
336 -604 -605 0
-336 604 -605 0
-336 -604 605 0
336 604 -606 0
336 -604 606 0
-336 604 606 0
-336 -604 -606 0
603 605 -607 0
603 -605 607 0
-603 605 607 0
-603 -605 -607 0
15 50 -608 0
15 -50 -608 0
-15 50 -608 0
-15 -50 608 0
347 608 -609 0
347 -608 -609 0
-347 608 -609 0
-347 -608 609 0
347 608 -610 0
347 -608 610 0
-347 608 610 0
-347 -608 -610 0
342 610 -611 0
342 -610 -611 0
-342 610 -611 0
-342 -610 611 0
342 610 -612 0
342 -610 612 0
-342 610 612 0
-342 -610 -612 0
609 611 -613 0
609 -611 613 0
-609 611 613 0
-609 -611 -613 0
16 50 -614 0
16 -50 -614 0
-16 50 -614 0
-16 -50 614 0
353 614 -615 0
353 -614 -615 0
-353 614 -615 0
-353 -614 615 0
353 614 -616 0
353 -614 616 0
-353 614 616 0
-353 -614 -616 0
348 616 -617 0
348 -616 -617 0
-348 616 -617 0
-348 -616 617 0
348 616 -618 0
348 -616 618 0
-348 616 618 0
-348 -616 -618 0
615 617 -619 0
615 -617 619 0
-615 617 619 0
-615 -617 -619 0
17 50 -620 0
17 -50 -620 0
-17 50 -620 0
-17 -50 620 0
359 620 -621 0
359 -620 -621 0
-359 620 -621 0
-359 -620 621 0
359 620 -622 0
359 -620 622 0
-359 620 622 0
-359 -620 -622 0
354 622 -623 0
354 -622 -623 0
-354 622 -623 0
-354 -622 623 0
354 622 -624 0
354 -622 624 0
-354 622 624 0
-354 -622 -624 0
621 623 -625 0
621 -623 625 0
-621 623 625 0
-621 -623 -625 0
18 50 -626 0
18 -50 -626 0
-18 50 -626 0
-18 -50 626 0
365 626 -627 0
365 -626 -627 0
-365 626 -627 0
-365 -626 627 0
365 626 -628 0
365 -626 628 0
-365 626 628 0
-365 -626 -628 0
360 628 -629 0
360 -628 -629 0
-360 628 -629 0
-360 -628 629 0
360 628 -630 0
360 -628 630 0
-360 628 630 0
-360 -628 -630 0
627 629 -631 0
627 -629 631 0
-627 629 631 0
-627 -629 -631 0
19 50 -632 0
19 -50 -632 0
-19 50 -632 0
-19 -50 632 0
371 632 -633 0
371 -632 -633 0
-371 632 -633 0
-371 -632 633 0
371 632 -634 0
371 -632 634 0
-371 632 634 0
-371 -632 -634 0
366 634 -635 0
366 -634 -635 0
-366 634 -635 0
-366 -634 635 0
366 634 -636 0
366 -634 636 0
-366 634 636 0
-366 -634 -636 0
633 635 -637 0
633 -635 637 0
-633 635 637 0
-633 -635 -637 0
20 50 -638 0
20 -50 -638 0
-20 50 -638 0
-20 -50 638 0
377 638 -639 0
377 -638 -639 0
-377 638 -639 0
-377 -638 639 0
377 638 -640 0
377 -638 640 0
-377 638 640 0
-377 -638 -640 0
372 640 -641 0
372 -640 -641 0
-372 640 -641 0
-372 -640 641 0
372 640 -642 0
372 -640 642 0
-372 640 642 0
-372 -640 -642 0
639 641 -643 0
639 -641 643 0
-639 641 643 0
-639 -641 -643 0
21 50 -644 0
21 -50 -644 0
-21 50 -644 0
-21 -50 644 0
383 644 -645 0
383 -644 -645 0
-383 644 -645 0
-383 -644 645 0
383 644 -646 0
383 -644 646 0
-383 644 646 0
-383 -644 -646 0
378 646 -647 0
378 -646 -647 0
-378 646 -647 0
-378 -646 647 0
378 646 -648 0
378 -646 648 0
-378 646 648 0
-378 -646 -648 0
645 647 -649 0
645 -647 649 0
-645 647 649 0
-645 -647 -649 0
22 50 -650 0
22 -50 -650 0
-22 50 -650 0
-22 -50 650 0
389 650 -651 0
389 -650 -651 0
-389 650 -651 0
-389 -650 651 0
389 650 -652 0
389 -650 652 0
-389 650 652 0
-389 -650 -652 0
384 652 -653 0
384 -652 -653 0
-384 652 -653 0
-384 -652 653 0
384 652 -654 0
384 -652 654 0
-384 652 654 0
-384 -652 -654 0
651 653 -655 0
651 -653 655 0
-651 653 655 0
-651 -653 -655 0
23 50 -656 0
23 -50 -656 0
-23 50 -656 0
-23 -50 656 0
395 656 -657 0
395 -656 -657 0
-395 656 -657 0
-395 -656 657 0
395 656 -658 0
395 -656 658 0
-395 656 658 0
-395 -656 -658 0
390 658 -659 0
390 -658 -659 0
-390 658 -659 0
-390 -658 659 0
390 658 -660 0
390 -658 660 0
-390 658 660 0
-390 -658 -660 0
657 659 -661 0
657 -659 661 0
-657 659 661 0
-657 -659 -661 0
24 50 -662 0
24 -50 -662 0
-24 50 -662 0
-24 -50 662 0
401 662 -663 0
401 -662 -663 0
-401 662 -663 0
-401 -662 663 0
401 662 -664 0
401 -662 664 0
-401 662 664 0
-401 -662 -664 0
396 664 -665 0
396 -664 -665 0
-396 664 -665 0
-396 -664 665 0
396 664 -666 0
396 -664 666 0
-396 664 666 0
-396 -664 -666 0
663 665 -667 0
663 -665 667 0
-663 665 667 0
-663 -665 -667 0
25 50 -668 0
25 -50 -668 0
-25 50 -668 0
-25 -50 668 0
407 668 -669 0
407 -668 -669 0
-407 668 -669 0
-407 -668 669 0
407 668 -670 0
407 -668 670 0
-407 668 670 0
-407 -668 -670 0
402 670 -671 0
402 -670 -671 0
-402 670 -671 0
-402 -670 671 0
402 670 -672 0
402 -670 672 0
-402 670 672 0
-402 -670 -672 0
669 671 -673 0
669 -671 673 0
-669 671 673 0
-669 -671 -673 0
26 50 -674 0
26 -50 -674 0
-26 50 -674 0
-26 -50 674 0
413 674 -675 0
413 -674 -675 0
-413 674 -675 0
-413 -674 675 0
413 674 -676 0
413 -674 676 0
-413 674 676 0
-413 -674 -676 0
408 676 -677 0
408 -676 -677 0
-408 676 -677 0
-408 -676 677 0
408 676 -678 0
408 -676 678 0
-408 676 678 0
-408 -676 -678 0
675 677 -679 0
675 -677 679 0
-675 677 679 0
-675 -677 -679 0
27 50 -680 0
27 -50 -680 0
-27 50 -680 0
-27 -50 680 0
419 680 -681 0
419 -680 -681 0
-419 680 -681 0
-419 -680 681 0
419 680 -682 0
419 -680 682 0
-419 680 682 0
-419 -680 -682 0
414 682 -683 0
414 -682 -683 0
-414 682 -683 0
-414 -682 683 0
414 682 -684 0
414 -682 684 0
-414 682 684 0
-414 -682 -684 0
681 683 -685 0
681 -683 685 0
-681 683 685 0
-681 -683 -685 0
28 50 -686 0
28 -50 -686 0
-28 50 -686 0
-28 -50 686 0
425 686 -687 0
425 -686 -687 0
-425 686 -687 0
-425 -686 687 0
425 686 -688 0
425 -686 688 0
-425 686 688 0
-425 -686 -688 0
420 688 -689 0
420 -688 -689 0
-420 688 -689 0
-420 -688 689 0
420 688 -690 0
420 -688 690 0
-420 688 690 0
-420 -688 -690 0
687 689 -691 0
687 -689 691 0
-687 689 691 0
-687 -689 -691 0
29 50 -692 0
29 -50 -692 0
-29 50 -692 0
-29 -50 692 0
431 692 -693 0
431 -692 -693 0
-431 692 -693 0
-431 -692 693 0
431 692 -694 0
431 -692 694 0
-431 692 694 0
-431 -692 -694 0
426 694 -695 0
426 -694 -695 0
-426 694 -695 0
-426 -694 695 0
426 694 -696 0
426 -694 696 0
-426 694 696 0
-426 -694 -696 0
693 695 -697 0
693 -695 697 0
-693 695 697 0
-693 -695 -697 0
30 50 -698 0
30 -50 -698 0
-30 50 -698 0
-30 -50 698 0
437 698 -699 0
437 -698 -699 0
-437 698 -699 0
-437 -698 699 0
437 698 -700 0
437 -698 700 0
-437 698 700 0
-437 -698 -700 0
432 700 -701 0
432 -700 -701 0
-432 700 -701 0
-432 -700 701 0
432 700 -702 0
432 -700 702 0
-432 700 702 0
-432 -700 -702 0
699 701 -703 0
699 -701 703 0
-699 701 703 0
-699 -701 -703 0
31 50 -704 0
31 -50 -704 0
-31 50 -704 0
-31 -50 704 0
443 704 -705 0
443 -704 -705 0
-443 704 -705 0
-443 -704 705 0
443 704 -706 0
443 -704 706 0
-443 704 706 0
-443 -704 -706 0
438 706 -707 0
438 -706 -707 0
-438 706 -707 0
-438 -706 707 0
438 706 -708 0
438 -706 708 0
-438 706 708 0
-438 -706 -708 0
705 707 -709 0
705 -707 709 0
-705 707 709 0
-705 -707 -709 0
32 50 -710 0
32 -50 -710 0
-32 50 -710 0
-32 -50 710 0
449 710 -711 0
449 -710 -711 0
-449 710 -711 0
-449 -710 711 0
449 710 -712 0
449 -710 712 0
-449 710 712 0
-449 -710 -712 0
444 712 -713 0
444 -712 -713 0
-444 712 -713 0
-444 -712 713 0
444 712 -714 0
444 -712 714 0
-444 712 714 0
-444 -712 -714 0
711 713 -715 0
711 -713 715 0
-711 713 715 0
-711 -713 -715 0
33 50 -716 0
33 -50 -716 0
-33 50 -716 0
-33 -50 716 0
455 716 -717 0
455 -716 -717 0
-455 716 -717 0
-455 -716 717 0
455 716 -718 0
455 -716 718 0
-455 716 718 0
-455 -716 -718 0
450 718 -719 0
450 -718 -719 0
-450 718 -719 0
-450 -718 719 0
450 718 -720 0
450 -718 720 0
-450 718 720 0
-450 -718 -720 0
717 719 -721 0
717 -719 721 0
-717 719 721 0
-717 -719 -721 0
34 50 -722 0
34 -50 -722 0
-34 50 -722 0
-34 -50 722 0
461 722 -723 0
461 -722 -723 0
-461 722 -723 0
-461 -722 723 0
461 722 -724 0
461 -722 724 0
-461 722 724 0
-461 -722 -724 0
456 724 -725 0
456 -724 -725 0
-456 724 -725 0
-456 -724 725 0
456 724 -726 0
456 -724 726 0
-456 724 726 0
-456 -724 -726 0
723 725 -727 0
723 -725 727 0
-723 725 727 0
-723 -725 -727 0
35 50 -728 0
35 -50 -728 0
-35 50 -728 0
-35 -50 728 0
467 728 -729 0
467 -728 -729 0
-467 728 -729 0
-467 -728 729 0
467 728 -730 0
467 -728 730 0
-467 728 730 0
-467 -728 -730 0
462 730 -731 0
462 -730 -731 0
-462 730 -731 0
-462 -730 731 0
462 730 -732 0
462 -730 732 0
-462 730 732 0
-462 -730 -732 0
729 731 -733 0
729 -731 733 0
-729 731 733 0
-729 -731 -733 0
36 50 -734 0
36 -50 -734 0
-36 50 -734 0
-36 -50 734 0
473 734 -735 0
473 -734 -735 0
-473 734 -735 0
-473 -734 735 0
473 734 -736 0
473 -734 736 0
-473 734 736 0
-473 -734 -736 0
468 736 -737 0
468 -736 -737 0
-468 736 -737 0
-468 -736 737 0
468 736 -738 0
468 -736 738 0
-468 736 738 0
-468 -736 -738 0
735 737 -739 0
735 -737 739 0
-735 737 739 0
-735 -737 -739 0
37 50 -740 0
37 -50 -740 0
-37 50 -740 0
-37 -50 740 0
479 740 -741 0
479 -740 -741 0
-479 740 -741 0
-479 -740 741 0
479 740 -742 0
479 -740 742 0
-479 740 742 0
-479 -740 -742 0
474 742 -743 0
474 -742 -743 0
-474 742 -743 0
-474 -742 743 0
474 742 -744 0
474 -742 744 0
-474 742 744 0
-474 -742 -744 0
741 743 -745 0
741 -743 745 0
-741 743 745 0
-741 -743 -745 0
38 50 -746 0
38 -50 -746 0
-38 50 -746 0
-38 -50 746 0
485 746 -747 0
485 -746 -747 0
-485 746 -747 0
-485 -746 747 0
485 746 -748 0
485 -746 748 0
-485 746 748 0
-485 -746 -748 0
480 748 -749 0
480 -748 -749 0
-480 748 -749 0
-480 -748 749 0
480 748 -750 0
480 -748 750 0
-480 748 750 0
-480 -748 -750 0
747 749 -751 0
747 -749 751 0
-747 749 751 0
-747 -749 -751 0
39 50 -752 0
39 -50 -752 0
-39 50 -752 0
-39 -50 752 0
491 752 -753 0
491 -752 -753 0
-491 752 -753 0
-491 -752 753 0
491 752 -754 0
491 -752 754 0
-491 752 754 0
-491 -752 -754 0
486 754 -755 0
486 -754 -755 0
-486 754 -755 0
-486 -754 755 0
486 754 -756 0
486 -754 756 0
-486 754 756 0
-486 -754 -756 0
753 755 -757 0
753 -755 757 0
-753 755 757 0
-753 -755 -757 0
40 50 -758 0
40 -50 -758 0
-40 50 -758 0
-40 -50 758 0
497 758 -759 0
497 -758 -759 0
-497 758 -759 0
-497 -758 759 0
497 758 -760 0
497 -758 760 0
-497 758 760 0
-497 -758 -760 0
492 760 -761 0
492 -760 -761 0
-492 760 -761 0
-492 -760 761 0
492 760 -762 0
492 -760 762 0
-492 760 762 0
-492 -760 -762 0
759 761 -763 0
759 -761 763 0
-759 761 763 0
-759 -761 -763 0
41 50 -764 0
41 -50 -764 0
-41 50 -764 0
-41 -50 764 0
503 764 -765 0
503 -764 -765 0
-503 764 -765 0
-503 -764 765 0
503 764 -766 0
503 -764 766 0
-503 764 766 0
-503 -764 -766 0
498 766 -767 0
498 -766 -767 0
-498 766 -767 0
-498 -766 767 0
498 766 -768 0
498 -766 768 0
-498 766 768 0
-498 -766 -768 0
765 767 -769 0
765 -767 769 0
-765 767 769 0
-765 -767 -769 0
42 50 -770 0
42 -50 -770 0
-42 50 -770 0
-42 -50 770 0
509 770 -771 0
509 -770 -771 0
-509 770 -771 0
-509 -770 771 0
509 770 -772 0
509 -770 772 0
-509 770 772 0
-509 -770 -772 0
504 772 -773 0
504 -772 -773 0
-504 772 -773 0
-504 -772 773 0
504 772 -774 0
504 -772 774 0
-504 772 774 0
-504 -772 -774 0
771 773 -775 0
771 -773 775 0
-771 773 775 0
-771 -773 -775 0
43 50 -776 0
43 -50 -776 0
-43 50 -776 0
-43 -50 776 0
515 776 -777 0
515 -776 -777 0
-515 776 -777 0
-515 -776 777 0
515 776 -778 0
515 -776 778 0
-515 776 778 0
-515 -776 -778 0
510 778 -779 0
510 -778 -779 0
-510 778 -779 0
-510 -778 779 0
510 778 -780 0
510 -778 780 0
-510 778 780 0
-510 -778 -780 0
777 779 -781 0
777 -779 781 0
-777 779 781 0
-777 -779 -781 0
44 50 -782 0
44 -50 -782 0
-44 50 -782 0
-44 -50 782 0
521 782 -783 0
521 -782 -783 0
-521 782 -783 0
-521 -782 783 0
521 782 -784 0
521 -782 784 0
-521 782 784 0
-521 -782 -784 0
516 784 -785 0
516 -784 -785 0
-516 784 -785 0
-516 -784 785 0
516 784 -786 0
516 -784 786 0
-516 784 786 0
-516 -784 -786 0
783 785 -787 0
783 -785 787 0
-783 785 787 0
-783 -785 -787 0
45 50 -788 0
45 -50 -788 0
-45 50 -788 0
-45 -50 788 0
523 788 -789 0
523 -788 -789 0
-523 788 -789 0
-523 -788 789 0
523 788 -790 0
523 -788 790 0
-523 788 790 0
-523 -788 -790 0
522 790 -791 0
522 -790 -791 0
-522 790 -791 0
-522 -790 791 0
522 790 -792 0
522 -790 792 0
-522 790 792 0
-522 -790 -792 0
789 791 -793 0
789 -791 793 0
-789 791 793 0
-789 -791 -793 0
46 50 -794 0
46 -50 -794 0
-46 50 -794 0
-46 -50 794 0
1 51 -795 0
1 -51 -795 0
-1 51 -795 0
-1 -51 795 0
534 795 -796 0
534 -795 -796 0
-534 795 -796 0
-534 -795 796 0
534 795 -797 0
534 -795 797 0
-534 795 797 0
-534 -795 -797 0
529 797 -798 0
529 -797 -798 0
-529 797 -798 0
-529 -797 798 0
529 797 -799 0
529 -797 799 0
-529 797 799 0
-529 -797 -799 0
796 798 -800 0
796 -798 800 0
-796 798 800 0
-796 -798 -800 0
2 51 -801 0
2 -51 -801 0
-2 51 -801 0
-2 -51 801 0
540 801 -802 0
540 -801 -802 0
-540 801 -802 0
-540 -801 802 0
540 801 -803 0
540 -801 803 0
-540 801 803 0
-540 -801 -803 0
535 803 -804 0
535 -803 -804 0
-535 803 -804 0
-535 -803 804 0
535 803 -805 0
535 -803 805 0
-535 803 805 0
-535 -803 -805 0
802 804 -806 0
802 -804 806 0
-802 804 806 0
-802 -804 -806 0
3 51 -807 0
3 -51 -807 0
-3 51 -807 0
-3 -51 807 0
546 807 -808 0
546 -807 -808 0
-546 807 -808 0
-546 -807 808 0
546 807 -809 0
546 -807 809 0
-546 807 809 0
-546 -807 -809 0
541 809 -810 0
541 -809 -810 0
-541 809 -810 0
-541 -809 810 0
541 809 -811 0
541 -809 811 0
-541 809 811 0
-541 -809 -811 0
808 810 -812 0
808 -810 812 0
-808 810 812 0
-808 -810 -812 0
4 51 -813 0
4 -51 -813 0
-4 51 -813 0
-4 -51 813 0
552 813 -814 0
552 -813 -814 0
-552 813 -814 0
-552 -813 814 0
552 813 -815 0
552 -813 815 0
-552 813 815 0
-552 -813 -815 0
547 815 -816 0
547 -815 -816 0
-547 815 -816 0
-547 -815 816 0
547 815 -817 0
547 -815 817 0
-547 815 817 0
-547 -815 -817 0
814 816 -818 0
814 -816 818 0
-814 816 818 0
-814 -816 -818 0
5 51 -819 0
5 -51 -819 0
-5 51 -819 0
-5 -51 819 0
558 819 -820 0
558 -819 -820 0
-558 819 -820 0
-558 -819 820 0
558 819 -821 0
558 -819 821 0
-558 819 821 0
-558 -819 -821 0
553 821 -822 0
553 -821 -822 0
-553 821 -822 0
-553 -821 822 0
553 821 -823 0
553 -821 823 0
-553 821 823 0
-553 -821 -823 0
820 822 -824 0
820 -822 824 0
-820 822 824 0
-820 -822 -824 0
6 51 -825 0
6 -51 -825 0
-6 51 -825 0
-6 -51 825 0
564 825 -826 0
564 -825 -826 0
-564 825 -826 0
-564 -825 826 0
564 825 -827 0
564 -825 827 0
-564 825 827 0
-564 -825 -827 0
559 827 -828 0
559 -827 -828 0
-559 827 -828 0
-559 -827 828 0
559 827 -829 0
559 -827 829 0
-559 827 829 0
-559 -827 -829 0
826 828 -830 0
826 -828 830 0
-826 828 830 0
-826 -828 -830 0
7 51 -831 0
7 -51 -831 0
-7 51 -831 0
-7 -51 831 0
570 831 -832 0
570 -831 -832 0
-570 831 -832 0
-570 -831 832 0
570 831 -833 0
570 -831 833 0
-570 831 833 0
-570 -831 -833 0
565 833 -834 0
565 -833 -834 0
-565 833 -834 0
-565 -833 834 0
565 833 -835 0
565 -833 835 0
-565 833 835 0
-565 -833 -835 0
832 834 -836 0
832 -834 836 0
-832 834 836 0
-832 -834 -836 0
8 51 -837 0
8 -51 -837 0
-8 51 -837 0
-8 -51 837 0
576 837 -838 0
576 -837 -838 0
-576 837 -838 0
-576 -837 838 0
576 837 -839 0
576 -837 839 0
-576 837 839 0
-576 -837 -839 0
571 839 -840 0
571 -839 -840 0
-571 839 -840 0
-571 -839 840 0
571 839 -841 0
571 -839 841 0
-571 839 841 0
-571 -839 -841 0
838 840 -842 0
838 -840 842 0
-838 840 842 0
-838 -840 -842 0
9 51 -843 0
9 -51 -843 0
-9 51 -843 0
-9 -51 843 0
582 843 -844 0
582 -843 -844 0
-582 843 -844 0
-582 -843 844 0
582 843 -845 0
582 -843 845 0
-582 843 845 0
-582 -843 -845 0
577 845 -846 0
577 -845 -846 0
-577 845 -846 0
-577 -845 846 0
577 845 -847 0
577 -845 847 0
-577 845 847 0
-577 -845 -847 0
844 846 -848 0
844 -846 848 0
-844 846 848 0
-844 -846 -848 0
10 51 -849 0
10 -51 -849 0
-10 51 -849 0
-10 -51 849 0
588 849 -850 0
588 -849 -850 0
-588 849 -850 0
-588 -849 850 0
588 849 -851 0
588 -849 851 0
-588 849 851 0
-588 -849 -851 0
583 851 -852 0
583 -851 -852 0
-583 851 -852 0
-583 -851 852 0
583 851 -853 0
583 -851 853 0
-583 851 853 0
-583 -851 -853 0
850 852 -854 0
850 -852 854 0
-850 852 854 0
-850 -852 -854 0
11 51 -855 0
11 -51 -855 0
-11 51 -855 0
-11 -51 855 0
594 855 -856 0
594 -855 -856 0
-594 855 -856 0
-594 -855 856 0
594 855 -857 0
594 -855 857 0
-594 855 857 0
-594 -855 -857 0
589 857 -858 0
589 -857 -858 0
-589 857 -858 0
-589 -857 858 0
589 857 -859 0
589 -857 859 0
-589 857 859 0
-589 -857 -859 0
856 858 -860 0
856 -858 860 0
-856 858 860 0
-856 -858 -860 0
12 51 -861 0
12 -51 -861 0
-12 51 -861 0
-12 -51 861 0
600 861 -862 0
600 -861 -862 0
-600 861 -862 0
-600 -861 862 0
600 861 -863 0
600 -861 863 0
-600 861 863 0
-600 -861 -863 0
595 863 -864 0
595 -863 -864 0
-595 863 -864 0
-595 -863 864 0
595 863 -865 0
595 -863 865 0
-595 863 865 0
-595 -863 -865 0
862 864 -866 0
862 -864 866 0
-862 864 866 0
-862 -864 -866 0
13 51 -867 0
13 -51 -867 0
-13 51 -867 0
-13 -51 867 0
606 867 -868 0
606 -867 -868 0
-606 867 -868 0
-606 -867 868 0
606 867 -869 0
606 -867 869 0
-606 867 869 0
-606 -867 -869 0
601 869 -870 0
601 -869 -870 0
-601 869 -870 0
-601 -869 870 0
601 869 -871 0
601 -869 871 0
-601 869 871 0
-601 -869 -871 0
868 870 -872 0
868 -870 872 0
-868 870 872 0
-868 -870 -872 0
14 51 -873 0
14 -51 -873 0
-14 51 -873 0
-14 -51 873 0
612 873 -874 0
612 -873 -874 0
-612 873 -874 0
-612 -873 874 0
612 873 -875 0
612 -873 875 0
-612 873 875 0
-612 -873 -875 0
607 875 -876 0
607 -875 -876 0
-607 875 -876 0
-607 -875 876 0
607 875 -877 0
607 -875 877 0
-607 875 877 0
-607 -875 -877 0
874 876 -878 0
874 -876 878 0
-874 876 878 0
-874 -876 -878 0
15 51 -879 0
15 -51 -879 0
-15 51 -879 0
-15 -51 879 0
618 879 -880 0
618 -879 -880 0
-618 879 -880 0
-618 -879 880 0
618 879 -881 0
618 -879 881 0
-618 879 881 0
-618 -879 -881 0
613 881 -882 0
613 -881 -882 0
-613 881 -882 0
-613 -881 882 0
613 881 -883 0
613 -881 883 0
-613 881 883 0
-613 -881 -883 0
880 882 -884 0
880 -882 884 0
-880 882 884 0
-880 -882 -884 0
16 51 -885 0
16 -51 -885 0
-16 51 -885 0
-16 -51 885 0
624 885 -886 0
624 -885 -886 0
-624 885 -886 0
-624 -885 886 0
624 885 -887 0
624 -885 887 0
-624 885 887 0
-624 -885 -887 0
619 887 -888 0
619 -887 -888 0
-619 887 -888 0
-619 -887 888 0
619 887 -889 0
619 -887 889 0
-619 887 889 0
-619 -887 -889 0
886 888 -890 0
886 -888 890 0
-886 888 890 0
-886 -888 -890 0
17 51 -891 0
17 -51 -891 0
-17 51 -891 0
-17 -51 891 0
630 891 -892 0
630 -891 -892 0
-630 891 -892 0
-630 -891 892 0
630 891 -893 0
630 -891 893 0
-630 891 893 0
-630 -891 -893 0
625 893 -894 0
625 -893 -894 0
-625 893 -894 0
-625 -893 894 0
625 893 -895 0
625 -893 895 0
-625 893 895 0
-625 -893 -895 0
892 894 -896 0
892 -894 896 0
-892 894 896 0
-892 -894 -896 0
18 51 -897 0
18 -51 -897 0
-18 51 -897 0
-18 -51 897 0
636 897 -898 0
636 -897 -898 0
-636 897 -898 0
-636 -897 898 0
636 897 -899 0
636 -897 899 0
-636 897 899 0
-636 -897 -899 0
631 899 -900 0
631 -899 -900 0
-631 899 -900 0
-631 -899 900 0
631 899 -901 0
631 -899 901 0
-631 899 901 0
-631 -899 -901 0
898 900 -902 0
898 -900 902 0
-898 900 902 0
-898 -900 -902 0
19 51 -903 0
19 -51 -903 0
-19 51 -903 0
-19 -51 903 0
642 903 -904 0
642 -903 -904 0
-642 903 -904 0
-642 -903 904 0
642 903 -905 0
642 -903 905 0
-642 903 905 0
-642 -903 -905 0
637 905 -906 0
637 -905 -906 0
-637 905 -906 0
-637 -905 906 0
637 905 -907 0
637 -905 907 0
-637 905 907 0
-637 -905 -907 0
904 906 -908 0
904 -906 908 0
-904 906 908 0
-904 -906 -908 0
20 51 -909 0
20 -51 -909 0
-20 51 -909 0
-20 -51 909 0
648 909 -910 0
648 -909 -910 0
-648 909 -910 0
-648 -909 910 0
648 909 -911 0
648 -909 911 0
-648 909 911 0
-648 -909 -911 0
643 911 -912 0
643 -911 -912 0
-643 911 -912 0
-643 -911 912 0
643 911 -913 0
643 -911 913 0
-643 911 913 0
-643 -911 -913 0
910 912 -914 0
910 -912 914 0
-910 912 914 0
-910 -912 -914 0
21 51 -915 0
21 -51 -915 0
-21 51 -915 0
-21 -51 915 0
654 915 -916 0
654 -915 -916 0
-654 915 -916 0
-654 -915 916 0
654 915 -917 0
654 -915 917 0
-654 915 917 0
-654 -915 -917 0
649 917 -918 0
649 -917 -918 0
-649 917 -918 0
-649 -917 918 0
649 917 -919 0
649 -917 919 0
-649 917 919 0
-649 -917 -919 0
916 918 -920 0
916 -918 920 0
-916 918 920 0
-916 -918 -920 0
22 51 -921 0
22 -51 -921 0
-22 51 -921 0
-22 -51 921 0
660 921 -922 0
660 -921 -922 0
-660 921 -922 0
-660 -921 922 0
660 921 -923 0
660 -921 923 0
-660 921 923 0
-660 -921 -923 0
655 923 -924 0
655 -923 -924 0
-655 923 -924 0
-655 -923 924 0
655 923 -925 0
655 -923 925 0
-655 923 925 0
-655 -923 -925 0
922 924 -926 0
922 -924 926 0
-922 924 926 0
-922 -924 -926 0
23 51 -927 0
23 -51 -927 0
-23 51 -927 0
-23 -51 927 0
666 927 -928 0
666 -927 -928 0
-666 927 -928 0
-666 -927 928 0
666 927 -929 0
666 -927 929 0
-666 927 929 0
-666 -927 -929 0
661 929 -930 0
661 -929 -930 0
-661 929 -930 0
-661 -929 930 0
661 929 -931 0
661 -929 931 0
-661 929 931 0
-661 -929 -931 0
928 930 -932 0
928 -930 932 0
-928 930 932 0
-928 -930 -932 0
24 51 -933 0
24 -51 -933 0
-24 51 -933 0
-24 -51 933 0
672 933 -934 0
672 -933 -934 0
-672 933 -934 0
-672 -933 934 0
672 933 -935 0
672 -933 935 0
-672 933 935 0
-672 -933 -935 0
667 935 -936 0
667 -935 -936 0
-667 935 -936 0
-667 -935 936 0
667 935 -937 0
667 -935 937 0
-667 935 937 0
-667 -935 -937 0
934 936 -938 0
934 -936 938 0
-934 936 938 0
-934 -936 -938 0
25 51 -939 0
25 -51 -939 0
-25 51 -939 0
-25 -51 939 0
678 939 -940 0
678 -939 -940 0
-678 939 -940 0
-678 -939 940 0
678 939 -941 0
678 -939 941 0
-678 939 941 0
-678 -939 -941 0
673 941 -942 0
673 -941 -942 0
-673 941 -942 0
-673 -941 942 0
673 941 -943 0
673 -941 943 0
-673 941 943 0
-673 -941 -943 0
940 942 -944 0
940 -942 944 0
-940 942 944 0
-940 -942 -944 0
26 51 -945 0
26 -51 -945 0
-26 51 -945 0
-26 -51 945 0
684 945 -946 0
684 -945 -946 0
-684 945 -946 0
-684 -945 946 0
684 945 -947 0
684 -945 947 0
-684 945 947 0
-684 -945 -947 0
679 947 -948 0
679 -947 -948 0
-679 947 -948 0
-679 -947 948 0
679 947 -949 0
679 -947 949 0
-679 947 949 0
-679 -947 -949 0
946 948 -950 0
946 -948 950 0
-946 948 950 0
-946 -948 -950 0
27 51 -951 0
27 -51 -951 0
-27 51 -951 0
-27 -51 951 0
690 951 -952 0
690 -951 -952 0
-690 951 -952 0
-690 -951 952 0
690 951 -953 0
690 -951 953 0
-690 951 953 0
-690 -951 -953 0
685 953 -954 0
685 -953 -954 0
-685 953 -954 0
-685 -953 954 0
685 953 -955 0
685 -953 955 0
-685 953 955 0
-685 -953 -955 0
952 954 -956 0
952 -954 956 0
-952 954 956 0
-952 -954 -956 0
28 51 -957 0
28 -51 -957 0
-28 51 -957 0
-28 -51 957 0
696 957 -958 0
696 -957 -958 0
-696 957 -958 0
-696 -957 958 0
696 957 -959 0
696 -957 959 0
-696 957 959 0
-696 -957 -959 0
691 959 -960 0
691 -959 -960 0
-691 959 -960 0
-691 -959 960 0
691 959 -961 0
691 -959 961 0
-691 959 961 0
-691 -959 -961 0
958 960 -962 0
958 -960 962 0
-958 960 962 0
-958 -960 -962 0
29 51 -963 0
29 -51 -963 0
-29 51 -963 0
-29 -51 963 0
702 963 -964 0
702 -963 -964 0
-702 963 -964 0
-702 -963 964 0
702 963 -965 0
702 -963 965 0
-702 963 965 0
-702 -963 -965 0
697 965 -966 0
697 -965 -966 0
-697 965 -966 0
-697 -965 966 0
697 965 -967 0
697 -965 967 0
-697 965 967 0
-697 -965 -967 0
964 966 -968 0
964 -966 968 0
-964 966 968 0
-964 -966 -968 0
30 51 -969 0
30 -51 -969 0
-30 51 -969 0
-30 -51 969 0
708 969 -970 0
708 -969 -970 0
-708 969 -970 0
-708 -969 970 0
708 969 -971 0
708 -969 971 0
-708 969 971 0
-708 -969 -971 0
703 971 -972 0
703 -971 -972 0
-703 971 -972 0
-703 -971 972 0
703 971 -973 0
703 -971 973 0
-703 971 973 0
-703 -971 -973 0
970 972 -974 0
970 -972 974 0
-970 972 974 0
-970 -972 -974 0
31 51 -975 0
31 -51 -975 0
-31 51 -975 0
-31 -51 975 0
714 975 -976 0
714 -975 -976 0
-714 975 -976 0
-714 -975 976 0
714 975 -977 0
714 -975 977 0
-714 975 977 0
-714 -975 -977 0
709 977 -978 0
709 -977 -978 0
-709 977 -978 0
-709 -977 978 0
709 977 -979 0
709 -977 979 0
-709 977 979 0
-709 -977 -979 0
976 978 -980 0
976 -978 980 0
-976 978 980 0
-976 -978 -980 0
32 51 -981 0
32 -51 -981 0
-32 51 -981 0
-32 -51 981 0
720 981 -982 0
720 -981 -982 0
-720 981 -982 0
-720 -981 982 0
720 981 -983 0
720 -981 983 0
-720 981 983 0
-720 -981 -983 0
715 983 -984 0
715 -983 -984 0
-715 983 -984 0
-715 -983 984 0
715 983 -985 0
715 -983 985 0
-715 983 985 0
-715 -983 -985 0
982 984 -986 0
982 -984 986 0
-982 984 986 0
-982 -984 -986 0
33 51 -987 0
33 -51 -987 0
-33 51 -987 0
-33 -51 987 0
726 987 -988 0
726 -987 -988 0
-726 987 -988 0
-726 -987 988 0
726 987 -989 0
726 -987 989 0
-726 987 989 0
-726 -987 -989 0
721 989 -990 0
721 -989 -990 0
-721 989 -990 0
-721 -989 990 0
721 989 -991 0
721 -989 991 0
-721 989 991 0
-721 -989 -991 0
988 990 -992 0
988 -990 992 0
-988 990 992 0
-988 -990 -992 0
34 51 -993 0
34 -51 -993 0
-34 51 -993 0
-34 -51 993 0
732 993 -994 0
732 -993 -994 0
-732 993 -994 0
-732 -993 994 0
732 993 -995 0
732 -993 995 0
-732 993 995 0
-732 -993 -995 0
727 995 -996 0
727 -995 -996 0
-727 995 -996 0
-727 -995 996 0
727 995 -997 0
727 -995 997 0
-727 995 997 0
-727 -995 -997 0
994 996 -998 0
994 -996 998 0
-994 996 998 0
-994 -996 -998 0
35 51 -999 0
35 -51 -999 0
-35 51 -999 0
-35 -51 999 0
738 999 -1000 0
738 -999 -1000 0
-738 999 -1000 0
-738 -999 1000 0
738 999 -1001 0
738 -999 1001 0
-738 999 1001 0
-738 -999 -1001 0
733 1001 -1002 0
733 -1001 -1002 0
-733 1001 -1002 0
-733 -1001 1002 0
733 1001 -1003 0
733 -1001 1003 0
-733 1001 1003 0
-733 -1001 -1003 0
1000 1002 -1004 0
1000 -1002 1004 0
-1000 1002 1004 0
-1000 -1002 -1004 0
36 51 -1005 0
36 -51 -1005 0
-36 51 -1005 0
-36 -51 1005 0
744 1005 -1006 0
744 -1005 -1006 0
-744 1005 -1006 0
-744 -1005 1006 0
744 1005 -1007 0
744 -1005 1007 0
-744 1005 1007 0
-744 -1005 -1007 0
739 1007 -1008 0
739 -1007 -1008 0
-739 1007 -1008 0
-739 -1007 1008 0
739 1007 -1009 0
739 -1007 1009 0
-739 1007 1009 0
-739 -1007 -1009 0
1006 1008 -1010 0
1006 -1008 1010 0
-1006 1008 1010 0
-1006 -1008 -1010 0
37 51 -1011 0
37 -51 -1011 0
-37 51 -1011 0
-37 -51 1011 0
750 1011 -1012 0
750 -1011 -1012 0
-750 1011 -1012 0
-750 -1011 1012 0
750 1011 -1013 0
750 -1011 1013 0
-750 1011 1013 0
-750 -1011 -1013 0
745 1013 -1014 0
745 -1013 -1014 0
-745 1013 -1014 0
-745 -1013 1014 0
745 1013 -1015 0
745 -1013 1015 0
-745 1013 1015 0
-745 -1013 -1015 0
1012 1014 -1016 0
1012 -1014 1016 0
-1012 1014 1016 0
-1012 -1014 -1016 0
38 51 -1017 0
38 -51 -1017 0
-38 51 -1017 0
-38 -51 1017 0
756 1017 -1018 0
756 -1017 -1018 0
-756 1017 -1018 0
-756 -1017 1018 0
756 1017 -1019 0
756 -1017 1019 0
-756 1017 1019 0
-756 -1017 -1019 0
751 1019 -1020 0
751 -1019 -1020 0
-751 1019 -1020 0
-751 -1019 1020 0
751 1019 -1021 0
751 -1019 1021 0
-751 1019 1021 0
-751 -1019 -1021 0
1018 1020 -1022 0
1018 -1020 1022 0
-1018 1020 1022 0
-1018 -1020 -1022 0
39 51 -1023 0
39 -51 -1023 0
-39 51 -1023 0
-39 -51 1023 0
762 1023 -1024 0
762 -1023 -1024 0
-762 1023 -1024 0
-762 -1023 1024 0
762 1023 -1025 0
762 -1023 1025 0
-762 1023 1025 0
-762 -1023 -1025 0
757 1025 -1026 0
757 -1025 -1026 0
-757 1025 -1026 0
-757 -1025 1026 0
757 1025 -1027 0
757 -1025 1027 0
-757 1025 1027 0
-757 -1025 -1027 0
1024 1026 -1028 0
1024 -1026 1028 0
-1024 1026 1028 0
-1024 -1026 -1028 0
40 51 -1029 0
40 -51 -1029 0
-40 51 -1029 0
-40 -51 1029 0
768 1029 -1030 0
768 -1029 -1030 0
-768 1029 -1030 0
-768 -1029 1030 0
768 1029 -1031 0
768 -1029 1031 0
-768 1029 1031 0
-768 -1029 -1031 0
763 1031 -1032 0
763 -1031 -1032 0
-763 1031 -1032 0
-763 -1031 1032 0
763 1031 -1033 0
763 -1031 1033 0
-763 1031 1033 0
-763 -1031 -1033 0
1030 1032 -1034 0
1030 -1032 1034 0
-1030 1032 1034 0
-1030 -1032 -1034 0
41 51 -1035 0
41 -51 -1035 0
-41 51 -1035 0
-41 -51 1035 0
774 1035 -1036 0
774 -1035 -1036 0
-774 1035 -1036 0
-774 -1035 1036 0
774 1035 -1037 0
774 -1035 1037 0
-774 1035 1037 0
-774 -1035 -1037 0
769 1037 -1038 0
769 -1037 -1038 0
-769 1037 -1038 0
-769 -1037 1038 0
769 1037 -1039 0
769 -1037 1039 0
-769 1037 1039 0
-769 -1037 -1039 0
1036 1038 -1040 0
1036 -1038 1040 0
-1036 1038 1040 0
-1036 -1038 -1040 0
42 51 -1041 0
42 -51 -1041 0
-42 51 -1041 0
-42 -51 1041 0
780 1041 -1042 0
780 -1041 -1042 0
-780 1041 -1042 0
-780 -1041 1042 0
780 1041 -1043 0
780 -1041 1043 0
-780 1041 1043 0
-780 -1041 -1043 0
775 1043 -1044 0
775 -1043 -1044 0
-775 1043 -1044 0
-775 -1043 1044 0
775 1043 -1045 0
775 -1043 1045 0
-775 1043 1045 0
-775 -1043 -1045 0
1042 1044 -1046 0
1042 -1044 1046 0
-1042 1044 1046 0
-1042 -1044 -1046 0
43 51 -1047 0
43 -51 -1047 0
-43 51 -1047 0
-43 -51 1047 0
786 1047 -1048 0
786 -1047 -1048 0
-786 1047 -1048 0
-786 -1047 1048 0
786 1047 -1049 0
786 -1047 1049 0
-786 1047 1049 0
-786 -1047 -1049 0
781 1049 -1050 0
781 -1049 -1050 0
-781 1049 -1050 0
-781 -1049 1050 0
781 1049 -1051 0
781 -1049 1051 0
-781 1049 1051 0
-781 -1049 -1051 0
1048 1050 -1052 0
1048 -1050 1052 0
-1048 1050 1052 0
-1048 -1050 -1052 0
44 51 -1053 0
44 -51 -1053 0
-44 51 -1053 0
-44 -51 1053 0
792 1053 -1054 0
792 -1053 -1054 0
-792 1053 -1054 0
-792 -1053 1054 0
792 1053 -1055 0
792 -1053 1055 0
-792 1053 1055 0
-792 -1053 -1055 0
787 1055 -1056 0
787 -1055 -1056 0
-787 1055 -1056 0
-787 -1055 1056 0
787 1055 -1057 0
787 -1055 1057 0
-787 1055 1057 0
-787 -1055 -1057 0
1054 1056 -1058 0
1054 -1056 1058 0
-1054 1056 1058 0
-1054 -1056 -1058 0
45 51 -1059 0
45 -51 -1059 0
-45 51 -1059 0
-45 -51 1059 0
794 1059 -1060 0
794 -1059 -1060 0
-794 1059 -1060 0
-794 -1059 1060 0
794 1059 -1061 0
794 -1059 1061 0
-794 1059 1061 0
-794 -1059 -1061 0
793 1061 -1062 0
793 -1061 -1062 0
-793 1061 -1062 0
-793 -1061 1062 0
793 1061 -1063 0
793 -1061 1063 0
-793 1061 1063 0
-793 -1061 -1063 0
1060 1062 -1064 0
1060 -1062 1064 0
-1060 1062 1064 0
-1060 -1062 -1064 0
46 51 -1065 0
46 -51 -1065 0
-46 51 -1065 0
-46 -51 1065 0
1 52 -1066 0
1 -52 -1066 0
-1 52 -1066 0
-1 -52 1066 0
805 1066 -1067 0
805 -1066 -1067 0
-805 1066 -1067 0
-805 -1066 1067 0
805 1066 -1068 0
805 -1066 1068 0
-805 1066 1068 0
-805 -1066 -1068 0
800 1068 -1069 0
800 -1068 -1069 0
-800 1068 -1069 0
-800 -1068 1069 0
800 1068 -1070 0
800 -1068 1070 0
-800 1068 1070 0
-800 -1068 -1070 0
1067 1069 -1071 0
1067 -1069 1071 0
-1067 1069 1071 0
-1067 -1069 -1071 0
2 52 -1072 0
2 -52 -1072 0
-2 52 -1072 0
-2 -52 1072 0
811 1072 -1073 0
811 -1072 -1073 0
-811 1072 -1073 0
-811 -1072 1073 0
811 1072 -1074 0
811 -1072 1074 0
-811 1072 1074 0
-811 -1072 -1074 0
806 1074 -1075 0
806 -1074 -1075 0
-806 1074 -1075 0
-806 -1074 1075 0
806 1074 -1076 0
806 -1074 1076 0
-806 1074 1076 0
-806 -1074 -1076 0
1073 1075 -1077 0
1073 -1075 1077 0
-1073 1075 1077 0
-1073 -1075 -1077 0
3 52 -1078 0
3 -52 -1078 0
-3 52 -1078 0
-3 -52 1078 0
817 1078 -1079 0
817 -1078 -1079 0
-817 1078 -1079 0
-817 -1078 1079 0
817 1078 -1080 0
817 -1078 1080 0
-817 1078 1080 0
-817 -1078 -1080 0
812 1080 -1081 0
812 -1080 -1081 0
-812 1080 -1081 0
-812 -1080 1081 0
812 1080 -1082 0
812 -1080 1082 0
-812 1080 1082 0
-812 -1080 -1082 0
1079 1081 -1083 0
1079 -1081 1083 0
-1079 1081 1083 0
-1079 -1081 -1083 0
4 52 -1084 0
4 -52 -1084 0
-4 52 -1084 0
-4 -52 1084 0
823 1084 -1085 0
823 -1084 -1085 0
-823 1084 -1085 0
-823 -1084 1085 0
823 1084 -1086 0
823 -1084 1086 0
-823 1084 1086 0
-823 -1084 -1086 0
818 1086 -1087 0
818 -1086 -1087 0
-818 1086 -1087 0
-818 -1086 1087 0
818 1086 -1088 0
818 -1086 1088 0
-818 1086 1088 0
-818 -1086 -1088 0
1085 1087 -1089 0
1085 -1087 1089 0
-1085 1087 1089 0
-1085 -1087 -1089 0
5 52 -1090 0
5 -52 -1090 0
-5 52 -1090 0
-5 -52 1090 0
829 1090 -1091 0
829 -1090 -1091 0
-829 1090 -1091 0
-829 -1090 1091 0
829 1090 -1092 0
829 -1090 1092 0
-829 1090 1092 0
-829 -1090 -1092 0
824 1092 -1093 0
824 -1092 -1093 0
-824 1092 -1093 0
-824 -1092 1093 0
824 1092 -1094 0
824 -1092 1094 0
-824 1092 1094 0
-824 -1092 -1094 0
1091 1093 -1095 0
1091 -1093 1095 0
-1091 1093 1095 0
-1091 -1093 -1095 0
6 52 -1096 0
6 -52 -1096 0
-6 52 -1096 0
-6 -52 1096 0
835 1096 -1097 0
835 -1096 -1097 0
-835 1096 -1097 0
-835 -1096 1097 0
835 1096 -1098 0
835 -1096 1098 0
-835 1096 1098 0
-835 -1096 -1098 0
830 1098 -1099 0
830 -1098 -1099 0
-830 1098 -1099 0
-830 -1098 1099 0
830 1098 -1100 0
830 -1098 1100 0
-830 1098 1100 0
-830 -1098 -1100 0
1097 1099 -1101 0
1097 -1099 1101 0
-1097 1099 1101 0
-1097 -1099 -1101 0
7 52 -1102 0
7 -52 -1102 0
-7 52 -1102 0
-7 -52 1102 0
841 1102 -1103 0
841 -1102 -1103 0
-841 1102 -1103 0
-841 -1102 1103 0
841 1102 -1104 0
841 -1102 1104 0
-841 1102 1104 0
-841 -1102 -1104 0
836 1104 -1105 0
836 -1104 -1105 0
-836 1104 -1105 0
-836 -1104 1105 0
836 1104 -1106 0
836 -1104 1106 0
-836 1104 1106 0
-836 -1104 -1106 0
1103 1105 -1107 0
1103 -1105 1107 0
-1103 1105 1107 0
-1103 -1105 -1107 0
8 52 -1108 0
8 -52 -1108 0
-8 52 -1108 0
-8 -52 1108 0
847 1108 -1109 0
847 -1108 -1109 0
-847 1108 -1109 0
-847 -1108 1109 0
847 1108 -1110 0
847 -1108 1110 0
-847 1108 1110 0
-847 -1108 -1110 0
842 1110 -1111 0
842 -1110 -1111 0
-842 1110 -1111 0
-842 -1110 1111 0
842 1110 -1112 0
842 -1110 1112 0
-842 1110 1112 0
-842 -1110 -1112 0
1109 1111 -1113 0
1109 -1111 1113 0
-1109 1111 1113 0
-1109 -1111 -1113 0
9 52 -1114 0
9 -52 -1114 0
-9 52 -1114 0
-9 -52 1114 0
853 1114 -1115 0
853 -1114 -1115 0
-853 1114 -1115 0
-853 -1114 1115 0
853 1114 -1116 0
853 -1114 1116 0
-853 1114 1116 0
-853 -1114 -1116 0
848 1116 -1117 0
848 -1116 -1117 0
-848 1116 -1117 0
-848 -1116 1117 0
848 1116 -1118 0
848 -1116 1118 0
-848 1116 1118 0
-848 -1116 -1118 0
1115 1117 -1119 0
1115 -1117 1119 0
-1115 1117 1119 0
-1115 -1117 -1119 0
10 52 -1120 0
10 -52 -1120 0
-10 52 -1120 0
-10 -52 1120 0
859 1120 -1121 0
859 -1120 -1121 0
-859 1120 -1121 0
-859 -1120 1121 0
859 1120 -1122 0
859 -1120 1122 0
-859 1120 1122 0
-859 -1120 -1122 0
854 1122 -1123 0
854 -1122 -1123 0
-854 1122 -1123 0
-854 -1122 1123 0
854 1122 -1124 0
854 -1122 1124 0
-854 1122 1124 0
-854 -1122 -1124 0
1121 1123 -1125 0
1121 -1123 1125 0
-1121 1123 1125 0
-1121 -1123 -1125 0
11 52 -1126 0
11 -52 -1126 0
-11 52 -1126 0
-11 -52 1126 0
865 1126 -1127 0
865 -1126 -1127 0
-865 1126 -1127 0
-865 -1126 1127 0
865 1126 -1128 0
865 -1126 1128 0
-865 1126 1128 0
-865 -1126 -1128 0
860 1128 -1129 0
860 -1128 -1129 0
-860 1128 -1129 0
-860 -1128 1129 0
860 1128 -1130 0
860 -1128 1130 0
-860 1128 1130 0
-860 -1128 -1130 0
1127 1129 -1131 0
1127 -1129 1131 0
-1127 1129 1131 0
-1127 -1129 -1131 0
12 52 -1132 0
12 -52 -1132 0
-12 52 -1132 0
-12 -52 1132 0
871 1132 -1133 0
871 -1132 -1133 0
-871 1132 -1133 0
-871 -1132 1133 0
871 1132 -1134 0
871 -1132 1134 0
-871 1132 1134 0
-871 -1132 -1134 0
866 1134 -1135 0
866 -1134 -1135 0
-866 1134 -1135 0
-866 -1134 1135 0
866 1134 -1136 0
866 -1134 1136 0
-866 1134 1136 0
-866 -1134 -1136 0
1133 1135 -1137 0
1133 -1135 1137 0
-1133 1135 1137 0
-1133 -1135 -1137 0
13 52 -1138 0
13 -52 -1138 0
-13 52 -1138 0
-13 -52 1138 0
877 1138 -1139 0
877 -1138 -1139 0
-877 1138 -1139 0
-877 -1138 1139 0
877 1138 -1140 0
877 -1138 1140 0
-877 1138 1140 0
-877 -1138 -1140 0
872 1140 -1141 0
872 -1140 -1141 0
-872 1140 -1141 0
-872 -1140 1141 0
872 1140 -1142 0
872 -1140 1142 0
-872 1140 1142 0
-872 -1140 -1142 0
1139 1141 -1143 0
1139 -1141 1143 0
-1139 1141 1143 0
-1139 -1141 -1143 0
14 52 -1144 0
14 -52 -1144 0
-14 52 -1144 0
-14 -52 1144 0
883 1144 -1145 0
883 -1144 -1145 0
-883 1144 -1145 0
-883 -1144 1145 0
883 1144 -1146 0
883 -1144 1146 0
-883 1144 1146 0
-883 -1144 -1146 0
878 1146 -1147 0
878 -1146 -1147 0
-878 1146 -1147 0
-878 -1146 1147 0
878 1146 -1148 0
878 -1146 1148 0
-878 1146 1148 0
-878 -1146 -1148 0
1145 1147 -1149 0
1145 -1147 1149 0
-1145 1147 1149 0
-1145 -1147 -1149 0
15 52 -1150 0
15 -52 -1150 0
-15 52 -1150 0
-15 -52 1150 0
889 1150 -1151 0
889 -1150 -1151 0
-889 1150 -1151 0
-889 -1150 1151 0
889 1150 -1152 0
889 -1150 1152 0
-889 1150 1152 0
-889 -1150 -1152 0
884 1152 -1153 0
884 -1152 -1153 0
-884 1152 -1153 0
-884 -1152 1153 0
884 1152 -1154 0
884 -1152 1154 0
-884 1152 1154 0
-884 -1152 -1154 0
1151 1153 -1155 0
1151 -1153 1155 0
-1151 1153 1155 0
-1151 -1153 -1155 0
16 52 -1156 0
16 -52 -1156 0
-16 52 -1156 0
-16 -52 1156 0
895 1156 -1157 0
895 -1156 -1157 0
-895 1156 -1157 0
-895 -1156 1157 0
895 1156 -1158 0
895 -1156 1158 0
-895 1156 1158 0
-895 -1156 -1158 0
890 1158 -1159 0
890 -1158 -1159 0
-890 1158 -1159 0
-890 -1158 1159 0
890 1158 -1160 0
890 -1158 1160 0
-890 1158 1160 0
-890 -1158 -1160 0
1157 1159 -1161 0
1157 -1159 1161 0
-1157 1159 1161 0
-1157 -1159 -1161 0
17 52 -1162 0
17 -52 -1162 0
-17 52 -1162 0
-17 -52 1162 0
901 1162 -1163 0
901 -1162 -1163 0
-901 1162 -1163 0
-901 -1162 1163 0
901 1162 -1164 0
901 -1162 1164 0
-901 1162 1164 0
-901 -1162 -1164 0
896 1164 -1165 0
896 -1164 -1165 0
-896 1164 -1165 0
-896 -1164 1165 0
896 1164 -1166 0
896 -1164 1166 0
-896 1164 1166 0
-896 -1164 -1166 0
1163 1165 -1167 0
1163 -1165 1167 0
-1163 1165 1167 0
-1163 -1165 -1167 0
18 52 -1168 0
18 -52 -1168 0
-18 52 -1168 0
-18 -52 1168 0
907 1168 -1169 0
907 -1168 -1169 0
-907 1168 -1169 0
-907 -1168 1169 0
907 1168 -1170 0
907 -1168 1170 0
-907 1168 1170 0
-907 -1168 -1170 0
902 1170 -1171 0
902 -1170 -1171 0
-902 1170 -1171 0
-902 -1170 1171 0
902 1170 -1172 0
902 -1170 1172 0
-902 1170 1172 0
-902 -1170 -1172 0
1169 1171 -1173 0
1169 -1171 1173 0
-1169 1171 1173 0
-1169 -1171 -1173 0
19 52 -1174 0
19 -52 -1174 0
-19 52 -1174 0
-19 -52 1174 0
913 1174 -1175 0
913 -1174 -1175 0
-913 1174 -1175 0
-913 -1174 1175 0
913 1174 -1176 0
913 -1174 1176 0
-913 1174 1176 0
-913 -1174 -1176 0
908 1176 -1177 0
908 -1176 -1177 0
-908 1176 -1177 0
-908 -1176 1177 0
908 1176 -1178 0
908 -1176 1178 0
-908 1176 1178 0
-908 -1176 -1178 0
1175 1177 -1179 0
1175 -1177 1179 0
-1175 1177 1179 0
-1175 -1177 -1179 0
20 52 -1180 0
20 -52 -1180 0
-20 52 -1180 0
-20 -52 1180 0
919 1180 -1181 0
919 -1180 -1181 0
-919 1180 -1181 0
-919 -1180 1181 0
919 1180 -1182 0
919 -1180 1182 0
-919 1180 1182 0
-919 -1180 -1182 0
914 1182 -1183 0
914 -1182 -1183 0
-914 1182 -1183 0
-914 -1182 1183 0
914 1182 -1184 0
914 -1182 1184 0
-914 1182 1184 0
-914 -1182 -1184 0
1181 1183 -1185 0
1181 -1183 1185 0
-1181 1183 1185 0
-1181 -1183 -1185 0
21 52 -1186 0
21 -52 -1186 0
-21 52 -1186 0
-21 -52 1186 0
925 1186 -1187 0
925 -1186 -1187 0
-925 1186 -1187 0
-925 -1186 1187 0
925 1186 -1188 0
925 -1186 1188 0
-925 1186 1188 0
-925 -1186 -1188 0
920 1188 -1189 0
920 -1188 -1189 0
-920 1188 -1189 0
-920 -1188 1189 0
920 1188 -1190 0
920 -1188 1190 0
-920 1188 1190 0
-920 -1188 -1190 0
1187 1189 -1191 0
1187 -1189 1191 0
-1187 1189 1191 0
-1187 -1189 -1191 0
22 52 -1192 0
22 -52 -1192 0
-22 52 -1192 0
-22 -52 1192 0
931 1192 -1193 0
931 -1192 -1193 0
-931 1192 -1193 0
-931 -1192 1193 0
931 1192 -1194 0
931 -1192 1194 0
-931 1192 1194 0
-931 -1192 -1194 0
926 1194 -1195 0
926 -1194 -1195 0
-926 1194 -1195 0
-926 -1194 1195 0
926 1194 -1196 0
926 -1194 1196 0
-926 1194 1196 0
-926 -1194 -1196 0
1193 1195 -1197 0
1193 -1195 1197 0
-1193 1195 1197 0
-1193 -1195 -1197 0
23 52 -1198 0
23 -52 -1198 0
-23 52 -1198 0
-23 -52 1198 0
937 1198 -1199 0
937 -1198 -1199 0
-937 1198 -1199 0
-937 -1198 1199 0
937 1198 -1200 0
937 -1198 1200 0
-937 1198 1200 0
-937 -1198 -1200 0
932 1200 -1201 0
932 -1200 -1201 0
-932 1200 -1201 0
-932 -1200 1201 0
932 1200 -1202 0
932 -1200 1202 0
-932 1200 1202 0
-932 -1200 -1202 0
1199 1201 -1203 0
1199 -1201 1203 0
-1199 1201 1203 0
-1199 -1201 -1203 0
24 52 -1204 0
24 -52 -1204 0
-24 52 -1204 0
-24 -52 1204 0
943 1204 -1205 0
943 -1204 -1205 0
-943 1204 -1205 0
-943 -1204 1205 0
943 1204 -1206 0
943 -1204 1206 0
-943 1204 1206 0
-943 -1204 -1206 0
938 1206 -1207 0
938 -1206 -1207 0
-938 1206 -1207 0
-938 -1206 1207 0
938 1206 -1208 0
938 -1206 1208 0
-938 1206 1208 0
-938 -1206 -1208 0
1205 1207 -1209 0
1205 -1207 1209 0
-1205 1207 1209 0
-1205 -1207 -1209 0
25 52 -1210 0
25 -52 -1210 0
-25 52 -1210 0
-25 -52 1210 0
949 1210 -1211 0
949 -1210 -1211 0
-949 1210 -1211 0
-949 -1210 1211 0
949 1210 -1212 0
949 -1210 1212 0
-949 1210 1212 0
-949 -1210 -1212 0
944 1212 -1213 0
944 -1212 -1213 0
-944 1212 -1213 0
-944 -1212 1213 0
944 1212 -1214 0
944 -1212 1214 0
-944 1212 1214 0
-944 -1212 -1214 0
1211 1213 -1215 0
1211 -1213 1215 0
-1211 1213 1215 0
-1211 -1213 -1215 0
26 52 -1216 0
26 -52 -1216 0
-26 52 -1216 0
-26 -52 1216 0
955 1216 -1217 0
955 -1216 -1217 0
-955 1216 -1217 0
-955 -1216 1217 0
955 1216 -1218 0
955 -1216 1218 0
-955 1216 1218 0
-955 -1216 -1218 0
950 1218 -1219 0
950 -1218 -1219 0
-950 1218 -1219 0
-950 -1218 1219 0
950 1218 -1220 0
950 -1218 1220 0
-950 1218 1220 0
-950 -1218 -1220 0
1217 1219 -1221 0
1217 -1219 1221 0
-1217 1219 1221 0
-1217 -1219 -1221 0
27 52 -1222 0
27 -52 -1222 0
-27 52 -1222 0
-27 -52 1222 0
961 1222 -1223 0
961 -1222 -1223 0
-961 1222 -1223 0
-961 -1222 1223 0
961 1222 -1224 0
961 -1222 1224 0
-961 1222 1224 0
-961 -1222 -1224 0
956 1224 -1225 0
956 -1224 -1225 0
-956 1224 -1225 0
-956 -1224 1225 0
956 1224 -1226 0
956 -1224 1226 0
-956 1224 1226 0
-956 -1224 -1226 0
1223 1225 -1227 0
1223 -1225 1227 0
-1223 1225 1227 0
-1223 -1225 -1227 0
28 52 -1228 0
28 -52 -1228 0
-28 52 -1228 0
-28 -52 1228 0
967 1228 -1229 0
967 -1228 -1229 0
-967 1228 -1229 0
-967 -1228 1229 0
967 1228 -1230 0
967 -1228 1230 0
-967 1228 1230 0
-967 -1228 -1230 0
962 1230 -1231 0
962 -1230 -1231 0
-962 1230 -1231 0
-962 -1230 1231 0
962 1230 -1232 0
962 -1230 1232 0
-962 1230 1232 0
-962 -1230 -1232 0
1229 1231 -1233 0
1229 -1231 1233 0
-1229 1231 1233 0
-1229 -1231 -1233 0
29 52 -1234 0
29 -52 -1234 0
-29 52 -1234 0
-29 -52 1234 0
973 1234 -1235 0
973 -1234 -1235 0
-973 1234 -1235 0
-973 -1234 1235 0
973 1234 -1236 0
973 -1234 1236 0
-973 1234 1236 0
-973 -1234 -1236 0
968 1236 -1237 0
968 -1236 -1237 0
-968 1236 -1237 0
-968 -1236 1237 0
968 1236 -1238 0
968 -1236 1238 0
-968 1236 1238 0
-968 -1236 -1238 0
1235 1237 -1239 0
1235 -1237 1239 0
-1235 1237 1239 0
-1235 -1237 -1239 0
30 52 -1240 0
30 -52 -1240 0
-30 52 -1240 0
-30 -52 1240 0
979 1240 -1241 0
979 -1240 -1241 0
-979 1240 -1241 0
-979 -1240 1241 0
979 1240 -1242 0
979 -1240 1242 0
-979 1240 1242 0
-979 -1240 -1242 0
974 1242 -1243 0
974 -1242 -1243 0
-974 1242 -1243 0
-974 -1242 1243 0
974 1242 -1244 0
974 -1242 1244 0
-974 1242 1244 0
-974 -1242 -1244 0
1241 1243 -1245 0
1241 -1243 1245 0
-1241 1243 1245 0
-1241 -1243 -1245 0
31 52 -1246 0
31 -52 -1246 0
-31 52 -1246 0
-31 -52 1246 0
985 1246 -1247 0
985 -1246 -1247 0
-985 1246 -1247 0
-985 -1246 1247 0
985 1246 -1248 0
985 -1246 1248 0
-985 1246 1248 0
-985 -1246 -1248 0
980 1248 -1249 0
980 -1248 -1249 0
-980 1248 -1249 0
-980 -1248 1249 0
980 1248 -1250 0
980 -1248 1250 0
-980 1248 1250 0
-980 -1248 -1250 0
1247 1249 -1251 0
1247 -1249 1251 0
-1247 1249 1251 0
-1247 -1249 -1251 0
32 52 -1252 0
32 -52 -1252 0
-32 52 -1252 0
-32 -52 1252 0
991 1252 -1253 0
991 -1252 -1253 0
-991 1252 -1253 0
-991 -1252 1253 0
991 1252 -1254 0
991 -1252 1254 0
-991 1252 1254 0
-991 -1252 -1254 0
986 1254 -1255 0
986 -1254 -1255 0
-986 1254 -1255 0
-986 -1254 1255 0
986 1254 -1256 0
986 -1254 1256 0
-986 1254 1256 0
-986 -1254 -1256 0
1253 1255 -1257 0
1253 -1255 1257 0
-1253 1255 1257 0
-1253 -1255 -1257 0
33 52 -1258 0
33 -52 -1258 0
-33 52 -1258 0
-33 -52 1258 0
997 1258 -1259 0
997 -1258 -1259 0
-997 1258 -1259 0
-997 -1258 1259 0
997 1258 -1260 0
997 -1258 1260 0
-997 1258 1260 0
-997 -1258 -1260 0
992 1260 -1261 0
992 -1260 -1261 0
-992 1260 -1261 0
-992 -1260 1261 0
992 1260 -1262 0
992 -1260 1262 0
-992 1260 1262 0
-992 -1260 -1262 0
1259 1261 -1263 0
1259 -1261 1263 0
-1259 1261 1263 0
-1259 -1261 -1263 0
34 52 -1264 0
34 -52 -1264 0
-34 52 -1264 0
-34 -52 1264 0
1003 1264 -1265 0
1003 -1264 -1265 0
-1003 1264 -1265 0
-1003 -1264 1265 0
1003 1264 -1266 0
1003 -1264 1266 0
-1003 1264 1266 0
-1003 -1264 -1266 0
998 1266 -1267 0
998 -1266 -1267 0
-998 1266 -1267 0
-998 -1266 1267 0
998 1266 -1268 0
998 -1266 1268 0
-998 1266 1268 0
-998 -1266 -1268 0
1265 1267 -1269 0
1265 -1267 1269 0
-1265 1267 1269 0
-1265 -1267 -1269 0
35 52 -1270 0
35 -52 -1270 0
-35 52 -1270 0
-35 -52 1270 0
1009 1270 -1271 0
1009 -1270 -1271 0
-1009 1270 -1271 0
-1009 -1270 1271 0
1009 1270 -1272 0
1009 -1270 1272 0
-1009 1270 1272 0
-1009 -1270 -1272 0
1004 1272 -1273 0
1004 -1272 -1273 0
-1004 1272 -1273 0
-1004 -1272 1273 0
1004 1272 -1274 0
1004 -1272 1274 0
-1004 1272 1274 0
-1004 -1272 -1274 0
1271 1273 -1275 0
1271 -1273 1275 0
-1271 1273 1275 0
-1271 -1273 -1275 0
36 52 -1276 0
36 -52 -1276 0
-36 52 -1276 0
-36 -52 1276 0
1015 1276 -1277 0
1015 -1276 -1277 0
-1015 1276 -1277 0
-1015 -1276 1277 0
1015 1276 -1278 0
1015 -1276 1278 0
-1015 1276 1278 0
-1015 -1276 -1278 0
1010 1278 -1279 0
1010 -1278 -1279 0
-1010 1278 -1279 0
-1010 -1278 1279 0
1010 1278 -1280 0
1010 -1278 1280 0
-1010 1278 1280 0
-1010 -1278 -1280 0
1277 1279 -1281 0
1277 -1279 1281 0
-1277 1279 1281 0
-1277 -1279 -1281 0
37 52 -1282 0
37 -52 -1282 0
-37 52 -1282 0
-37 -52 1282 0
1021 1282 -1283 0
1021 -1282 -1283 0
-1021 1282 -1283 0
-1021 -1282 1283 0
1021 1282 -1284 0
1021 -1282 1284 0
-1021 1282 1284 0
-1021 -1282 -1284 0
1016 1284 -1285 0
1016 -1284 -1285 0
-1016 1284 -1285 0
-1016 -1284 1285 0
1016 1284 -1286 0
1016 -1284 1286 0
-1016 1284 1286 0
-1016 -1284 -1286 0
1283 1285 -1287 0
1283 -1285 1287 0
-1283 1285 1287 0
-1283 -1285 -1287 0
38 52 -1288 0
38 -52 -1288 0
-38 52 -1288 0
-38 -52 1288 0
1027 1288 -1289 0
1027 -1288 -1289 0
-1027 1288 -1289 0
-1027 -1288 1289 0
1027 1288 -1290 0
1027 -1288 1290 0
-1027 1288 1290 0
-1027 -1288 -1290 0
1022 1290 -1291 0
1022 -1290 -1291 0
-1022 1290 -1291 0
-1022 -1290 1291 0
1022 1290 -1292 0
1022 -1290 1292 0
-1022 1290 1292 0
-1022 -1290 -1292 0
1289 1291 -1293 0
1289 -1291 1293 0
-1289 1291 1293 0
-1289 -1291 -1293 0
39 52 -1294 0
39 -52 -1294 0
-39 52 -1294 0
-39 -52 1294 0
1033 1294 -1295 0
1033 -1294 -1295 0
-1033 1294 -1295 0
-1033 -1294 1295 0
1033 1294 -1296 0
1033 -1294 1296 0
-1033 1294 1296 0
-1033 -1294 -1296 0
1028 1296 -1297 0
1028 -1296 -1297 0
-1028 1296 -1297 0
-1028 -1296 1297 0
1028 1296 -1298 0
1028 -1296 1298 0
-1028 1296 1298 0
-1028 -1296 -1298 0
1295 1297 -1299 0
1295 -1297 1299 0
-1295 1297 1299 0
-1295 -1297 -1299 0
40 52 -1300 0
40 -52 -1300 0
-40 52 -1300 0
-40 -52 1300 0
1039 1300 -1301 0
1039 -1300 -1301 0
-1039 1300 -1301 0
-1039 -1300 1301 0
1039 1300 -1302 0
1039 -1300 1302 0
-1039 1300 1302 0
-1039 -1300 -1302 0
1034 1302 -1303 0
1034 -1302 -1303 0
-1034 1302 -1303 0
-1034 -1302 1303 0
1034 1302 -1304 0
1034 -1302 1304 0
-1034 1302 1304 0
-1034 -1302 -1304 0
1301 1303 -1305 0
1301 -1303 1305 0
-1301 1303 1305 0
-1301 -1303 -1305 0
41 52 -1306 0
41 -52 -1306 0
-41 52 -1306 0
-41 -52 1306 0
1045 1306 -1307 0
1045 -1306 -1307 0
-1045 1306 -1307 0
-1045 -1306 1307 0
1045 1306 -1308 0
1045 -1306 1308 0
-1045 1306 1308 0
-1045 -1306 -1308 0
1040 1308 -1309 0
1040 -1308 -1309 0
-1040 1308 -1309 0
-1040 -1308 1309 0
1040 1308 -1310 0
1040 -1308 1310 0
-1040 1308 1310 0
-1040 -1308 -1310 0
1307 1309 -1311 0
1307 -1309 1311 0
-1307 1309 1311 0
-1307 -1309 -1311 0
42 52 -1312 0
42 -52 -1312 0
-42 52 -1312 0
-42 -52 1312 0
1051 1312 -1313 0
1051 -1312 -1313 0
-1051 1312 -1313 0
-1051 -1312 1313 0
1051 1312 -1314 0
1051 -1312 1314 0
-1051 1312 1314 0
-1051 -1312 -1314 0
1046 1314 -1315 0
1046 -1314 -1315 0
-1046 1314 -1315 0
-1046 -1314 1315 0
1046 1314 -1316 0
1046 -1314 1316 0
-1046 1314 1316 0
-1046 -1314 -1316 0
1313 1315 -1317 0
1313 -1315 1317 0
-1313 1315 1317 0
-1313 -1315 -1317 0
43 52 -1318 0
43 -52 -1318 0
-43 52 -1318 0
-43 -52 1318 0
1057 1318 -1319 0
1057 -1318 -1319 0
-1057 1318 -1319 0
-1057 -1318 1319 0
1057 1318 -1320 0
1057 -1318 1320 0
-1057 1318 1320 0
-1057 -1318 -1320 0
1052 1320 -1321 0
1052 -1320 -1321 0
-1052 1320 -1321 0
-1052 -1320 1321 0
1052 1320 -1322 0
1052 -1320 1322 0
-1052 1320 1322 0
-1052 -1320 -1322 0
1319 1321 -1323 0
1319 -1321 1323 0
-1319 1321 1323 0
-1319 -1321 -1323 0
44 52 -1324 0
44 -52 -1324 0
-44 52 -1324 0
-44 -52 1324 0
1063 1324 -1325 0
1063 -1324 -1325 0
-1063 1324 -1325 0
-1063 -1324 1325 0
1063 1324 -1326 0
1063 -1324 1326 0
-1063 1324 1326 0
-1063 -1324 -1326 0
1058 1326 -1327 0
1058 -1326 -1327 0
-1058 1326 -1327 0
-1058 -1326 1327 0
1058 1326 -1328 0
1058 -1326 1328 0
-1058 1326 1328 0
-1058 -1326 -1328 0
1325 1327 -1329 0
1325 -1327 1329 0
-1325 1327 1329 0
-1325 -1327 -1329 0
45 52 -1330 0
45 -52 -1330 0
-45 52 -1330 0
-45 -52 1330 0
1065 1330 -1331 0
1065 -1330 -1331 0
-1065 1330 -1331 0
-1065 -1330 1331 0
1065 1330 -1332 0
1065 -1330 1332 0
-1065 1330 1332 0
-1065 -1330 -1332 0
1064 1332 -1333 0
1064 -1332 -1333 0
-1064 1332 -1333 0
-1064 -1332 1333 0
1064 1332 -1334 0
1064 -1332 1334 0
-1064 1332 1334 0
-1064 -1332 -1334 0
1331 1333 -1335 0
1331 -1333 1335 0
-1331 1333 1335 0
-1331 -1333 -1335 0
46 52 -1336 0
46 -52 -1336 0
-46 52 -1336 0
-46 -52 1336 0
1 53 -1337 0
1 -53 -1337 0
-1 53 -1337 0
-1 -53 1337 0
1076 1337 -1338 0
1076 -1337 -1338 0
-1076 1337 -1338 0
-1076 -1337 1338 0
1076 1337 -1339 0
1076 -1337 1339 0
-1076 1337 1339 0
-1076 -1337 -1339 0
1071 1339 -1340 0
1071 -1339 -1340 0
-1071 1339 -1340 0
-1071 -1339 1340 0
1071 1339 -1341 0
1071 -1339 1341 0
-1071 1339 1341 0
-1071 -1339 -1341 0
1338 1340 -1342 0
1338 -1340 1342 0
-1338 1340 1342 0
-1338 -1340 -1342 0
2 53 -1343 0
2 -53 -1343 0
-2 53 -1343 0
-2 -53 1343 0
1082 1343 -1344 0
1082 -1343 -1344 0
-1082 1343 -1344 0
-1082 -1343 1344 0
1082 1343 -1345 0
1082 -1343 1345 0
-1082 1343 1345 0
-1082 -1343 -1345 0
1077 1345 -1346 0
1077 -1345 -1346 0
-1077 1345 -1346 0
-1077 -1345 1346 0
1077 1345 -1347 0
1077 -1345 1347 0
-1077 1345 1347 0
-1077 -1345 -1347 0
1344 1346 -1348 0
1344 -1346 1348 0
-1344 1346 1348 0
-1344 -1346 -1348 0
3 53 -1349 0
3 -53 -1349 0
-3 53 -1349 0
-3 -53 1349 0
1088 1349 -1350 0
1088 -1349 -1350 0
-1088 1349 -1350 0
-1088 -1349 1350 0
1088 1349 -1351 0
1088 -1349 1351 0
-1088 1349 1351 0
-1088 -1349 -1351 0
1083 1351 -1352 0
1083 -1351 -1352 0
-1083 1351 -1352 0
-1083 -1351 1352 0
1083 1351 -1353 0
1083 -1351 1353 0
-1083 1351 1353 0
-1083 -1351 -1353 0
1350 1352 -1354 0
1350 -1352 1354 0
-1350 1352 1354 0
-1350 -1352 -1354 0
4 53 -1355 0
4 -53 -1355 0
-4 53 -1355 0
-4 -53 1355 0
1094 1355 -1356 0
1094 -1355 -1356 0
-1094 1355 -1356 0
-1094 -1355 1356 0
1094 1355 -1357 0
1094 -1355 1357 0
-1094 1355 1357 0
-1094 -1355 -1357 0
1089 1357 -1358 0
1089 -1357 -1358 0
-1089 1357 -1358 0
-1089 -1357 1358 0
1089 1357 -1359 0
1089 -1357 1359 0
-1089 1357 1359 0
-1089 -1357 -1359 0
1356 1358 -1360 0
1356 -1358 1360 0
-1356 1358 1360 0
-1356 -1358 -1360 0
5 53 -1361 0
5 -53 -1361 0
-5 53 -1361 0
-5 -53 1361 0
1100 1361 -1362 0
1100 -1361 -1362 0
-1100 1361 -1362 0
-1100 -1361 1362 0
1100 1361 -1363 0
1100 -1361 1363 0
-1100 1361 1363 0
-1100 -1361 -1363 0
1095 1363 -1364 0
1095 -1363 -1364 0
-1095 1363 -1364 0
-1095 -1363 1364 0
1095 1363 -1365 0
1095 -1363 1365 0
-1095 1363 1365 0
-1095 -1363 -1365 0
1362 1364 -1366 0
1362 -1364 1366 0
-1362 1364 1366 0
-1362 -1364 -1366 0
6 53 -1367 0
6 -53 -1367 0
-6 53 -1367 0
-6 -53 1367 0
1106 1367 -1368 0
1106 -1367 -1368 0
-1106 1367 -1368 0
-1106 -1367 1368 0
1106 1367 -1369 0
1106 -1367 1369 0
-1106 1367 1369 0
-1106 -1367 -1369 0
1101 1369 -1370 0
1101 -1369 -1370 0
-1101 1369 -1370 0
-1101 -1369 1370 0
1101 1369 -1371 0
1101 -1369 1371 0
-1101 1369 1371 0
-1101 -1369 -1371 0
1368 1370 -1372 0
1368 -1370 1372 0
-1368 1370 1372 0
-1368 -1370 -1372 0
7 53 -1373 0
7 -53 -1373 0
-7 53 -1373 0
-7 -53 1373 0
1112 1373 -1374 0
1112 -1373 -1374 0
-1112 1373 -1374 0
-1112 -1373 1374 0
1112 1373 -1375 0
1112 -1373 1375 0
-1112 1373 1375 0
-1112 -1373 -1375 0
1107 1375 -1376 0
1107 -1375 -1376 0
-1107 1375 -1376 0
-1107 -1375 1376 0
1107 1375 -1377 0
1107 -1375 1377 0
-1107 1375 1377 0
-1107 -1375 -1377 0
1374 1376 -1378 0
1374 -1376 1378 0
-1374 1376 1378 0
-1374 -1376 -1378 0
8 53 -1379 0
8 -53 -1379 0
-8 53 -1379 0
-8 -53 1379 0
1118 1379 -1380 0
1118 -1379 -1380 0
-1118 1379 -1380 0
-1118 -1379 1380 0
1118 1379 -1381 0
1118 -1379 1381 0
-1118 1379 1381 0
-1118 -1379 -1381 0
1113 1381 -1382 0
1113 -1381 -1382 0
-1113 1381 -1382 0
-1113 -1381 1382 0
1113 1381 -1383 0
1113 -1381 1383 0
-1113 1381 1383 0
-1113 -1381 -1383 0
1380 1382 -1384 0
1380 -1382 1384 0
-1380 1382 1384 0
-1380 -1382 -1384 0
9 53 -1385 0
9 -53 -1385 0
-9 53 -1385 0
-9 -53 1385 0
1124 1385 -1386 0
1124 -1385 -1386 0
-1124 1385 -1386 0
-1124 -1385 1386 0
1124 1385 -1387 0
1124 -1385 1387 0
-1124 1385 1387 0
-1124 -1385 -1387 0
1119 1387 -1388 0
1119 -1387 -1388 0
-1119 1387 -1388 0
-1119 -1387 1388 0
1119 1387 -1389 0
1119 -1387 1389 0
-1119 1387 1389 0
-1119 -1387 -1389 0
1386 1388 -1390 0
1386 -1388 1390 0
-1386 1388 1390 0
-1386 -1388 -1390 0
10 53 -1391 0
10 -53 -1391 0
-10 53 -1391 0
-10 -53 1391 0
1130 1391 -1392 0
1130 -1391 -1392 0
-1130 1391 -1392 0
-1130 -1391 1392 0
1130 1391 -1393 0
1130 -1391 1393 0
-1130 1391 1393 0
-1130 -1391 -1393 0
1125 1393 -1394 0
1125 -1393 -1394 0
-1125 1393 -1394 0
-1125 -1393 1394 0
1125 1393 -1395 0
1125 -1393 1395 0
-1125 1393 1395 0
-1125 -1393 -1395 0
1392 1394 -1396 0
1392 -1394 1396 0
-1392 1394 1396 0
-1392 -1394 -1396 0
11 53 -1397 0
11 -53 -1397 0
-11 53 -1397 0
-11 -53 1397 0
1136 1397 -1398 0
1136 -1397 -1398 0
-1136 1397 -1398 0
-1136 -1397 1398 0
1136 1397 -1399 0
1136 -1397 1399 0
-1136 1397 1399 0
-1136 -1397 -1399 0
1131 1399 -1400 0
1131 -1399 -1400 0
-1131 1399 -1400 0
-1131 -1399 1400 0
1131 1399 -1401 0
1131 -1399 1401 0
-1131 1399 1401 0
-1131 -1399 -1401 0
1398 1400 -1402 0
1398 -1400 1402 0
-1398 1400 1402 0
-1398 -1400 -1402 0
12 53 -1403 0
12 -53 -1403 0
-12 53 -1403 0
-12 -53 1403 0
1142 1403 -1404 0
1142 -1403 -1404 0
-1142 1403 -1404 0
-1142 -1403 1404 0
1142 1403 -1405 0
1142 -1403 1405 0
-1142 1403 1405 0
-1142 -1403 -1405 0
1137 1405 -1406 0
1137 -1405 -1406 0
-1137 1405 -1406 0
-1137 -1405 1406 0
1137 1405 -1407 0
1137 -1405 1407 0
-1137 1405 1407 0
-1137 -1405 -1407 0
1404 1406 -1408 0
1404 -1406 1408 0
-1404 1406 1408 0
-1404 -1406 -1408 0
13 53 -1409 0
13 -53 -1409 0
-13 53 -1409 0
-13 -53 1409 0
1148 1409 -1410 0
1148 -1409 -1410 0
-1148 1409 -1410 0
-1148 -1409 1410 0
1148 1409 -1411 0
1148 -1409 1411 0
-1148 1409 1411 0
-1148 -1409 -1411 0
1143 1411 -1412 0
1143 -1411 -1412 0
-1143 1411 -1412 0
-1143 -1411 1412 0
1143 1411 -1413 0
1143 -1411 1413 0
-1143 1411 1413 0
-1143 -1411 -1413 0
1410 1412 -1414 0
1410 -1412 1414 0
-1410 1412 1414 0
-1410 -1412 -1414 0
14 53 -1415 0
14 -53 -1415 0
-14 53 -1415 0
-14 -53 1415 0
1154 1415 -1416 0
1154 -1415 -1416 0
-1154 1415 -1416 0
-1154 -1415 1416 0
1154 1415 -1417 0
1154 -1415 1417 0
-1154 1415 1417 0
-1154 -1415 -1417 0
1149 1417 -1418 0
1149 -1417 -1418 0
-1149 1417 -1418 0
-1149 -1417 1418 0
1149 1417 -1419 0
1149 -1417 1419 0
-1149 1417 1419 0
-1149 -1417 -1419 0
1416 1418 -1420 0
1416 -1418 1420 0
-1416 1418 1420 0
-1416 -1418 -1420 0
15 53 -1421 0
15 -53 -1421 0
-15 53 -1421 0
-15 -53 1421 0
1160 1421 -1422 0
1160 -1421 -1422 0
-1160 1421 -1422 0
-1160 -1421 1422 0
1160 1421 -1423 0
1160 -1421 1423 0
-1160 1421 1423 0
-1160 -1421 -1423 0
1155 1423 -1424 0
1155 -1423 -1424 0
-1155 1423 -1424 0
-1155 -1423 1424 0
1155 1423 -1425 0
1155 -1423 1425 0
-1155 1423 1425 0
-1155 -1423 -1425 0
1422 1424 -1426 0
1422 -1424 1426 0
-1422 1424 1426 0
-1422 -1424 -1426 0
16 53 -1427 0
16 -53 -1427 0
-16 53 -1427 0
-16 -53 1427 0
1166 1427 -1428 0
1166 -1427 -1428 0
-1166 1427 -1428 0
-1166 -1427 1428 0
1166 1427 -1429 0
1166 -1427 1429 0
-1166 1427 1429 0
-1166 -1427 -1429 0
1161 1429 -1430 0
1161 -1429 -1430 0
-1161 1429 -1430 0
-1161 -1429 1430 0
1161 1429 -1431 0
1161 -1429 1431 0
-1161 1429 1431 0
-1161 -1429 -1431 0
1428 1430 -1432 0
1428 -1430 1432 0
-1428 1430 1432 0
-1428 -1430 -1432 0
17 53 -1433 0
17 -53 -1433 0
-17 53 -1433 0
-17 -53 1433 0
1172 1433 -1434 0
1172 -1433 -1434 0
-1172 1433 -1434 0
-1172 -1433 1434 0
1172 1433 -1435 0
1172 -1433 1435 0
-1172 1433 1435 0
-1172 -1433 -1435 0
1167 1435 -1436 0
1167 -1435 -1436 0
-1167 1435 -1436 0
-1167 -1435 1436 0
1167 1435 -1437 0
1167 -1435 1437 0
-1167 1435 1437 0
-1167 -1435 -1437 0
1434 1436 -1438 0
1434 -1436 1438 0
-1434 1436 1438 0
-1434 -1436 -1438 0
18 53 -1439 0
18 -53 -1439 0
-18 53 -1439 0
-18 -53 1439 0
1178 1439 -1440 0
1178 -1439 -1440 0
-1178 1439 -1440 0
-1178 -1439 1440 0
1178 1439 -1441 0
1178 -1439 1441 0
-1178 1439 1441 0
-1178 -1439 -1441 0
1173 1441 -1442 0
1173 -1441 -1442 0
-1173 1441 -1442 0
-1173 -1441 1442 0
1173 1441 -1443 0
1173 -1441 1443 0
-1173 1441 1443 0
-1173 -1441 -1443 0
1440 1442 -1444 0
1440 -1442 1444 0
-1440 1442 1444 0
-1440 -1442 -1444 0
19 53 -1445 0
19 -53 -1445 0
-19 53 -1445 0
-19 -53 1445 0
1184 1445 -1446 0
1184 -1445 -1446 0
-1184 1445 -1446 0
-1184 -1445 1446 0
1184 1445 -1447 0
1184 -1445 1447 0
-1184 1445 1447 0
-1184 -1445 -1447 0
1179 1447 -1448 0
1179 -1447 -1448 0
-1179 1447 -1448 0
-1179 -1447 1448 0
1179 1447 -1449 0
1179 -1447 1449 0
-1179 1447 1449 0
-1179 -1447 -1449 0
1446 1448 -1450 0
1446 -1448 1450 0
-1446 1448 1450 0
-1446 -1448 -1450 0
20 53 -1451 0
20 -53 -1451 0
-20 53 -1451 0
-20 -53 1451 0
1190 1451 -1452 0
1190 -1451 -1452 0
-1190 1451 -1452 0
-1190 -1451 1452 0
1190 1451 -1453 0
1190 -1451 1453 0
-1190 1451 1453 0
-1190 -1451 -1453 0
1185 1453 -1454 0
1185 -1453 -1454 0
-1185 1453 -1454 0
-1185 -1453 1454 0
1185 1453 -1455 0
1185 -1453 1455 0
-1185 1453 1455 0
-1185 -1453 -1455 0
1452 1454 -1456 0
1452 -1454 1456 0
-1452 1454 1456 0
-1452 -1454 -1456 0
21 53 -1457 0
21 -53 -1457 0
-21 53 -1457 0
-21 -53 1457 0
1196 1457 -1458 0
1196 -1457 -1458 0
-1196 1457 -1458 0
-1196 -1457 1458 0
1196 1457 -1459 0
1196 -1457 1459 0
-1196 1457 1459 0
-1196 -1457 -1459 0
1191 1459 -1460 0
1191 -1459 -1460 0
-1191 1459 -1460 0
-1191 -1459 1460 0
1191 1459 -1461 0
1191 -1459 1461 0
-1191 1459 1461 0
-1191 -1459 -1461 0
1458 1460 -1462 0
1458 -1460 1462 0
-1458 1460 1462 0
-1458 -1460 -1462 0
22 53 -1463 0
22 -53 -1463 0
-22 53 -1463 0
-22 -53 1463 0
1202 1463 -1464 0
1202 -1463 -1464 0
-1202 1463 -1464 0
-1202 -1463 1464 0
1202 1463 -1465 0
1202 -1463 1465 0
-1202 1463 1465 0
-1202 -1463 -1465 0
1197 1465 -1466 0
1197 -1465 -1466 0
-1197 1465 -1466 0
-1197 -1465 1466 0
1197 1465 -1467 0
1197 -1465 1467 0
-1197 1465 1467 0
-1197 -1465 -1467 0
1464 1466 -1468 0
1464 -1466 1468 0
-1464 1466 1468 0
-1464 -1466 -1468 0
23 53 -1469 0
23 -53 -1469 0
-23 53 -1469 0
-23 -53 1469 0
1208 1469 -1470 0
1208 -1469 -1470 0
-1208 1469 -1470 0
-1208 -1469 1470 0
1208 1469 -1471 0
1208 -1469 1471 0
-1208 1469 1471 0
-1208 -1469 -1471 0
1203 1471 -1472 0
1203 -1471 -1472 0
-1203 1471 -1472 0
-1203 -1471 1472 0
1203 1471 -1473 0
1203 -1471 1473 0
-1203 1471 1473 0
-1203 -1471 -1473 0
1470 1472 -1474 0
1470 -1472 1474 0
-1470 1472 1474 0
-1470 -1472 -1474 0
24 53 -1475 0
24 -53 -1475 0
-24 53 -1475 0
-24 -53 1475 0
1214 1475 -1476 0
1214 -1475 -1476 0
-1214 1475 -1476 0
-1214 -1475 1476 0
1214 1475 -1477 0
1214 -1475 1477 0
-1214 1475 1477 0
-1214 -1475 -1477 0
1209 1477 -1478 0
1209 -1477 -1478 0
-1209 1477 -1478 0
-1209 -1477 1478 0
1209 1477 -1479 0
1209 -1477 1479 0
-1209 1477 1479 0
-1209 -1477 -1479 0
1476 1478 -1480 0
1476 -1478 1480 0
-1476 1478 1480 0
-1476 -1478 -1480 0
25 53 -1481 0
25 -53 -1481 0
-25 53 -1481 0
-25 -53 1481 0
1220 1481 -1482 0
1220 -1481 -1482 0
-1220 1481 -1482 0
-1220 -1481 1482 0
1220 1481 -1483 0
1220 -1481 1483 0
-1220 1481 1483 0
-1220 -1481 -1483 0
1215 1483 -1484 0
1215 -1483 -1484 0
-1215 1483 -1484 0
-1215 -1483 1484 0
1215 1483 -1485 0
1215 -1483 1485 0
-1215 1483 1485 0
-1215 -1483 -1485 0
1482 1484 -1486 0
1482 -1484 1486 0
-1482 1484 1486 0
-1482 -1484 -1486 0
26 53 -1487 0
26 -53 -1487 0
-26 53 -1487 0
-26 -53 1487 0
1226 1487 -1488 0
1226 -1487 -1488 0
-1226 1487 -1488 0
-1226 -1487 1488 0
1226 1487 -1489 0
1226 -1487 1489 0
-1226 1487 1489 0
-1226 -1487 -1489 0
1221 1489 -1490 0
1221 -1489 -1490 0
-1221 1489 -1490 0
-1221 -1489 1490 0
1221 1489 -1491 0
1221 -1489 1491 0
-1221 1489 1491 0
-1221 -1489 -1491 0
1488 1490 -1492 0
1488 -1490 1492 0
-1488 1490 1492 0
-1488 -1490 -1492 0
27 53 -1493 0
27 -53 -1493 0
-27 53 -1493 0
-27 -53 1493 0
1232 1493 -1494 0
1232 -1493 -1494 0
-1232 1493 -1494 0
-1232 -1493 1494 0
1232 1493 -1495 0
1232 -1493 1495 0
-1232 1493 1495 0
-1232 -1493 -1495 0
1227 1495 -1496 0
1227 -1495 -1496 0
-1227 1495 -1496 0
-1227 -1495 1496 0
1227 1495 -1497 0
1227 -1495 1497 0
-1227 1495 1497 0
-1227 -1495 -1497 0
1494 1496 -1498 0
1494 -1496 1498 0
-1494 1496 1498 0
-1494 -1496 -1498 0
28 53 -1499 0
28 -53 -1499 0
-28 53 -1499 0
-28 -53 1499 0
1238 1499 -1500 0
1238 -1499 -1500 0
-1238 1499 -1500 0
-1238 -1499 1500 0
1238 1499 -1501 0
1238 -1499 1501 0
-1238 1499 1501 0
-1238 -1499 -1501 0
1233 1501 -1502 0
1233 -1501 -1502 0
-1233 1501 -1502 0
-1233 -1501 1502 0
1233 1501 -1503 0
1233 -1501 1503 0
-1233 1501 1503 0
-1233 -1501 -1503 0
1500 1502 -1504 0
1500 -1502 1504 0
-1500 1502 1504 0
-1500 -1502 -1504 0
29 53 -1505 0
29 -53 -1505 0
-29 53 -1505 0
-29 -53 1505 0
1244 1505 -1506 0
1244 -1505 -1506 0
-1244 1505 -1506 0
-1244 -1505 1506 0
1244 1505 -1507 0
1244 -1505 1507 0
-1244 1505 1507 0
-1244 -1505 -1507 0
1239 1507 -1508 0
1239 -1507 -1508 0
-1239 1507 -1508 0
-1239 -1507 1508 0
1239 1507 -1509 0
1239 -1507 1509 0
-1239 1507 1509 0
-1239 -1507 -1509 0
1506 1508 -1510 0
1506 -1508 1510 0
-1506 1508 1510 0
-1506 -1508 -1510 0
30 53 -1511 0
30 -53 -1511 0
-30 53 -1511 0
-30 -53 1511 0
1250 1511 -1512 0
1250 -1511 -1512 0
-1250 1511 -1512 0
-1250 -1511 1512 0
1250 1511 -1513 0
1250 -1511 1513 0
-1250 1511 1513 0
-1250 -1511 -1513 0
1245 1513 -1514 0
1245 -1513 -1514 0
-1245 1513 -1514 0
-1245 -1513 1514 0
1245 1513 -1515 0
1245 -1513 1515 0
-1245 1513 1515 0
-1245 -1513 -1515 0
1512 1514 -1516 0
1512 -1514 1516 0
-1512 1514 1516 0
-1512 -1514 -1516 0
31 53 -1517 0
31 -53 -1517 0
-31 53 -1517 0
-31 -53 1517 0
1256 1517 -1518 0
1256 -1517 -1518 0
-1256 1517 -1518 0
-1256 -1517 1518 0
1256 1517 -1519 0
1256 -1517 1519 0
-1256 1517 1519 0
-1256 -1517 -1519 0
1251 1519 -1520 0
1251 -1519 -1520 0
-1251 1519 -1520 0
-1251 -1519 1520 0
1251 1519 -1521 0
1251 -1519 1521 0
-1251 1519 1521 0
-1251 -1519 -1521 0
1518 1520 -1522 0
1518 -1520 1522 0
-1518 1520 1522 0
-1518 -1520 -1522 0
32 53 -1523 0
32 -53 -1523 0
-32 53 -1523 0
-32 -53 1523 0
1262 1523 -1524 0
1262 -1523 -1524 0
-1262 1523 -1524 0
-1262 -1523 1524 0
1262 1523 -1525 0
1262 -1523 1525 0
-1262 1523 1525 0
-1262 -1523 -1525 0
1257 1525 -1526 0
1257 -1525 -1526 0
-1257 1525 -1526 0
-1257 -1525 1526 0
1257 1525 -1527 0
1257 -1525 1527 0
-1257 1525 1527 0
-1257 -1525 -1527 0
1524 1526 -1528 0
1524 -1526 1528 0
-1524 1526 1528 0
-1524 -1526 -1528 0
33 53 -1529 0
33 -53 -1529 0
-33 53 -1529 0
-33 -53 1529 0
1268 1529 -1530 0
1268 -1529 -1530 0
-1268 1529 -1530 0
-1268 -1529 1530 0
1268 1529 -1531 0
1268 -1529 1531 0
-1268 1529 1531 0
-1268 -1529 -1531 0
1263 1531 -1532 0
1263 -1531 -1532 0
-1263 1531 -1532 0
-1263 -1531 1532 0
1263 1531 -1533 0
1263 -1531 1533 0
-1263 1531 1533 0
-1263 -1531 -1533 0
1530 1532 -1534 0
1530 -1532 1534 0
-1530 1532 1534 0
-1530 -1532 -1534 0
34 53 -1535 0
34 -53 -1535 0
-34 53 -1535 0
-34 -53 1535 0
1274 1535 -1536 0
1274 -1535 -1536 0
-1274 1535 -1536 0
-1274 -1535 1536 0
1274 1535 -1537 0
1274 -1535 1537 0
-1274 1535 1537 0
-1274 -1535 -1537 0
1269 1537 -1538 0
1269 -1537 -1538 0
-1269 1537 -1538 0
-1269 -1537 1538 0
1269 1537 -1539 0
1269 -1537 1539 0
-1269 1537 1539 0
-1269 -1537 -1539 0
1536 1538 -1540 0
1536 -1538 1540 0
-1536 1538 1540 0
-1536 -1538 -1540 0
35 53 -1541 0
35 -53 -1541 0
-35 53 -1541 0
-35 -53 1541 0
1280 1541 -1542 0
1280 -1541 -1542 0
-1280 1541 -1542 0
-1280 -1541 1542 0
1280 1541 -1543 0
1280 -1541 1543 0
-1280 1541 1543 0
-1280 -1541 -1543 0
1275 1543 -1544 0
1275 -1543 -1544 0
-1275 1543 -1544 0
-1275 -1543 1544 0
1275 1543 -1545 0
1275 -1543 1545 0
-1275 1543 1545 0
-1275 -1543 -1545 0
1542 1544 -1546 0
1542 -1544 1546 0
-1542 1544 1546 0
-1542 -1544 -1546 0
36 53 -1547 0
36 -53 -1547 0
-36 53 -1547 0
-36 -53 1547 0
1286 1547 -1548 0
1286 -1547 -1548 0
-1286 1547 -1548 0
-1286 -1547 1548 0
1286 1547 -1549 0
1286 -1547 1549 0
-1286 1547 1549 0
-1286 -1547 -1549 0
1281 1549 -1550 0
1281 -1549 -1550 0
-1281 1549 -1550 0
-1281 -1549 1550 0
1281 1549 -1551 0
1281 -1549 1551 0
-1281 1549 1551 0
-1281 -1549 -1551 0
1548 1550 -1552 0
1548 -1550 1552 0
-1548 1550 1552 0
-1548 -1550 -1552 0
37 53 -1553 0
37 -53 -1553 0
-37 53 -1553 0
-37 -53 1553 0
1292 1553 -1554 0
1292 -1553 -1554 0
-1292 1553 -1554 0
-1292 -1553 1554 0
1292 1553 -1555 0
1292 -1553 1555 0
-1292 1553 1555 0
-1292 -1553 -1555 0
1287 1555 -1556 0
1287 -1555 -1556 0
-1287 1555 -1556 0
-1287 -1555 1556 0
1287 1555 -1557 0
1287 -1555 1557 0
-1287 1555 1557 0
-1287 -1555 -1557 0
1554 1556 -1558 0
1554 -1556 1558 0
-1554 1556 1558 0
-1554 -1556 -1558 0
38 53 -1559 0
38 -53 -1559 0
-38 53 -1559 0
-38 -53 1559 0
1298 1559 -1560 0
1298 -1559 -1560 0
-1298 1559 -1560 0
-1298 -1559 1560 0
1298 1559 -1561 0
1298 -1559 1561 0
-1298 1559 1561 0
-1298 -1559 -1561 0
1293 1561 -1562 0
1293 -1561 -1562 0
-1293 1561 -1562 0
-1293 -1561 1562 0
1293 1561 -1563 0
1293 -1561 1563 0
-1293 1561 1563 0
-1293 -1561 -1563 0
1560 1562 -1564 0
1560 -1562 1564 0
-1560 1562 1564 0
-1560 -1562 -1564 0
39 53 -1565 0
39 -53 -1565 0
-39 53 -1565 0
-39 -53 1565 0
1304 1565 -1566 0
1304 -1565 -1566 0
-1304 1565 -1566 0
-1304 -1565 1566 0
1304 1565 -1567 0
1304 -1565 1567 0
-1304 1565 1567 0
-1304 -1565 -1567 0
1299 1567 -1568 0
1299 -1567 -1568 0
-1299 1567 -1568 0
-1299 -1567 1568 0
1299 1567 -1569 0
1299 -1567 1569 0
-1299 1567 1569 0
-1299 -1567 -1569 0
1566 1568 -1570 0
1566 -1568 1570 0
-1566 1568 1570 0
-1566 -1568 -1570 0
40 53 -1571 0
40 -53 -1571 0
-40 53 -1571 0
-40 -53 1571 0
1310 1571 -1572 0
1310 -1571 -1572 0
-1310 1571 -1572 0
-1310 -1571 1572 0
1310 1571 -1573 0
1310 -1571 1573 0
-1310 1571 1573 0
-1310 -1571 -1573 0
1305 1573 -1574 0
1305 -1573 -1574 0
-1305 1573 -1574 0
-1305 -1573 1574 0
1305 1573 -1575 0
1305 -1573 1575 0
-1305 1573 1575 0
-1305 -1573 -1575 0
1572 1574 -1576 0
1572 -1574 1576 0
-1572 1574 1576 0
-1572 -1574 -1576 0
41 53 -1577 0
41 -53 -1577 0
-41 53 -1577 0
-41 -53 1577 0
1316 1577 -1578 0
1316 -1577 -1578 0
-1316 1577 -1578 0
-1316 -1577 1578 0
1316 1577 -1579 0
1316 -1577 1579 0
-1316 1577 1579 0
-1316 -1577 -1579 0
1311 1579 -1580 0
1311 -1579 -1580 0
-1311 1579 -1580 0
-1311 -1579 1580 0
1311 1579 -1581 0
1311 -1579 1581 0
-1311 1579 1581 0
-1311 -1579 -1581 0
1578 1580 -1582 0
1578 -1580 1582 0
-1578 1580 1582 0
-1578 -1580 -1582 0
42 53 -1583 0
42 -53 -1583 0
-42 53 -1583 0
-42 -53 1583 0
1322 1583 -1584 0
1322 -1583 -1584 0
-1322 1583 -1584 0
-1322 -1583 1584 0
1322 1583 -1585 0
1322 -1583 1585 0
-1322 1583 1585 0
-1322 -1583 -1585 0
1317 1585 -1586 0
1317 -1585 -1586 0
-1317 1585 -1586 0
-1317 -1585 1586 0
1317 1585 -1587 0
1317 -1585 1587 0
-1317 1585 1587 0
-1317 -1585 -1587 0
1584 1586 -1588 0
1584 -1586 1588 0
-1584 1586 1588 0
-1584 -1586 -1588 0
43 53 -1589 0
43 -53 -1589 0
-43 53 -1589 0
-43 -53 1589 0
1328 1589 -1590 0
1328 -1589 -1590 0
-1328 1589 -1590 0
-1328 -1589 1590 0
1328 1589 -1591 0
1328 -1589 1591 0
-1328 1589 1591 0
-1328 -1589 -1591 0
1323 1591 -1592 0
1323 -1591 -1592 0
-1323 1591 -1592 0
-1323 -1591 1592 0
1323 1591 -1593 0
1323 -1591 1593 0
-1323 1591 1593 0
-1323 -1591 -1593 0
1590 1592 -1594 0
1590 -1592 1594 0
-1590 1592 1594 0
-1590 -1592 -1594 0
44 53 -1595 0
44 -53 -1595 0
-44 53 -1595 0
-44 -53 1595 0
1334 1595 -1596 0
1334 -1595 -1596 0
-1334 1595 -1596 0
-1334 -1595 1596 0
1334 1595 -1597 0
1334 -1595 1597 0
-1334 1595 1597 0
-1334 -1595 -1597 0
1329 1597 -1598 0
1329 -1597 -1598 0
-1329 1597 -1598 0
-1329 -1597 1598 0
1329 1597 -1599 0
1329 -1597 1599 0
-1329 1597 1599 0
-1329 -1597 -1599 0
1596 1598 -1600 0
1596 -1598 1600 0
-1596 1598 1600 0
-1596 -1598 -1600 0
45 53 -1601 0
45 -53 -1601 0
-45 53 -1601 0
-45 -53 1601 0
1336 1601 -1602 0
1336 -1601 -1602 0
-1336 1601 -1602 0
-1336 -1601 1602 0
1336 1601 -1603 0
1336 -1601 1603 0
-1336 1601 1603 0
-1336 -1601 -1603 0
1335 1603 -1604 0
1335 -1603 -1604 0
-1335 1603 -1604 0
-1335 -1603 1604 0
1335 1603 -1605 0
1335 -1603 1605 0
-1335 1603 1605 0
-1335 -1603 -1605 0
1602 1604 -1606 0
1602 -1604 1606 0
-1602 1604 1606 0
-1602 -1604 -1606 0
46 53 -1607 0
46 -53 -1607 0
-46 53 -1607 0
-46 -53 1607 0
1 54 -1608 0
1 -54 -1608 0
-1 54 -1608 0
-1 -54 1608 0
1347 1608 -1609 0
1347 -1608 -1609 0
-1347 1608 -1609 0
-1347 -1608 1609 0
1347 1608 -1610 0
1347 -1608 1610 0
-1347 1608 1610 0
-1347 -1608 -1610 0
1342 1610 -1611 0
1342 -1610 -1611 0
-1342 1610 -1611 0
-1342 -1610 1611 0
1342 1610 -1612 0
1342 -1610 1612 0
-1342 1610 1612 0
-1342 -1610 -1612 0
1609 1611 -1613 0
1609 -1611 1613 0
-1609 1611 1613 0
-1609 -1611 -1613 0
2 54 -1614 0
2 -54 -1614 0
-2 54 -1614 0
-2 -54 1614 0
1353 1614 -1615 0
1353 -1614 -1615 0
-1353 1614 -1615 0
-1353 -1614 1615 0
1353 1614 -1616 0
1353 -1614 1616 0
-1353 1614 1616 0
-1353 -1614 -1616 0
1348 1616 -1617 0
1348 -1616 -1617 0
-1348 1616 -1617 0
-1348 -1616 1617 0
1348 1616 -1618 0
1348 -1616 1618 0
-1348 1616 1618 0
-1348 -1616 -1618 0
1615 1617 -1619 0
1615 -1617 1619 0
-1615 1617 1619 0
-1615 -1617 -1619 0
3 54 -1620 0
3 -54 -1620 0
-3 54 -1620 0
-3 -54 1620 0
1359 1620 -1621 0
1359 -1620 -1621 0
-1359 1620 -1621 0
-1359 -1620 1621 0
1359 1620 -1622 0
1359 -1620 1622 0
-1359 1620 1622 0
-1359 -1620 -1622 0
1354 1622 -1623 0
1354 -1622 -1623 0
-1354 1622 -1623 0
-1354 -1622 1623 0
1354 1622 -1624 0
1354 -1622 1624 0
-1354 1622 1624 0
-1354 -1622 -1624 0
1621 1623 -1625 0
1621 -1623 1625 0
-1621 1623 1625 0
-1621 -1623 -1625 0
4 54 -1626 0
4 -54 -1626 0
-4 54 -1626 0
-4 -54 1626 0
1365 1626 -1627 0
1365 -1626 -1627 0
-1365 1626 -1627 0
-1365 -1626 1627 0
1365 1626 -1628 0
1365 -1626 1628 0
-1365 1626 1628 0
-1365 -1626 -1628 0
1360 1628 -1629 0
1360 -1628 -1629 0
-1360 1628 -1629 0
-1360 -1628 1629 0
1360 1628 -1630 0
1360 -1628 1630 0
-1360 1628 1630 0
-1360 -1628 -1630 0
1627 1629 -1631 0
1627 -1629 1631 0
-1627 1629 1631 0
-1627 -1629 -1631 0
5 54 -1632 0
5 -54 -1632 0
-5 54 -1632 0
-5 -54 1632 0
1371 1632 -1633 0
1371 -1632 -1633 0
-1371 1632 -1633 0
-1371 -1632 1633 0
1371 1632 -1634 0
1371 -1632 1634 0
-1371 1632 1634 0
-1371 -1632 -1634 0
1366 1634 -1635 0
1366 -1634 -1635 0
-1366 1634 -1635 0
-1366 -1634 1635 0
1366 1634 -1636 0
1366 -1634 1636 0
-1366 1634 1636 0
-1366 -1634 -1636 0
1633 1635 -1637 0
1633 -1635 1637 0
-1633 1635 1637 0
-1633 -1635 -1637 0
6 54 -1638 0
6 -54 -1638 0
-6 54 -1638 0
-6 -54 1638 0
1377 1638 -1639 0
1377 -1638 -1639 0
-1377 1638 -1639 0
-1377 -1638 1639 0
1377 1638 -1640 0
1377 -1638 1640 0
-1377 1638 1640 0
-1377 -1638 -1640 0
1372 1640 -1641 0
1372 -1640 -1641 0
-1372 1640 -1641 0
-1372 -1640 1641 0
1372 1640 -1642 0
1372 -1640 1642 0
-1372 1640 1642 0
-1372 -1640 -1642 0
1639 1641 -1643 0
1639 -1641 1643 0
-1639 1641 1643 0
-1639 -1641 -1643 0
7 54 -1644 0
7 -54 -1644 0
-7 54 -1644 0
-7 -54 1644 0
1383 1644 -1645 0
1383 -1644 -1645 0
-1383 1644 -1645 0
-1383 -1644 1645 0
1383 1644 -1646 0
1383 -1644 1646 0
-1383 1644 1646 0
-1383 -1644 -1646 0
1378 1646 -1647 0
1378 -1646 -1647 0
-1378 1646 -1647 0
-1378 -1646 1647 0
1378 1646 -1648 0
1378 -1646 1648 0
-1378 1646 1648 0
-1378 -1646 -1648 0
1645 1647 -1649 0
1645 -1647 1649 0
-1645 1647 1649 0
-1645 -1647 -1649 0
8 54 -1650 0
8 -54 -1650 0
-8 54 -1650 0
-8 -54 1650 0
1389 1650 -1651 0
1389 -1650 -1651 0
-1389 1650 -1651 0
-1389 -1650 1651 0
1389 1650 -1652 0
1389 -1650 1652 0
-1389 1650 1652 0
-1389 -1650 -1652 0
1384 1652 -1653 0
1384 -1652 -1653 0
-1384 1652 -1653 0
-1384 -1652 1653 0
1384 1652 -1654 0
1384 -1652 1654 0
-1384 1652 1654 0
-1384 -1652 -1654 0
1651 1653 -1655 0
1651 -1653 1655 0
-1651 1653 1655 0
-1651 -1653 -1655 0
9 54 -1656 0
9 -54 -1656 0
-9 54 -1656 0
-9 -54 1656 0
1395 1656 -1657 0
1395 -1656 -1657 0
-1395 1656 -1657 0
-1395 -1656 1657 0
1395 1656 -1658 0
1395 -1656 1658 0
-1395 1656 1658 0
-1395 -1656 -1658 0
1390 1658 -1659 0
1390 -1658 -1659 0
-1390 1658 -1659 0
-1390 -1658 1659 0
1390 1658 -1660 0
1390 -1658 1660 0
-1390 1658 1660 0
-1390 -1658 -1660 0
1657 1659 -1661 0
1657 -1659 1661 0
-1657 1659 1661 0
-1657 -1659 -1661 0
10 54 -1662 0
10 -54 -1662 0
-10 54 -1662 0
-10 -54 1662 0
1401 1662 -1663 0
1401 -1662 -1663 0
-1401 1662 -1663 0
-1401 -1662 1663 0
1401 1662 -1664 0
1401 -1662 1664 0
-1401 1662 1664 0
-1401 -1662 -1664 0
1396 1664 -1665 0
1396 -1664 -1665 0
-1396 1664 -1665 0
-1396 -1664 1665 0
1396 1664 -1666 0
1396 -1664 1666 0
-1396 1664 1666 0
-1396 -1664 -1666 0
1663 1665 -1667 0
1663 -1665 1667 0
-1663 1665 1667 0
-1663 -1665 -1667 0
11 54 -1668 0
11 -54 -1668 0
-11 54 -1668 0
-11 -54 1668 0
1407 1668 -1669 0
1407 -1668 -1669 0
-1407 1668 -1669 0
-1407 -1668 1669 0
1407 1668 -1670 0
1407 -1668 1670 0
-1407 1668 1670 0
-1407 -1668 -1670 0
1402 1670 -1671 0
1402 -1670 -1671 0
-1402 1670 -1671 0
-1402 -1670 1671 0
1402 1670 -1672 0
1402 -1670 1672 0
-1402 1670 1672 0
-1402 -1670 -1672 0
1669 1671 -1673 0
1669 -1671 1673 0
-1669 1671 1673 0
-1669 -1671 -1673 0
12 54 -1674 0
12 -54 -1674 0
-12 54 -1674 0
-12 -54 1674 0
1413 1674 -1675 0
1413 -1674 -1675 0
-1413 1674 -1675 0
-1413 -1674 1675 0
1413 1674 -1676 0
1413 -1674 1676 0
-1413 1674 1676 0
-1413 -1674 -1676 0
1408 1676 -1677 0
1408 -1676 -1677 0
-1408 1676 -1677 0
-1408 -1676 1677 0
1408 1676 -1678 0
1408 -1676 1678 0
-1408 1676 1678 0
-1408 -1676 -1678 0
1675 1677 -1679 0
1675 -1677 1679 0
-1675 1677 1679 0
-1675 -1677 -1679 0
13 54 -1680 0
13 -54 -1680 0
-13 54 -1680 0
-13 -54 1680 0
1419 1680 -1681 0
1419 -1680 -1681 0
-1419 1680 -1681 0
-1419 -1680 1681 0
1419 1680 -1682 0
1419 -1680 1682 0
-1419 1680 1682 0
-1419 -1680 -1682 0
1414 1682 -1683 0
1414 -1682 -1683 0
-1414 1682 -1683 0
-1414 -1682 1683 0
1414 1682 -1684 0
1414 -1682 1684 0
-1414 1682 1684 0
-1414 -1682 -1684 0
1681 1683 -1685 0
1681 -1683 1685 0
-1681 1683 1685 0
-1681 -1683 -1685 0
14 54 -1686 0
14 -54 -1686 0
-14 54 -1686 0
-14 -54 1686 0
1425 1686 -1687 0
1425 -1686 -1687 0
-1425 1686 -1687 0
-1425 -1686 1687 0
1425 1686 -1688 0
1425 -1686 1688 0
-1425 1686 1688 0
-1425 -1686 -1688 0
1420 1688 -1689 0
1420 -1688 -1689 0
-1420 1688 -1689 0
-1420 -1688 1689 0
1420 1688 -1690 0
1420 -1688 1690 0
-1420 1688 1690 0
-1420 -1688 -1690 0
1687 1689 -1691 0
1687 -1689 1691 0
-1687 1689 1691 0
-1687 -1689 -1691 0
15 54 -1692 0
15 -54 -1692 0
-15 54 -1692 0
-15 -54 1692 0
1431 1692 -1693 0
1431 -1692 -1693 0
-1431 1692 -1693 0
-1431 -1692 1693 0
1431 1692 -1694 0
1431 -1692 1694 0
-1431 1692 1694 0
-1431 -1692 -1694 0
1426 1694 -1695 0
1426 -1694 -1695 0
-1426 1694 -1695 0
-1426 -1694 1695 0
1426 1694 -1696 0
1426 -1694 1696 0
-1426 1694 1696 0
-1426 -1694 -1696 0
1693 1695 -1697 0
1693 -1695 1697 0
-1693 1695 1697 0
-1693 -1695 -1697 0
16 54 -1698 0
16 -54 -1698 0
-16 54 -1698 0
-16 -54 1698 0
1437 1698 -1699 0
1437 -1698 -1699 0
-1437 1698 -1699 0
-1437 -1698 1699 0
1437 1698 -1700 0
1437 -1698 1700 0
-1437 1698 1700 0
-1437 -1698 -1700 0
1432 1700 -1701 0
1432 -1700 -1701 0
-1432 1700 -1701 0
-1432 -1700 1701 0
1432 1700 -1702 0
1432 -1700 1702 0
-1432 1700 1702 0
-1432 -1700 -1702 0
1699 1701 -1703 0
1699 -1701 1703 0
-1699 1701 1703 0
-1699 -1701 -1703 0
17 54 -1704 0
17 -54 -1704 0
-17 54 -1704 0
-17 -54 1704 0
1443 1704 -1705 0
1443 -1704 -1705 0
-1443 1704 -1705 0
-1443 -1704 1705 0
1443 1704 -1706 0
1443 -1704 1706 0
-1443 1704 1706 0
-1443 -1704 -1706 0
1438 1706 -1707 0
1438 -1706 -1707 0
-1438 1706 -1707 0
-1438 -1706 1707 0
1438 1706 -1708 0
1438 -1706 1708 0
-1438 1706 1708 0
-1438 -1706 -1708 0
1705 1707 -1709 0
1705 -1707 1709 0
-1705 1707 1709 0
-1705 -1707 -1709 0
18 54 -1710 0
18 -54 -1710 0
-18 54 -1710 0
-18 -54 1710 0
1449 1710 -1711 0
1449 -1710 -1711 0
-1449 1710 -1711 0
-1449 -1710 1711 0
1449 1710 -1712 0
1449 -1710 1712 0
-1449 1710 1712 0
-1449 -1710 -1712 0
1444 1712 -1713 0
1444 -1712 -1713 0
-1444 1712 -1713 0
-1444 -1712 1713 0
1444 1712 -1714 0
1444 -1712 1714 0
-1444 1712 1714 0
-1444 -1712 -1714 0
1711 1713 -1715 0
1711 -1713 1715 0
-1711 1713 1715 0
-1711 -1713 -1715 0
19 54 -1716 0
19 -54 -1716 0
-19 54 -1716 0
-19 -54 1716 0
1455 1716 -1717 0
1455 -1716 -1717 0
-1455 1716 -1717 0
-1455 -1716 1717 0
1455 1716 -1718 0
1455 -1716 1718 0
-1455 1716 1718 0
-1455 -1716 -1718 0
1450 1718 -1719 0
1450 -1718 -1719 0
-1450 1718 -1719 0
-1450 -1718 1719 0
1450 1718 -1720 0
1450 -1718 1720 0
-1450 1718 1720 0
-1450 -1718 -1720 0
1717 1719 -1721 0
1717 -1719 1721 0
-1717 1719 1721 0
-1717 -1719 -1721 0
20 54 -1722 0
20 -54 -1722 0
-20 54 -1722 0
-20 -54 1722 0
1461 1722 -1723 0
1461 -1722 -1723 0
-1461 1722 -1723 0
-1461 -1722 1723 0
1461 1722 -1724 0
1461 -1722 1724 0
-1461 1722 1724 0
-1461 -1722 -1724 0
1456 1724 -1725 0
1456 -1724 -1725 0
-1456 1724 -1725 0
-1456 -1724 1725 0
1456 1724 -1726 0
1456 -1724 1726 0
-1456 1724 1726 0
-1456 -1724 -1726 0
1723 1725 -1727 0
1723 -1725 1727 0
-1723 1725 1727 0
-1723 -1725 -1727 0
21 54 -1728 0
21 -54 -1728 0
-21 54 -1728 0
-21 -54 1728 0
1467 1728 -1729 0
1467 -1728 -1729 0
-1467 1728 -1729 0
-1467 -1728 1729 0
1467 1728 -1730 0
1467 -1728 1730 0
-1467 1728 1730 0
-1467 -1728 -1730 0
1462 1730 -1731 0
1462 -1730 -1731 0
-1462 1730 -1731 0
-1462 -1730 1731 0
1462 1730 -1732 0
1462 -1730 1732 0
-1462 1730 1732 0
-1462 -1730 -1732 0
1729 1731 -1733 0
1729 -1731 1733 0
-1729 1731 1733 0
-1729 -1731 -1733 0
22 54 -1734 0
22 -54 -1734 0
-22 54 -1734 0
-22 -54 1734 0
1473 1734 -1735 0
1473 -1734 -1735 0
-1473 1734 -1735 0
-1473 -1734 1735 0
1473 1734 -1736 0
1473 -1734 1736 0
-1473 1734 1736 0
-1473 -1734 -1736 0
1468 1736 -1737 0
1468 -1736 -1737 0
-1468 1736 -1737 0
-1468 -1736 1737 0
1468 1736 -1738 0
1468 -1736 1738 0
-1468 1736 1738 0
-1468 -1736 -1738 0
1735 1737 -1739 0
1735 -1737 1739 0
-1735 1737 1739 0
-1735 -1737 -1739 0
23 54 -1740 0
23 -54 -1740 0
-23 54 -1740 0
-23 -54 1740 0
1479 1740 -1741 0
1479 -1740 -1741 0
-1479 1740 -1741 0
-1479 -1740 1741 0
1479 1740 -1742 0
1479 -1740 1742 0
-1479 1740 1742 0
-1479 -1740 -1742 0
1474 1742 -1743 0
1474 -1742 -1743 0
-1474 1742 -1743 0
-1474 -1742 1743 0
1474 1742 -1744 0
1474 -1742 1744 0
-1474 1742 1744 0
-1474 -1742 -1744 0
1741 1743 -1745 0
1741 -1743 1745 0
-1741 1743 1745 0
-1741 -1743 -1745 0
24 54 -1746 0
24 -54 -1746 0
-24 54 -1746 0
-24 -54 1746 0
1485 1746 -1747 0
1485 -1746 -1747 0
-1485 1746 -1747 0
-1485 -1746 1747 0
1485 1746 -1748 0
1485 -1746 1748 0
-1485 1746 1748 0
-1485 -1746 -1748 0
1480 1748 -1749 0
1480 -1748 -1749 0
-1480 1748 -1749 0
-1480 -1748 1749 0
1480 1748 -1750 0
1480 -1748 1750 0
-1480 1748 1750 0
-1480 -1748 -1750 0
1747 1749 -1751 0
1747 -1749 1751 0
-1747 1749 1751 0
-1747 -1749 -1751 0
25 54 -1752 0
25 -54 -1752 0
-25 54 -1752 0
-25 -54 1752 0
1491 1752 -1753 0
1491 -1752 -1753 0
-1491 1752 -1753 0
-1491 -1752 1753 0
1491 1752 -1754 0
1491 -1752 1754 0
-1491 1752 1754 0
-1491 -1752 -1754 0
1486 1754 -1755 0
1486 -1754 -1755 0
-1486 1754 -1755 0
-1486 -1754 1755 0
1486 1754 -1756 0
1486 -1754 1756 0
-1486 1754 1756 0
-1486 -1754 -1756 0
1753 1755 -1757 0
1753 -1755 1757 0
-1753 1755 1757 0
-1753 -1755 -1757 0
26 54 -1758 0
26 -54 -1758 0
-26 54 -1758 0
-26 -54 1758 0
1497 1758 -1759 0
1497 -1758 -1759 0
-1497 1758 -1759 0
-1497 -1758 1759 0
1497 1758 -1760 0
1497 -1758 1760 0
-1497 1758 1760 0
-1497 -1758 -1760 0
1492 1760 -1761 0
1492 -1760 -1761 0
-1492 1760 -1761 0
-1492 -1760 1761 0
1492 1760 -1762 0
1492 -1760 1762 0
-1492 1760 1762 0
-1492 -1760 -1762 0
1759 1761 -1763 0
1759 -1761 1763 0
-1759 1761 1763 0
-1759 -1761 -1763 0
27 54 -1764 0
27 -54 -1764 0
-27 54 -1764 0
-27 -54 1764 0
1503 1764 -1765 0
1503 -1764 -1765 0
-1503 1764 -1765 0
-1503 -1764 1765 0
1503 1764 -1766 0
1503 -1764 1766 0
-1503 1764 1766 0
-1503 -1764 -1766 0
1498 1766 -1767 0
1498 -1766 -1767 0
-1498 1766 -1767 0
-1498 -1766 1767 0
1498 1766 -1768 0
1498 -1766 1768 0
-1498 1766 1768 0
-1498 -1766 -1768 0
1765 1767 -1769 0
1765 -1767 1769 0
-1765 1767 1769 0
-1765 -1767 -1769 0
28 54 -1770 0
28 -54 -1770 0
-28 54 -1770 0
-28 -54 1770 0
1509 1770 -1771 0
1509 -1770 -1771 0
-1509 1770 -1771 0
-1509 -1770 1771 0
1509 1770 -1772 0
1509 -1770 1772 0
-1509 1770 1772 0
-1509 -1770 -1772 0
1504 1772 -1773 0
1504 -1772 -1773 0
-1504 1772 -1773 0
-1504 -1772 1773 0
1504 1772 -1774 0
1504 -1772 1774 0
-1504 1772 1774 0
-1504 -1772 -1774 0
1771 1773 -1775 0
1771 -1773 1775 0
-1771 1773 1775 0
-1771 -1773 -1775 0
29 54 -1776 0
29 -54 -1776 0
-29 54 -1776 0
-29 -54 1776 0
1515 1776 -1777 0
1515 -1776 -1777 0
-1515 1776 -1777 0
-1515 -1776 1777 0
1515 1776 -1778 0
1515 -1776 1778 0
-1515 1776 1778 0
-1515 -1776 -1778 0
1510 1778 -1779 0
1510 -1778 -1779 0
-1510 1778 -1779 0
-1510 -1778 1779 0
1510 1778 -1780 0
1510 -1778 1780 0
-1510 1778 1780 0
-1510 -1778 -1780 0
1777 1779 -1781 0
1777 -1779 1781 0
-1777 1779 1781 0
-1777 -1779 -1781 0
30 54 -1782 0
30 -54 -1782 0
-30 54 -1782 0
-30 -54 1782 0
1521 1782 -1783 0
1521 -1782 -1783 0
-1521 1782 -1783 0
-1521 -1782 1783 0
1521 1782 -1784 0
1521 -1782 1784 0
-1521 1782 1784 0
-1521 -1782 -1784 0
1516 1784 -1785 0
1516 -1784 -1785 0
-1516 1784 -1785 0
-1516 -1784 1785 0
1516 1784 -1786 0
1516 -1784 1786 0
-1516 1784 1786 0
-1516 -1784 -1786 0
1783 1785 -1787 0
1783 -1785 1787 0
-1783 1785 1787 0
-1783 -1785 -1787 0
31 54 -1788 0
31 -54 -1788 0
-31 54 -1788 0
-31 -54 1788 0
1527 1788 -1789 0
1527 -1788 -1789 0
-1527 1788 -1789 0
-1527 -1788 1789 0
1527 1788 -1790 0
1527 -1788 1790 0
-1527 1788 1790 0
-1527 -1788 -1790 0
1522 1790 -1791 0
1522 -1790 -1791 0
-1522 1790 -1791 0
-1522 -1790 1791 0
1522 1790 -1792 0
1522 -1790 1792 0
-1522 1790 1792 0
-1522 -1790 -1792 0
1789 1791 -1793 0
1789 -1791 1793 0
-1789 1791 1793 0
-1789 -1791 -1793 0
32 54 -1794 0
32 -54 -1794 0
-32 54 -1794 0
-32 -54 1794 0
1533 1794 -1795 0
1533 -1794 -1795 0
-1533 1794 -1795 0
-1533 -1794 1795 0
1533 1794 -1796 0
1533 -1794 1796 0
-1533 1794 1796 0
-1533 -1794 -1796 0
1528 1796 -1797 0
1528 -1796 -1797 0
-1528 1796 -1797 0
-1528 -1796 1797 0
1528 1796 -1798 0
1528 -1796 1798 0
-1528 1796 1798 0
-1528 -1796 -1798 0
1795 1797 -1799 0
1795 -1797 1799 0
-1795 1797 1799 0
-1795 -1797 -1799 0
33 54 -1800 0
33 -54 -1800 0
-33 54 -1800 0
-33 -54 1800 0
1539 1800 -1801 0
1539 -1800 -1801 0
-1539 1800 -1801 0
-1539 -1800 1801 0
1539 1800 -1802 0
1539 -1800 1802 0
-1539 1800 1802 0
-1539 -1800 -1802 0
1534 1802 -1803 0
1534 -1802 -1803 0
-1534 1802 -1803 0
-1534 -1802 1803 0
1534 1802 -1804 0
1534 -1802 1804 0
-1534 1802 1804 0
-1534 -1802 -1804 0
1801 1803 -1805 0
1801 -1803 1805 0
-1801 1803 1805 0
-1801 -1803 -1805 0
34 54 -1806 0
34 -54 -1806 0
-34 54 -1806 0
-34 -54 1806 0
1545 1806 -1807 0
1545 -1806 -1807 0
-1545 1806 -1807 0
-1545 -1806 1807 0
1545 1806 -1808 0
1545 -1806 1808 0
-1545 1806 1808 0
-1545 -1806 -1808 0
1540 1808 -1809 0
1540 -1808 -1809 0
-1540 1808 -1809 0
-1540 -1808 1809 0
1540 1808 -1810 0
1540 -1808 1810 0
-1540 1808 1810 0
-1540 -1808 -1810 0
1807 1809 -1811 0
1807 -1809 1811 0
-1807 1809 1811 0
-1807 -1809 -1811 0
35 54 -1812 0
35 -54 -1812 0
-35 54 -1812 0
-35 -54 1812 0
1551 1812 -1813 0
1551 -1812 -1813 0
-1551 1812 -1813 0
-1551 -1812 1813 0
1551 1812 -1814 0
1551 -1812 1814 0
-1551 1812 1814 0
-1551 -1812 -1814 0
1546 1814 -1815 0
1546 -1814 -1815 0
-1546 1814 -1815 0
-1546 -1814 1815 0
1546 1814 -1816 0
1546 -1814 1816 0
-1546 1814 1816 0
-1546 -1814 -1816 0
1813 1815 -1817 0
1813 -1815 1817 0
-1813 1815 1817 0
-1813 -1815 -1817 0
36 54 -1818 0
36 -54 -1818 0
-36 54 -1818 0
-36 -54 1818 0
1557 1818 -1819 0
1557 -1818 -1819 0
-1557 1818 -1819 0
-1557 -1818 1819 0
1557 1818 -1820 0
1557 -1818 1820 0
-1557 1818 1820 0
-1557 -1818 -1820 0
1552 1820 -1821 0
1552 -1820 -1821 0
-1552 1820 -1821 0
-1552 -1820 1821 0
1552 1820 -1822 0
1552 -1820 1822 0
-1552 1820 1822 0
-1552 -1820 -1822 0
1819 1821 -1823 0
1819 -1821 1823 0
-1819 1821 1823 0
-1819 -1821 -1823 0
37 54 -1824 0
37 -54 -1824 0
-37 54 -1824 0
-37 -54 1824 0
1563 1824 -1825 0
1563 -1824 -1825 0
-1563 1824 -1825 0
-1563 -1824 1825 0
1563 1824 -1826 0
1563 -1824 1826 0
-1563 1824 1826 0
-1563 -1824 -1826 0
1558 1826 -1827 0
1558 -1826 -1827 0
-1558 1826 -1827 0
-1558 -1826 1827 0
1558 1826 -1828 0
1558 -1826 1828 0
-1558 1826 1828 0
-1558 -1826 -1828 0
1825 1827 -1829 0
1825 -1827 1829 0
-1825 1827 1829 0
-1825 -1827 -1829 0
38 54 -1830 0
38 -54 -1830 0
-38 54 -1830 0
-38 -54 1830 0
1569 1830 -1831 0
1569 -1830 -1831 0
-1569 1830 -1831 0
-1569 -1830 1831 0
1569 1830 -1832 0
1569 -1830 1832 0
-1569 1830 1832 0
-1569 -1830 -1832 0
1564 1832 -1833 0
1564 -1832 -1833 0
-1564 1832 -1833 0
-1564 -1832 1833 0
1564 1832 -1834 0
1564 -1832 1834 0
-1564 1832 1834 0
-1564 -1832 -1834 0
1831 1833 -1835 0
1831 -1833 1835 0
-1831 1833 1835 0
-1831 -1833 -1835 0
39 54 -1836 0
39 -54 -1836 0
-39 54 -1836 0
-39 -54 1836 0
1575 1836 -1837 0
1575 -1836 -1837 0
-1575 1836 -1837 0
-1575 -1836 1837 0
1575 1836 -1838 0
1575 -1836 1838 0
-1575 1836 1838 0
-1575 -1836 -1838 0
1570 1838 -1839 0
1570 -1838 -1839 0
-1570 1838 -1839 0
-1570 -1838 1839 0
1570 1838 -1840 0
1570 -1838 1840 0
-1570 1838 1840 0
-1570 -1838 -1840 0
1837 1839 -1841 0
1837 -1839 1841 0
-1837 1839 1841 0
-1837 -1839 -1841 0
40 54 -1842 0
40 -54 -1842 0
-40 54 -1842 0
-40 -54 1842 0
1581 1842 -1843 0
1581 -1842 -1843 0
-1581 1842 -1843 0
-1581 -1842 1843 0
1581 1842 -1844 0
1581 -1842 1844 0
-1581 1842 1844 0
-1581 -1842 -1844 0
1576 1844 -1845 0
1576 -1844 -1845 0
-1576 1844 -1845 0
-1576 -1844 1845 0
1576 1844 -1846 0
1576 -1844 1846 0
-1576 1844 1846 0
-1576 -1844 -1846 0
1843 1845 -1847 0
1843 -1845 1847 0
-1843 1845 1847 0
-1843 -1845 -1847 0
41 54 -1848 0
41 -54 -1848 0
-41 54 -1848 0
-41 -54 1848 0
1587 1848 -1849 0
1587 -1848 -1849 0
-1587 1848 -1849 0
-1587 -1848 1849 0
1587 1848 -1850 0
1587 -1848 1850 0
-1587 1848 1850 0
-1587 -1848 -1850 0
1582 1850 -1851 0
1582 -1850 -1851 0
-1582 1850 -1851 0
-1582 -1850 1851 0
1582 1850 -1852 0
1582 -1850 1852 0
-1582 1850 1852 0
-1582 -1850 -1852 0
1849 1851 -1853 0
1849 -1851 1853 0
-1849 1851 1853 0
-1849 -1851 -1853 0
42 54 -1854 0
42 -54 -1854 0
-42 54 -1854 0
-42 -54 1854 0
1593 1854 -1855 0
1593 -1854 -1855 0
-1593 1854 -1855 0
-1593 -1854 1855 0
1593 1854 -1856 0
1593 -1854 1856 0
-1593 1854 1856 0
-1593 -1854 -1856 0
1588 1856 -1857 0
1588 -1856 -1857 0
-1588 1856 -1857 0
-1588 -1856 1857 0
1588 1856 -1858 0
1588 -1856 1858 0
-1588 1856 1858 0
-1588 -1856 -1858 0
1855 1857 -1859 0
1855 -1857 1859 0
-1855 1857 1859 0
-1855 -1857 -1859 0
43 54 -1860 0
43 -54 -1860 0
-43 54 -1860 0
-43 -54 1860 0
1599 1860 -1861 0
1599 -1860 -1861 0
-1599 1860 -1861 0
-1599 -1860 1861 0
1599 1860 -1862 0
1599 -1860 1862 0
-1599 1860 1862 0
-1599 -1860 -1862 0
1594 1862 -1863 0
1594 -1862 -1863 0
-1594 1862 -1863 0
-1594 -1862 1863 0
1594 1862 -1864 0
1594 -1862 1864 0
-1594 1862 1864 0
-1594 -1862 -1864 0
1861 1863 -1865 0
1861 -1863 1865 0
-1861 1863 1865 0
-1861 -1863 -1865 0
44 54 -1866 0
44 -54 -1866 0
-44 54 -1866 0
-44 -54 1866 0
1605 1866 -1867 0
1605 -1866 -1867 0
-1605 1866 -1867 0
-1605 -1866 1867 0
1605 1866 -1868 0
1605 -1866 1868 0
-1605 1866 1868 0
-1605 -1866 -1868 0
1600 1868 -1869 0
1600 -1868 -1869 0
-1600 1868 -1869 0
-1600 -1868 1869 0
1600 1868 -1870 0
1600 -1868 1870 0
-1600 1868 1870 0
-1600 -1868 -1870 0
1867 1869 -1871 0
1867 -1869 1871 0
-1867 1869 1871 0
-1867 -1869 -1871 0
45 54 -1872 0
45 -54 -1872 0
-45 54 -1872 0
-45 -54 1872 0
1607 1872 -1873 0
1607 -1872 -1873 0
-1607 1872 -1873 0
-1607 -1872 1873 0
1607 1872 -1874 0
1607 -1872 1874 0
-1607 1872 1874 0
-1607 -1872 -1874 0
1606 1874 -1875 0
1606 -1874 -1875 0
-1606 1874 -1875 0
-1606 -1874 1875 0
1606 1874 -1876 0
1606 -1874 1876 0
-1606 1874 1876 0
-1606 -1874 -1876 0
1873 1875 -1877 0
1873 -1875 1877 0
-1873 1875 1877 0
-1873 -1875 -1877 0
46 54 -1878 0
46 -54 -1878 0
-46 54 -1878 0
-46 -54 1878 0
1 55 -1879 0
1 -55 -1879 0
-1 55 -1879 0
-1 -55 1879 0
1618 1879 -1880 0
1618 -1879 -1880 0
-1618 1879 -1880 0
-1618 -1879 1880 0
1618 1879 -1881 0
1618 -1879 1881 0
-1618 1879 1881 0
-1618 -1879 -1881 0
1613 1881 -1882 0
1613 -1881 -1882 0
-1613 1881 -1882 0
-1613 -1881 1882 0
1613 1881 -1883 0
1613 -1881 1883 0
-1613 1881 1883 0
-1613 -1881 -1883 0
1880 1882 -1884 0
1880 -1882 1884 0
-1880 1882 1884 0
-1880 -1882 -1884 0
2 55 -1885 0
2 -55 -1885 0
-2 55 -1885 0
-2 -55 1885 0
1624 1885 -1886 0
1624 -1885 -1886 0
-1624 1885 -1886 0
-1624 -1885 1886 0
1624 1885 -1887 0
1624 -1885 1887 0
-1624 1885 1887 0
-1624 -1885 -1887 0
1619 1887 -1888 0
1619 -1887 -1888 0
-1619 1887 -1888 0
-1619 -1887 1888 0
1619 1887 -1889 0
1619 -1887 1889 0
-1619 1887 1889 0
-1619 -1887 -1889 0
1886 1888 -1890 0
1886 -1888 1890 0
-1886 1888 1890 0
-1886 -1888 -1890 0
3 55 -1891 0
3 -55 -1891 0
-3 55 -1891 0
-3 -55 1891 0
1630 1891 -1892 0
1630 -1891 -1892 0
-1630 1891 -1892 0
-1630 -1891 1892 0
1630 1891 -1893 0
1630 -1891 1893 0
-1630 1891 1893 0
-1630 -1891 -1893 0
1625 1893 -1894 0
1625 -1893 -1894 0
-1625 1893 -1894 0
-1625 -1893 1894 0
1625 1893 -1895 0
1625 -1893 1895 0
-1625 1893 1895 0
-1625 -1893 -1895 0
1892 1894 -1896 0
1892 -1894 1896 0
-1892 1894 1896 0
-1892 -1894 -1896 0
4 55 -1897 0
4 -55 -1897 0
-4 55 -1897 0
-4 -55 1897 0
1636 1897 -1898 0
1636 -1897 -1898 0
-1636 1897 -1898 0
-1636 -1897 1898 0
1636 1897 -1899 0
1636 -1897 1899 0
-1636 1897 1899 0
-1636 -1897 -1899 0
1631 1899 -1900 0
1631 -1899 -1900 0
-1631 1899 -1900 0
-1631 -1899 1900 0
1631 1899 -1901 0
1631 -1899 1901 0
-1631 1899 1901 0
-1631 -1899 -1901 0
1898 1900 -1902 0
1898 -1900 1902 0
-1898 1900 1902 0
-1898 -1900 -1902 0
5 55 -1903 0
5 -55 -1903 0
-5 55 -1903 0
-5 -55 1903 0
1642 1903 -1904 0
1642 -1903 -1904 0
-1642 1903 -1904 0
-1642 -1903 1904 0
1642 1903 -1905 0
1642 -1903 1905 0
-1642 1903 1905 0
-1642 -1903 -1905 0
1637 1905 -1906 0
1637 -1905 -1906 0
-1637 1905 -1906 0
-1637 -1905 1906 0
1637 1905 -1907 0
1637 -1905 1907 0
-1637 1905 1907 0
-1637 -1905 -1907 0
1904 1906 -1908 0
1904 -1906 1908 0
-1904 1906 1908 0
-1904 -1906 -1908 0
6 55 -1909 0
6 -55 -1909 0
-6 55 -1909 0
-6 -55 1909 0
1648 1909 -1910 0
1648 -1909 -1910 0
-1648 1909 -1910 0
-1648 -1909 1910 0
1648 1909 -1911 0
1648 -1909 1911 0
-1648 1909 1911 0
-1648 -1909 -1911 0
1643 1911 -1912 0
1643 -1911 -1912 0
-1643 1911 -1912 0
-1643 -1911 1912 0
1643 1911 -1913 0
1643 -1911 1913 0
-1643 1911 1913 0
-1643 -1911 -1913 0
1910 1912 -1914 0
1910 -1912 1914 0
-1910 1912 1914 0
-1910 -1912 -1914 0
7 55 -1915 0
7 -55 -1915 0
-7 55 -1915 0
-7 -55 1915 0
1654 1915 -1916 0
1654 -1915 -1916 0
-1654 1915 -1916 0
-1654 -1915 1916 0
1654 1915 -1917 0
1654 -1915 1917 0
-1654 1915 1917 0
-1654 -1915 -1917 0
1649 1917 -1918 0
1649 -1917 -1918 0
-1649 1917 -1918 0
-1649 -1917 1918 0
1649 1917 -1919 0
1649 -1917 1919 0
-1649 1917 1919 0
-1649 -1917 -1919 0
1916 1918 -1920 0
1916 -1918 1920 0
-1916 1918 1920 0
-1916 -1918 -1920 0
8 55 -1921 0
8 -55 -1921 0
-8 55 -1921 0
-8 -55 1921 0
1660 1921 -1922 0
1660 -1921 -1922 0
-1660 1921 -1922 0
-1660 -1921 1922 0
1660 1921 -1923 0
1660 -1921 1923 0
-1660 1921 1923 0
-1660 -1921 -1923 0
1655 1923 -1924 0
1655 -1923 -1924 0
-1655 1923 -1924 0
-1655 -1923 1924 0
1655 1923 -1925 0
1655 -1923 1925 0
-1655 1923 1925 0
-1655 -1923 -1925 0
1922 1924 -1926 0
1922 -1924 1926 0
-1922 1924 1926 0
-1922 -1924 -1926 0
9 55 -1927 0
9 -55 -1927 0
-9 55 -1927 0
-9 -55 1927 0
1666 1927 -1928 0
1666 -1927 -1928 0
-1666 1927 -1928 0
-1666 -1927 1928 0
1666 1927 -1929 0
1666 -1927 1929 0
-1666 1927 1929 0
-1666 -1927 -1929 0
1661 1929 -1930 0
1661 -1929 -1930 0
-1661 1929 -1930 0
-1661 -1929 1930 0
1661 1929 -1931 0
1661 -1929 1931 0
-1661 1929 1931 0
-1661 -1929 -1931 0
1928 1930 -1932 0
1928 -1930 1932 0
-1928 1930 1932 0
-1928 -1930 -1932 0
10 55 -1933 0
10 -55 -1933 0
-10 55 -1933 0
-10 -55 1933 0
1672 1933 -1934 0
1672 -1933 -1934 0
-1672 1933 -1934 0
-1672 -1933 1934 0
1672 1933 -1935 0
1672 -1933 1935 0
-1672 1933 1935 0
-1672 -1933 -1935 0
1667 1935 -1936 0
1667 -1935 -1936 0
-1667 1935 -1936 0
-1667 -1935 1936 0
1667 1935 -1937 0
1667 -1935 1937 0
-1667 1935 1937 0
-1667 -1935 -1937 0
1934 1936 -1938 0
1934 -1936 1938 0
-1934 1936 1938 0
-1934 -1936 -1938 0
11 55 -1939 0
11 -55 -1939 0
-11 55 -1939 0
-11 -55 1939 0
1678 1939 -1940 0
1678 -1939 -1940 0
-1678 1939 -1940 0
-1678 -1939 1940 0
1678 1939 -1941 0
1678 -1939 1941 0
-1678 1939 1941 0
-1678 -1939 -1941 0
1673 1941 -1942 0
1673 -1941 -1942 0
-1673 1941 -1942 0
-1673 -1941 1942 0
1673 1941 -1943 0
1673 -1941 1943 0
-1673 1941 1943 0
-1673 -1941 -1943 0
1940 1942 -1944 0
1940 -1942 1944 0
-1940 1942 1944 0
-1940 -1942 -1944 0
12 55 -1945 0
12 -55 -1945 0
-12 55 -1945 0
-12 -55 1945 0
1684 1945 -1946 0
1684 -1945 -1946 0
-1684 1945 -1946 0
-1684 -1945 1946 0
1684 1945 -1947 0
1684 -1945 1947 0
-1684 1945 1947 0
-1684 -1945 -1947 0
1679 1947 -1948 0
1679 -1947 -1948 0
-1679 1947 -1948 0
-1679 -1947 1948 0
1679 1947 -1949 0
1679 -1947 1949 0
-1679 1947 1949 0
-1679 -1947 -1949 0
1946 1948 -1950 0
1946 -1948 1950 0
-1946 1948 1950 0
-1946 -1948 -1950 0
13 55 -1951 0
13 -55 -1951 0
-13 55 -1951 0
-13 -55 1951 0
1690 1951 -1952 0
1690 -1951 -1952 0
-1690 1951 -1952 0
-1690 -1951 1952 0
1690 1951 -1953 0
1690 -1951 1953 0
-1690 1951 1953 0
-1690 -1951 -1953 0
1685 1953 -1954 0
1685 -1953 -1954 0
-1685 1953 -1954 0
-1685 -1953 1954 0
1685 1953 -1955 0
1685 -1953 1955 0
-1685 1953 1955 0
-1685 -1953 -1955 0
1952 1954 -1956 0
1952 -1954 1956 0
-1952 1954 1956 0
-1952 -1954 -1956 0
14 55 -1957 0
14 -55 -1957 0
-14 55 -1957 0
-14 -55 1957 0
1696 1957 -1958 0
1696 -1957 -1958 0
-1696 1957 -1958 0
-1696 -1957 1958 0
1696 1957 -1959 0
1696 -1957 1959 0
-1696 1957 1959 0
-1696 -1957 -1959 0
1691 1959 -1960 0
1691 -1959 -1960 0
-1691 1959 -1960 0
-1691 -1959 1960 0
1691 1959 -1961 0
1691 -1959 1961 0
-1691 1959 1961 0
-1691 -1959 -1961 0
1958 1960 -1962 0
1958 -1960 1962 0
-1958 1960 1962 0
-1958 -1960 -1962 0
15 55 -1963 0
15 -55 -1963 0
-15 55 -1963 0
-15 -55 1963 0
1702 1963 -1964 0
1702 -1963 -1964 0
-1702 1963 -1964 0
-1702 -1963 1964 0
1702 1963 -1965 0
1702 -1963 1965 0
-1702 1963 1965 0
-1702 -1963 -1965 0
1697 1965 -1966 0
1697 -1965 -1966 0
-1697 1965 -1966 0
-1697 -1965 1966 0
1697 1965 -1967 0
1697 -1965 1967 0
-1697 1965 1967 0
-1697 -1965 -1967 0
1964 1966 -1968 0
1964 -1966 1968 0
-1964 1966 1968 0
-1964 -1966 -1968 0
16 55 -1969 0
16 -55 -1969 0
-16 55 -1969 0
-16 -55 1969 0
1708 1969 -1970 0
1708 -1969 -1970 0
-1708 1969 -1970 0
-1708 -1969 1970 0
1708 1969 -1971 0
1708 -1969 1971 0
-1708 1969 1971 0
-1708 -1969 -1971 0
1703 1971 -1972 0
1703 -1971 -1972 0
-1703 1971 -1972 0
-1703 -1971 1972 0
1703 1971 -1973 0
1703 -1971 1973 0
-1703 1971 1973 0
-1703 -1971 -1973 0
1970 1972 -1974 0
1970 -1972 1974 0
-1970 1972 1974 0
-1970 -1972 -1974 0
17 55 -1975 0
17 -55 -1975 0
-17 55 -1975 0
-17 -55 1975 0
1714 1975 -1976 0
1714 -1975 -1976 0
-1714 1975 -1976 0
-1714 -1975 1976 0
1714 1975 -1977 0
1714 -1975 1977 0
-1714 1975 1977 0
-1714 -1975 -1977 0
1709 1977 -1978 0
1709 -1977 -1978 0
-1709 1977 -1978 0
-1709 -1977 1978 0
1709 1977 -1979 0
1709 -1977 1979 0
-1709 1977 1979 0
-1709 -1977 -1979 0
1976 1978 -1980 0
1976 -1978 1980 0
-1976 1978 1980 0
-1976 -1978 -1980 0
18 55 -1981 0
18 -55 -1981 0
-18 55 -1981 0
-18 -55 1981 0
1720 1981 -1982 0
1720 -1981 -1982 0
-1720 1981 -1982 0
-1720 -1981 1982 0
1720 1981 -1983 0
1720 -1981 1983 0
-1720 1981 1983 0
-1720 -1981 -1983 0
1715 1983 -1984 0
1715 -1983 -1984 0
-1715 1983 -1984 0
-1715 -1983 1984 0
1715 1983 -1985 0
1715 -1983 1985 0
-1715 1983 1985 0
-1715 -1983 -1985 0
1982 1984 -1986 0
1982 -1984 1986 0
-1982 1984 1986 0
-1982 -1984 -1986 0
19 55 -1987 0
19 -55 -1987 0
-19 55 -1987 0
-19 -55 1987 0
1726 1987 -1988 0
1726 -1987 -1988 0
-1726 1987 -1988 0
-1726 -1987 1988 0
1726 1987 -1989 0
1726 -1987 1989 0
-1726 1987 1989 0
-1726 -1987 -1989 0
1721 1989 -1990 0
1721 -1989 -1990 0
-1721 1989 -1990 0
-1721 -1989 1990 0
1721 1989 -1991 0
1721 -1989 1991 0
-1721 1989 1991 0
-1721 -1989 -1991 0
1988 1990 -1992 0
1988 -1990 1992 0
-1988 1990 1992 0
-1988 -1990 -1992 0
20 55 -1993 0
20 -55 -1993 0
-20 55 -1993 0
-20 -55 1993 0
1732 1993 -1994 0
1732 -1993 -1994 0
-1732 1993 -1994 0
-1732 -1993 1994 0
1732 1993 -1995 0
1732 -1993 1995 0
-1732 1993 1995 0
-1732 -1993 -1995 0
1727 1995 -1996 0
1727 -1995 -1996 0
-1727 1995 -1996 0
-1727 -1995 1996 0
1727 1995 -1997 0
1727 -1995 1997 0
-1727 1995 1997 0
-1727 -1995 -1997 0
1994 1996 -1998 0
1994 -1996 1998 0
-1994 1996 1998 0
-1994 -1996 -1998 0
21 55 -1999 0
21 -55 -1999 0
-21 55 -1999 0
-21 -55 1999 0
1738 1999 -2000 0
1738 -1999 -2000 0
-1738 1999 -2000 0
-1738 -1999 2000 0
1738 1999 -2001 0
1738 -1999 2001 0
-1738 1999 2001 0
-1738 -1999 -2001 0
1733 2001 -2002 0
1733 -2001 -2002 0
-1733 2001 -2002 0
-1733 -2001 2002 0
1733 2001 -2003 0
1733 -2001 2003 0
-1733 2001 2003 0
-1733 -2001 -2003 0
2000 2002 -2004 0
2000 -2002 2004 0
-2000 2002 2004 0
-2000 -2002 -2004 0
22 55 -2005 0
22 -55 -2005 0
-22 55 -2005 0
-22 -55 2005 0
1744 2005 -2006 0
1744 -2005 -2006 0
-1744 2005 -2006 0
-1744 -2005 2006 0
1744 2005 -2007 0
1744 -2005 2007 0
-1744 2005 2007 0
-1744 -2005 -2007 0
1739 2007 -2008 0
1739 -2007 -2008 0
-1739 2007 -2008 0
-1739 -2007 2008 0
1739 2007 -2009 0
1739 -2007 2009 0
-1739 2007 2009 0
-1739 -2007 -2009 0
2006 2008 -2010 0
2006 -2008 2010 0
-2006 2008 2010 0
-2006 -2008 -2010 0
23 55 -2011 0
23 -55 -2011 0
-23 55 -2011 0
-23 -55 2011 0
1750 2011 -2012 0
1750 -2011 -2012 0
-1750 2011 -2012 0
-1750 -2011 2012 0
1750 2011 -2013 0
1750 -2011 2013 0
-1750 2011 2013 0
-1750 -2011 -2013 0
1745 2013 -2014 0
1745 -2013 -2014 0
-1745 2013 -2014 0
-1745 -2013 2014 0
1745 2013 -2015 0
1745 -2013 2015 0
-1745 2013 2015 0
-1745 -2013 -2015 0
2012 2014 -2016 0
2012 -2014 2016 0
-2012 2014 2016 0
-2012 -2014 -2016 0
24 55 -2017 0
24 -55 -2017 0
-24 55 -2017 0
-24 -55 2017 0
1756 2017 -2018 0
1756 -2017 -2018 0
-1756 2017 -2018 0
-1756 -2017 2018 0
1756 2017 -2019 0
1756 -2017 2019 0
-1756 2017 2019 0
-1756 -2017 -2019 0
1751 2019 -2020 0
1751 -2019 -2020 0
-1751 2019 -2020 0
-1751 -2019 2020 0
1751 2019 -2021 0
1751 -2019 2021 0
-1751 2019 2021 0
-1751 -2019 -2021 0
2018 2020 -2022 0
2018 -2020 2022 0
-2018 2020 2022 0
-2018 -2020 -2022 0
25 55 -2023 0
25 -55 -2023 0
-25 55 -2023 0
-25 -55 2023 0
1762 2023 -2024 0
1762 -2023 -2024 0
-1762 2023 -2024 0
-1762 -2023 2024 0
1762 2023 -2025 0
1762 -2023 2025 0
-1762 2023 2025 0
-1762 -2023 -2025 0
1757 2025 -2026 0
1757 -2025 -2026 0
-1757 2025 -2026 0
-1757 -2025 2026 0
1757 2025 -2027 0
1757 -2025 2027 0
-1757 2025 2027 0
-1757 -2025 -2027 0
2024 2026 -2028 0
2024 -2026 2028 0
-2024 2026 2028 0
-2024 -2026 -2028 0
26 55 -2029 0
26 -55 -2029 0
-26 55 -2029 0
-26 -55 2029 0
1768 2029 -2030 0
1768 -2029 -2030 0
-1768 2029 -2030 0
-1768 -2029 2030 0
1768 2029 -2031 0
1768 -2029 2031 0
-1768 2029 2031 0
-1768 -2029 -2031 0
1763 2031 -2032 0
1763 -2031 -2032 0
-1763 2031 -2032 0
-1763 -2031 2032 0
1763 2031 -2033 0
1763 -2031 2033 0
-1763 2031 2033 0
-1763 -2031 -2033 0
2030 2032 -2034 0
2030 -2032 2034 0
-2030 2032 2034 0
-2030 -2032 -2034 0
27 55 -2035 0
27 -55 -2035 0
-27 55 -2035 0
-27 -55 2035 0
1774 2035 -2036 0
1774 -2035 -2036 0
-1774 2035 -2036 0
-1774 -2035 2036 0
1774 2035 -2037 0
1774 -2035 2037 0
-1774 2035 2037 0
-1774 -2035 -2037 0
1769 2037 -2038 0
1769 -2037 -2038 0
-1769 2037 -2038 0
-1769 -2037 2038 0
1769 2037 -2039 0
1769 -2037 2039 0
-1769 2037 2039 0
-1769 -2037 -2039 0
2036 2038 -2040 0
2036 -2038 2040 0
-2036 2038 2040 0
-2036 -2038 -2040 0
28 55 -2041 0
28 -55 -2041 0
-28 55 -2041 0
-28 -55 2041 0
1780 2041 -2042 0
1780 -2041 -2042 0
-1780 2041 -2042 0
-1780 -2041 2042 0
1780 2041 -2043 0
1780 -2041 2043 0
-1780 2041 2043 0
-1780 -2041 -2043 0
1775 2043 -2044 0
1775 -2043 -2044 0
-1775 2043 -2044 0
-1775 -2043 2044 0
1775 2043 -2045 0
1775 -2043 2045 0
-1775 2043 2045 0
-1775 -2043 -2045 0
2042 2044 -2046 0
2042 -2044 2046 0
-2042 2044 2046 0
-2042 -2044 -2046 0
29 55 -2047 0
29 -55 -2047 0
-29 55 -2047 0
-29 -55 2047 0
1786 2047 -2048 0
1786 -2047 -2048 0
-1786 2047 -2048 0
-1786 -2047 2048 0
1786 2047 -2049 0
1786 -2047 2049 0
-1786 2047 2049 0
-1786 -2047 -2049 0
1781 2049 -2050 0
1781 -2049 -2050 0
-1781 2049 -2050 0
-1781 -2049 2050 0
1781 2049 -2051 0
1781 -2049 2051 0
-1781 2049 2051 0
-1781 -2049 -2051 0
2048 2050 -2052 0
2048 -2050 2052 0
-2048 2050 2052 0
-2048 -2050 -2052 0
30 55 -2053 0
30 -55 -2053 0
-30 55 -2053 0
-30 -55 2053 0
1792 2053 -2054 0
1792 -2053 -2054 0
-1792 2053 -2054 0
-1792 -2053 2054 0
1792 2053 -2055 0
1792 -2053 2055 0
-1792 2053 2055 0
-1792 -2053 -2055 0
1787 2055 -2056 0
1787 -2055 -2056 0
-1787 2055 -2056 0
-1787 -2055 2056 0
1787 2055 -2057 0
1787 -2055 2057 0
-1787 2055 2057 0
-1787 -2055 -2057 0
2054 2056 -2058 0
2054 -2056 2058 0
-2054 2056 2058 0
-2054 -2056 -2058 0
31 55 -2059 0
31 -55 -2059 0
-31 55 -2059 0
-31 -55 2059 0
1798 2059 -2060 0
1798 -2059 -2060 0
-1798 2059 -2060 0
-1798 -2059 2060 0
1798 2059 -2061 0
1798 -2059 2061 0
-1798 2059 2061 0
-1798 -2059 -2061 0
1793 2061 -2062 0
1793 -2061 -2062 0
-1793 2061 -2062 0
-1793 -2061 2062 0
1793 2061 -2063 0
1793 -2061 2063 0
-1793 2061 2063 0
-1793 -2061 -2063 0
2060 2062 -2064 0
2060 -2062 2064 0
-2060 2062 2064 0
-2060 -2062 -2064 0
32 55 -2065 0
32 -55 -2065 0
-32 55 -2065 0
-32 -55 2065 0
1804 2065 -2066 0
1804 -2065 -2066 0
-1804 2065 -2066 0
-1804 -2065 2066 0
1804 2065 -2067 0
1804 -2065 2067 0
-1804 2065 2067 0
-1804 -2065 -2067 0
1799 2067 -2068 0
1799 -2067 -2068 0
-1799 2067 -2068 0
-1799 -2067 2068 0
1799 2067 -2069 0
1799 -2067 2069 0
-1799 2067 2069 0
-1799 -2067 -2069 0
2066 2068 -2070 0
2066 -2068 2070 0
-2066 2068 2070 0
-2066 -2068 -2070 0
33 55 -2071 0
33 -55 -2071 0
-33 55 -2071 0
-33 -55 2071 0
1810 2071 -2072 0
1810 -2071 -2072 0
-1810 2071 -2072 0
-1810 -2071 2072 0
1810 2071 -2073 0
1810 -2071 2073 0
-1810 2071 2073 0
-1810 -2071 -2073 0
1805 2073 -2074 0
1805 -2073 -2074 0
-1805 2073 -2074 0
-1805 -2073 2074 0
1805 2073 -2075 0
1805 -2073 2075 0
-1805 2073 2075 0
-1805 -2073 -2075 0
2072 2074 -2076 0
2072 -2074 2076 0
-2072 2074 2076 0
-2072 -2074 -2076 0
34 55 -2077 0
34 -55 -2077 0
-34 55 -2077 0
-34 -55 2077 0
1816 2077 -2078 0
1816 -2077 -2078 0
-1816 2077 -2078 0
-1816 -2077 2078 0
1816 2077 -2079 0
1816 -2077 2079 0
-1816 2077 2079 0
-1816 -2077 -2079 0
1811 2079 -2080 0
1811 -2079 -2080 0
-1811 2079 -2080 0
-1811 -2079 2080 0
1811 2079 -2081 0
1811 -2079 2081 0
-1811 2079 2081 0
-1811 -2079 -2081 0
2078 2080 -2082 0
2078 -2080 2082 0
-2078 2080 2082 0
-2078 -2080 -2082 0
35 55 -2083 0
35 -55 -2083 0
-35 55 -2083 0
-35 -55 2083 0
1822 2083 -2084 0
1822 -2083 -2084 0
-1822 2083 -2084 0
-1822 -2083 2084 0
1822 2083 -2085 0
1822 -2083 2085 0
-1822 2083 2085 0
-1822 -2083 -2085 0
1817 2085 -2086 0
1817 -2085 -2086 0
-1817 2085 -2086 0
-1817 -2085 2086 0
1817 2085 -2087 0
1817 -2085 2087 0
-1817 2085 2087 0
-1817 -2085 -2087 0
2084 2086 -2088 0
2084 -2086 2088 0
-2084 2086 2088 0
-2084 -2086 -2088 0
36 55 -2089 0
36 -55 -2089 0
-36 55 -2089 0
-36 -55 2089 0
1828 2089 -2090 0
1828 -2089 -2090 0
-1828 2089 -2090 0
-1828 -2089 2090 0
1828 2089 -2091 0
1828 -2089 2091 0
-1828 2089 2091 0
-1828 -2089 -2091 0
1823 2091 -2092 0
1823 -2091 -2092 0
-1823 2091 -2092 0
-1823 -2091 2092 0
1823 2091 -2093 0
1823 -2091 2093 0
-1823 2091 2093 0
-1823 -2091 -2093 0
2090 2092 -2094 0
2090 -2092 2094 0
-2090 2092 2094 0
-2090 -2092 -2094 0
37 55 -2095 0
37 -55 -2095 0
-37 55 -2095 0
-37 -55 2095 0
1834 2095 -2096 0
1834 -2095 -2096 0
-1834 2095 -2096 0
-1834 -2095 2096 0
1834 2095 -2097 0
1834 -2095 2097 0
-1834 2095 2097 0
-1834 -2095 -2097 0
1829 2097 -2098 0
1829 -2097 -2098 0
-1829 2097 -2098 0
-1829 -2097 2098 0
1829 2097 -2099 0
1829 -2097 2099 0
-1829 2097 2099 0
-1829 -2097 -2099 0
2096 2098 -2100 0
2096 -2098 2100 0
-2096 2098 2100 0
-2096 -2098 -2100 0
38 55 -2101 0
38 -55 -2101 0
-38 55 -2101 0
-38 -55 2101 0
1840 2101 -2102 0
1840 -2101 -2102 0
-1840 2101 -2102 0
-1840 -2101 2102 0
1840 2101 -2103 0
1840 -2101 2103 0
-1840 2101 2103 0
-1840 -2101 -2103 0
1835 2103 -2104 0
1835 -2103 -2104 0
-1835 2103 -2104 0
-1835 -2103 2104 0
1835 2103 -2105 0
1835 -2103 2105 0
-1835 2103 2105 0
-1835 -2103 -2105 0
2102 2104 -2106 0
2102 -2104 2106 0
-2102 2104 2106 0
-2102 -2104 -2106 0
39 55 -2107 0
39 -55 -2107 0
-39 55 -2107 0
-39 -55 2107 0
1846 2107 -2108 0
1846 -2107 -2108 0
-1846 2107 -2108 0
-1846 -2107 2108 0
1846 2107 -2109 0
1846 -2107 2109 0
-1846 2107 2109 0
-1846 -2107 -2109 0
1841 2109 -2110 0
1841 -2109 -2110 0
-1841 2109 -2110 0
-1841 -2109 2110 0
1841 2109 -2111 0
1841 -2109 2111 0
-1841 2109 2111 0
-1841 -2109 -2111 0
2108 2110 -2112 0
2108 -2110 2112 0
-2108 2110 2112 0
-2108 -2110 -2112 0
40 55 -2113 0
40 -55 -2113 0
-40 55 -2113 0
-40 -55 2113 0
1852 2113 -2114 0
1852 -2113 -2114 0
-1852 2113 -2114 0
-1852 -2113 2114 0
1852 2113 -2115 0
1852 -2113 2115 0
-1852 2113 2115 0
-1852 -2113 -2115 0
1847 2115 -2116 0
1847 -2115 -2116 0
-1847 2115 -2116 0
-1847 -2115 2116 0
1847 2115 -2117 0
1847 -2115 2117 0
-1847 2115 2117 0
-1847 -2115 -2117 0
2114 2116 -2118 0
2114 -2116 2118 0
-2114 2116 2118 0
-2114 -2116 -2118 0
41 55 -2119 0
41 -55 -2119 0
-41 55 -2119 0
-41 -55 2119 0
1858 2119 -2120 0
1858 -2119 -2120 0
-1858 2119 -2120 0
-1858 -2119 2120 0
1858 2119 -2121 0
1858 -2119 2121 0
-1858 2119 2121 0
-1858 -2119 -2121 0
1853 2121 -2122 0
1853 -2121 -2122 0
-1853 2121 -2122 0
-1853 -2121 2122 0
1853 2121 -2123 0
1853 -2121 2123 0
-1853 2121 2123 0
-1853 -2121 -2123 0
2120 2122 -2124 0
2120 -2122 2124 0
-2120 2122 2124 0
-2120 -2122 -2124 0
42 55 -2125 0
42 -55 -2125 0
-42 55 -2125 0
-42 -55 2125 0
1864 2125 -2126 0
1864 -2125 -2126 0
-1864 2125 -2126 0
-1864 -2125 2126 0
1864 2125 -2127 0
1864 -2125 2127 0
-1864 2125 2127 0
-1864 -2125 -2127 0
1859 2127 -2128 0
1859 -2127 -2128 0
-1859 2127 -2128 0
-1859 -2127 2128 0
1859 2127 -2129 0
1859 -2127 2129 0
-1859 2127 2129 0
-1859 -2127 -2129 0
2126 2128 -2130 0
2126 -2128 2130 0
-2126 2128 2130 0
-2126 -2128 -2130 0
43 55 -2131 0
43 -55 -2131 0
-43 55 -2131 0
-43 -55 2131 0
1870 2131 -2132 0
1870 -2131 -2132 0
-1870 2131 -2132 0
-1870 -2131 2132 0
1870 2131 -2133 0
1870 -2131 2133 0
-1870 2131 2133 0
-1870 -2131 -2133 0
1865 2133 -2134 0
1865 -2133 -2134 0
-1865 2133 -2134 0
-1865 -2133 2134 0
1865 2133 -2135 0
1865 -2133 2135 0
-1865 2133 2135 0
-1865 -2133 -2135 0
2132 2134 -2136 0
2132 -2134 2136 0
-2132 2134 2136 0
-2132 -2134 -2136 0
44 55 -2137 0
44 -55 -2137 0
-44 55 -2137 0
-44 -55 2137 0
1876 2137 -2138 0
1876 -2137 -2138 0
-1876 2137 -2138 0
-1876 -2137 2138 0
1876 2137 -2139 0
1876 -2137 2139 0
-1876 2137 2139 0
-1876 -2137 -2139 0
1871 2139 -2140 0
1871 -2139 -2140 0
-1871 2139 -2140 0
-1871 -2139 2140 0
1871 2139 -2141 0
1871 -2139 2141 0
-1871 2139 2141 0
-1871 -2139 -2141 0
2138 2140 -2142 0
2138 -2140 2142 0
-2138 2140 2142 0
-2138 -2140 -2142 0
45 55 -2143 0
45 -55 -2143 0
-45 55 -2143 0
-45 -55 2143 0
1878 2143 -2144 0
1878 -2143 -2144 0
-1878 2143 -2144 0
-1878 -2143 2144 0
1878 2143 -2145 0
1878 -2143 2145 0
-1878 2143 2145 0
-1878 -2143 -2145 0
1877 2145 -2146 0
1877 -2145 -2146 0
-1877 2145 -2146 0
-1877 -2145 2146 0
1877 2145 -2147 0
1877 -2145 2147 0
-1877 2145 2147 0
-1877 -2145 -2147 0
2144 2146 -2148 0
2144 -2146 2148 0
-2144 2146 2148 0
-2144 -2146 -2148 0
46 55 -2149 0
46 -55 -2149 0
-46 55 -2149 0
-46 -55 2149 0
1 56 -2150 0
1 -56 -2150 0
-1 56 -2150 0
-1 -56 2150 0
1889 2150 -2151 0
1889 -2150 -2151 0
-1889 2150 -2151 0
-1889 -2150 2151 0
1889 2150 -2152 0
1889 -2150 2152 0
-1889 2150 2152 0
-1889 -2150 -2152 0
1884 2152 -2153 0
1884 -2152 -2153 0
-1884 2152 -2153 0
-1884 -2152 2153 0
1884 2152 -2154 0
1884 -2152 2154 0
-1884 2152 2154 0
-1884 -2152 -2154 0
2151 2153 -2155 0
2151 -2153 2155 0
-2151 2153 2155 0
-2151 -2153 -2155 0
2 56 -2156 0
2 -56 -2156 0
-2 56 -2156 0
-2 -56 2156 0
1895 2156 -2157 0
1895 -2156 -2157 0
-1895 2156 -2157 0
-1895 -2156 2157 0
1895 2156 -2158 0
1895 -2156 2158 0
-1895 2156 2158 0
-1895 -2156 -2158 0
1890 2158 -2159 0
1890 -2158 -2159 0
-1890 2158 -2159 0
-1890 -2158 2159 0
1890 2158 -2160 0
1890 -2158 2160 0
-1890 2158 2160 0
-1890 -2158 -2160 0
2157 2159 -2161 0
2157 -2159 2161 0
-2157 2159 2161 0
-2157 -2159 -2161 0
3 56 -2162 0
3 -56 -2162 0
-3 56 -2162 0
-3 -56 2162 0
1901 2162 -2163 0
1901 -2162 -2163 0
-1901 2162 -2163 0
-1901 -2162 2163 0
1901 2162 -2164 0
1901 -2162 2164 0
-1901 2162 2164 0
-1901 -2162 -2164 0
1896 2164 -2165 0
1896 -2164 -2165 0
-1896 2164 -2165 0
-1896 -2164 2165 0
1896 2164 -2166 0
1896 -2164 2166 0
-1896 2164 2166 0
-1896 -2164 -2166 0
2163 2165 -2167 0
2163 -2165 2167 0
-2163 2165 2167 0
-2163 -2165 -2167 0
4 56 -2168 0
4 -56 -2168 0
-4 56 -2168 0
-4 -56 2168 0
1907 2168 -2169 0
1907 -2168 -2169 0
-1907 2168 -2169 0
-1907 -2168 2169 0
1907 2168 -2170 0
1907 -2168 2170 0
-1907 2168 2170 0
-1907 -2168 -2170 0
1902 2170 -2171 0
1902 -2170 -2171 0
-1902 2170 -2171 0
-1902 -2170 2171 0
1902 2170 -2172 0
1902 -2170 2172 0
-1902 2170 2172 0
-1902 -2170 -2172 0
2169 2171 -2173 0
2169 -2171 2173 0
-2169 2171 2173 0
-2169 -2171 -2173 0
5 56 -2174 0
5 -56 -2174 0
-5 56 -2174 0
-5 -56 2174 0
1913 2174 -2175 0
1913 -2174 -2175 0
-1913 2174 -2175 0
-1913 -2174 2175 0
1913 2174 -2176 0
1913 -2174 2176 0
-1913 2174 2176 0
-1913 -2174 -2176 0
1908 2176 -2177 0
1908 -2176 -2177 0
-1908 2176 -2177 0
-1908 -2176 2177 0
1908 2176 -2178 0
1908 -2176 2178 0
-1908 2176 2178 0
-1908 -2176 -2178 0
2175 2177 -2179 0
2175 -2177 2179 0
-2175 2177 2179 0
-2175 -2177 -2179 0
6 56 -2180 0
6 -56 -2180 0
-6 56 -2180 0
-6 -56 2180 0
1919 2180 -2181 0
1919 -2180 -2181 0
-1919 2180 -2181 0
-1919 -2180 2181 0
1919 2180 -2182 0
1919 -2180 2182 0
-1919 2180 2182 0
-1919 -2180 -2182 0
1914 2182 -2183 0
1914 -2182 -2183 0
-1914 2182 -2183 0
-1914 -2182 2183 0
1914 2182 -2184 0
1914 -2182 2184 0
-1914 2182 2184 0
-1914 -2182 -2184 0
2181 2183 -2185 0
2181 -2183 2185 0
-2181 2183 2185 0
-2181 -2183 -2185 0
7 56 -2186 0
7 -56 -2186 0
-7 56 -2186 0
-7 -56 2186 0
1925 2186 -2187 0
1925 -2186 -2187 0
-1925 2186 -2187 0
-1925 -2186 2187 0
1925 2186 -2188 0
1925 -2186 2188 0
-1925 2186 2188 0
-1925 -2186 -2188 0
1920 2188 -2189 0
1920 -2188 -2189 0
-1920 2188 -2189 0
-1920 -2188 2189 0
1920 2188 -2190 0
1920 -2188 2190 0
-1920 2188 2190 0
-1920 -2188 -2190 0
2187 2189 -2191 0
2187 -2189 2191 0
-2187 2189 2191 0
-2187 -2189 -2191 0
8 56 -2192 0
8 -56 -2192 0
-8 56 -2192 0
-8 -56 2192 0
1931 2192 -2193 0
1931 -2192 -2193 0
-1931 2192 -2193 0
-1931 -2192 2193 0
1931 2192 -2194 0
1931 -2192 2194 0
-1931 2192 2194 0
-1931 -2192 -2194 0
1926 2194 -2195 0
1926 -2194 -2195 0
-1926 2194 -2195 0
-1926 -2194 2195 0
1926 2194 -2196 0
1926 -2194 2196 0
-1926 2194 2196 0
-1926 -2194 -2196 0
2193 2195 -2197 0
2193 -2195 2197 0
-2193 2195 2197 0
-2193 -2195 -2197 0
9 56 -2198 0
9 -56 -2198 0
-9 56 -2198 0
-9 -56 2198 0
1937 2198 -2199 0
1937 -2198 -2199 0
-1937 2198 -2199 0
-1937 -2198 2199 0
1937 2198 -2200 0
1937 -2198 2200 0
-1937 2198 2200 0
-1937 -2198 -2200 0
1932 2200 -2201 0
1932 -2200 -2201 0
-1932 2200 -2201 0
-1932 -2200 2201 0
1932 2200 -2202 0
1932 -2200 2202 0
-1932 2200 2202 0
-1932 -2200 -2202 0
2199 2201 -2203 0
2199 -2201 2203 0
-2199 2201 2203 0
-2199 -2201 -2203 0
10 56 -2204 0
10 -56 -2204 0
-10 56 -2204 0
-10 -56 2204 0
1943 2204 -2205 0
1943 -2204 -2205 0
-1943 2204 -2205 0
-1943 -2204 2205 0
1943 2204 -2206 0
1943 -2204 2206 0
-1943 2204 2206 0
-1943 -2204 -2206 0
1938 2206 -2207 0
1938 -2206 -2207 0
-1938 2206 -2207 0
-1938 -2206 2207 0
1938 2206 -2208 0
1938 -2206 2208 0
-1938 2206 2208 0
-1938 -2206 -2208 0
2205 2207 -2209 0
2205 -2207 2209 0
-2205 2207 2209 0
-2205 -2207 -2209 0
11 56 -2210 0
11 -56 -2210 0
-11 56 -2210 0
-11 -56 2210 0
1949 2210 -2211 0
1949 -2210 -2211 0
-1949 2210 -2211 0
-1949 -2210 2211 0
1949 2210 -2212 0
1949 -2210 2212 0
-1949 2210 2212 0
-1949 -2210 -2212 0
1944 2212 -2213 0
1944 -2212 -2213 0
-1944 2212 -2213 0
-1944 -2212 2213 0
1944 2212 -2214 0
1944 -2212 2214 0
-1944 2212 2214 0
-1944 -2212 -2214 0
2211 2213 -2215 0
2211 -2213 2215 0
-2211 2213 2215 0
-2211 -2213 -2215 0
12 56 -2216 0
12 -56 -2216 0
-12 56 -2216 0
-12 -56 2216 0
1955 2216 -2217 0
1955 -2216 -2217 0
-1955 2216 -2217 0
-1955 -2216 2217 0
1955 2216 -2218 0
1955 -2216 2218 0
-1955 2216 2218 0
-1955 -2216 -2218 0
1950 2218 -2219 0
1950 -2218 -2219 0
-1950 2218 -2219 0
-1950 -2218 2219 0
1950 2218 -2220 0
1950 -2218 2220 0
-1950 2218 2220 0
-1950 -2218 -2220 0
2217 2219 -2221 0
2217 -2219 2221 0
-2217 2219 2221 0
-2217 -2219 -2221 0
13 56 -2222 0
13 -56 -2222 0
-13 56 -2222 0
-13 -56 2222 0
1961 2222 -2223 0
1961 -2222 -2223 0
-1961 2222 -2223 0
-1961 -2222 2223 0
1961 2222 -2224 0
1961 -2222 2224 0
-1961 2222 2224 0
-1961 -2222 -2224 0
1956 2224 -2225 0
1956 -2224 -2225 0
-1956 2224 -2225 0
-1956 -2224 2225 0
1956 2224 -2226 0
1956 -2224 2226 0
-1956 2224 2226 0
-1956 -2224 -2226 0
2223 2225 -2227 0
2223 -2225 2227 0
-2223 2225 2227 0
-2223 -2225 -2227 0
14 56 -2228 0
14 -56 -2228 0
-14 56 -2228 0
-14 -56 2228 0
1967 2228 -2229 0
1967 -2228 -2229 0
-1967 2228 -2229 0
-1967 -2228 2229 0
1967 2228 -2230 0
1967 -2228 2230 0
-1967 2228 2230 0
-1967 -2228 -2230 0
1962 2230 -2231 0
1962 -2230 -2231 0
-1962 2230 -2231 0
-1962 -2230 2231 0
1962 2230 -2232 0
1962 -2230 2232 0
-1962 2230 2232 0
-1962 -2230 -2232 0
2229 2231 -2233 0
2229 -2231 2233 0
-2229 2231 2233 0
-2229 -2231 -2233 0
15 56 -2234 0
15 -56 -2234 0
-15 56 -2234 0
-15 -56 2234 0
1973 2234 -2235 0
1973 -2234 -2235 0
-1973 2234 -2235 0
-1973 -2234 2235 0
1973 2234 -2236 0
1973 -2234 2236 0
-1973 2234 2236 0
-1973 -2234 -2236 0
1968 2236 -2237 0
1968 -2236 -2237 0
-1968 2236 -2237 0
-1968 -2236 2237 0
1968 2236 -2238 0
1968 -2236 2238 0
-1968 2236 2238 0
-1968 -2236 -2238 0
2235 2237 -2239 0
2235 -2237 2239 0
-2235 2237 2239 0
-2235 -2237 -2239 0
16 56 -2240 0
16 -56 -2240 0
-16 56 -2240 0
-16 -56 2240 0
1979 2240 -2241 0
1979 -2240 -2241 0
-1979 2240 -2241 0
-1979 -2240 2241 0
1979 2240 -2242 0
1979 -2240 2242 0
-1979 2240 2242 0
-1979 -2240 -2242 0
1974 2242 -2243 0
1974 -2242 -2243 0
-1974 2242 -2243 0
-1974 -2242 2243 0
1974 2242 -2244 0
1974 -2242 2244 0
-1974 2242 2244 0
-1974 -2242 -2244 0
2241 2243 -2245 0
2241 -2243 2245 0
-2241 2243 2245 0
-2241 -2243 -2245 0
17 56 -2246 0
17 -56 -2246 0
-17 56 -2246 0
-17 -56 2246 0
1985 2246 -2247 0
1985 -2246 -2247 0
-1985 2246 -2247 0
-1985 -2246 2247 0
1985 2246 -2248 0
1985 -2246 2248 0
-1985 2246 2248 0
-1985 -2246 -2248 0
1980 2248 -2249 0
1980 -2248 -2249 0
-1980 2248 -2249 0
-1980 -2248 2249 0
1980 2248 -2250 0
1980 -2248 2250 0
-1980 2248 2250 0
-1980 -2248 -2250 0
2247 2249 -2251 0
2247 -2249 2251 0
-2247 2249 2251 0
-2247 -2249 -2251 0
18 56 -2252 0
18 -56 -2252 0
-18 56 -2252 0
-18 -56 2252 0
1991 2252 -2253 0
1991 -2252 -2253 0
-1991 2252 -2253 0
-1991 -2252 2253 0
1991 2252 -2254 0
1991 -2252 2254 0
-1991 2252 2254 0
-1991 -2252 -2254 0
1986 2254 -2255 0
1986 -2254 -2255 0
-1986 2254 -2255 0
-1986 -2254 2255 0
1986 2254 -2256 0
1986 -2254 2256 0
-1986 2254 2256 0
-1986 -2254 -2256 0
2253 2255 -2257 0
2253 -2255 2257 0
-2253 2255 2257 0
-2253 -2255 -2257 0
19 56 -2258 0
19 -56 -2258 0
-19 56 -2258 0
-19 -56 2258 0
1997 2258 -2259 0
1997 -2258 -2259 0
-1997 2258 -2259 0
-1997 -2258 2259 0
1997 2258 -2260 0
1997 -2258 2260 0
-1997 2258 2260 0
-1997 -2258 -2260 0
1992 2260 -2261 0
1992 -2260 -2261 0
-1992 2260 -2261 0
-1992 -2260 2261 0
1992 2260 -2262 0
1992 -2260 2262 0
-1992 2260 2262 0
-1992 -2260 -2262 0
2259 2261 -2263 0
2259 -2261 2263 0
-2259 2261 2263 0
-2259 -2261 -2263 0
20 56 -2264 0
20 -56 -2264 0
-20 56 -2264 0
-20 -56 2264 0
2003 2264 -2265 0
2003 -2264 -2265 0
-2003 2264 -2265 0
-2003 -2264 2265 0
2003 2264 -2266 0
2003 -2264 2266 0
-2003 2264 2266 0
-2003 -2264 -2266 0
1998 2266 -2267 0
1998 -2266 -2267 0
-1998 2266 -2267 0
-1998 -2266 2267 0
1998 2266 -2268 0
1998 -2266 2268 0
-1998 2266 2268 0
-1998 -2266 -2268 0
2265 2267 -2269 0
2265 -2267 2269 0
-2265 2267 2269 0
-2265 -2267 -2269 0
21 56 -2270 0
21 -56 -2270 0
-21 56 -2270 0
-21 -56 2270 0
2009 2270 -2271 0
2009 -2270 -2271 0
-2009 2270 -2271 0
-2009 -2270 2271 0
2009 2270 -2272 0
2009 -2270 2272 0
-2009 2270 2272 0
-2009 -2270 -2272 0
2004 2272 -2273 0
2004 -2272 -2273 0
-2004 2272 -2273 0
-2004 -2272 2273 0
2004 2272 -2274 0
2004 -2272 2274 0
-2004 2272 2274 0
-2004 -2272 -2274 0
2271 2273 -2275 0
2271 -2273 2275 0
-2271 2273 2275 0
-2271 -2273 -2275 0
22 56 -2276 0
22 -56 -2276 0
-22 56 -2276 0
-22 -56 2276 0
2015 2276 -2277 0
2015 -2276 -2277 0
-2015 2276 -2277 0
-2015 -2276 2277 0
2015 2276 -2278 0
2015 -2276 2278 0
-2015 2276 2278 0
-2015 -2276 -2278 0
2010 2278 -2279 0
2010 -2278 -2279 0
-2010 2278 -2279 0
-2010 -2278 2279 0
2010 2278 -2280 0
2010 -2278 2280 0
-2010 2278 2280 0
-2010 -2278 -2280 0
2277 2279 -2281 0
2277 -2279 2281 0
-2277 2279 2281 0
-2277 -2279 -2281 0
23 56 -2282 0
23 -56 -2282 0
-23 56 -2282 0
-23 -56 2282 0
2021 2282 -2283 0
2021 -2282 -2283 0
-2021 2282 -2283 0
-2021 -2282 2283 0
2021 2282 -2284 0
2021 -2282 2284 0
-2021 2282 2284 0
-2021 -2282 -2284 0
2016 2284 -2285 0
2016 -2284 -2285 0
-2016 2284 -2285 0
-2016 -2284 2285 0
2016 2284 -2286 0
2016 -2284 2286 0
-2016 2284 2286 0
-2016 -2284 -2286 0
2283 2285 -2287 0
2283 -2285 2287 0
-2283 2285 2287 0
-2283 -2285 -2287 0
24 56 -2288 0
24 -56 -2288 0
-24 56 -2288 0
-24 -56 2288 0
2027 2288 -2289 0
2027 -2288 -2289 0
-2027 2288 -2289 0
-2027 -2288 2289 0
2027 2288 -2290 0
2027 -2288 2290 0
-2027 2288 2290 0
-2027 -2288 -2290 0
2022 2290 -2291 0
2022 -2290 -2291 0
-2022 2290 -2291 0
-2022 -2290 2291 0
2022 2290 -2292 0
2022 -2290 2292 0
-2022 2290 2292 0
-2022 -2290 -2292 0
2289 2291 -2293 0
2289 -2291 2293 0
-2289 2291 2293 0
-2289 -2291 -2293 0
25 56 -2294 0
25 -56 -2294 0
-25 56 -2294 0
-25 -56 2294 0
2033 2294 -2295 0
2033 -2294 -2295 0
-2033 2294 -2295 0
-2033 -2294 2295 0
2033 2294 -2296 0
2033 -2294 2296 0
-2033 2294 2296 0
-2033 -2294 -2296 0
2028 2296 -2297 0
2028 -2296 -2297 0
-2028 2296 -2297 0
-2028 -2296 2297 0
2028 2296 -2298 0
2028 -2296 2298 0
-2028 2296 2298 0
-2028 -2296 -2298 0
2295 2297 -2299 0
2295 -2297 2299 0
-2295 2297 2299 0
-2295 -2297 -2299 0
26 56 -2300 0
26 -56 -2300 0
-26 56 -2300 0
-26 -56 2300 0
2039 2300 -2301 0
2039 -2300 -2301 0
-2039 2300 -2301 0
-2039 -2300 2301 0
2039 2300 -2302 0
2039 -2300 2302 0
-2039 2300 2302 0
-2039 -2300 -2302 0
2034 2302 -2303 0
2034 -2302 -2303 0
-2034 2302 -2303 0
-2034 -2302 2303 0
2034 2302 -2304 0
2034 -2302 2304 0
-2034 2302 2304 0
-2034 -2302 -2304 0
2301 2303 -2305 0
2301 -2303 2305 0
-2301 2303 2305 0
-2301 -2303 -2305 0
27 56 -2306 0
27 -56 -2306 0
-27 56 -2306 0
-27 -56 2306 0
2045 2306 -2307 0
2045 -2306 -2307 0
-2045 2306 -2307 0
-2045 -2306 2307 0
2045 2306 -2308 0
2045 -2306 2308 0
-2045 2306 2308 0
-2045 -2306 -2308 0
2040 2308 -2309 0
2040 -2308 -2309 0
-2040 2308 -2309 0
-2040 -2308 2309 0
2040 2308 -2310 0
2040 -2308 2310 0
-2040 2308 2310 0
-2040 -2308 -2310 0
2307 2309 -2311 0
2307 -2309 2311 0
-2307 2309 2311 0
-2307 -2309 -2311 0
28 56 -2312 0
28 -56 -2312 0
-28 56 -2312 0
-28 -56 2312 0
2051 2312 -2313 0
2051 -2312 -2313 0
-2051 2312 -2313 0
-2051 -2312 2313 0
2051 2312 -2314 0
2051 -2312 2314 0
-2051 2312 2314 0
-2051 -2312 -2314 0
2046 2314 -2315 0
2046 -2314 -2315 0
-2046 2314 -2315 0
-2046 -2314 2315 0
2046 2314 -2316 0
2046 -2314 2316 0
-2046 2314 2316 0
-2046 -2314 -2316 0
2313 2315 -2317 0
2313 -2315 2317 0
-2313 2315 2317 0
-2313 -2315 -2317 0
29 56 -2318 0
29 -56 -2318 0
-29 56 -2318 0
-29 -56 2318 0
2057 2318 -2319 0
2057 -2318 -2319 0
-2057 2318 -2319 0
-2057 -2318 2319 0
2057 2318 -2320 0
2057 -2318 2320 0
-2057 2318 2320 0
-2057 -2318 -2320 0
2052 2320 -2321 0
2052 -2320 -2321 0
-2052 2320 -2321 0
-2052 -2320 2321 0
2052 2320 -2322 0
2052 -2320 2322 0
-2052 2320 2322 0
-2052 -2320 -2322 0
2319 2321 -2323 0
2319 -2321 2323 0
-2319 2321 2323 0
-2319 -2321 -2323 0
30 56 -2324 0
30 -56 -2324 0
-30 56 -2324 0
-30 -56 2324 0
2063 2324 -2325 0
2063 -2324 -2325 0
-2063 2324 -2325 0
-2063 -2324 2325 0
2063 2324 -2326 0
2063 -2324 2326 0
-2063 2324 2326 0
-2063 -2324 -2326 0
2058 2326 -2327 0
2058 -2326 -2327 0
-2058 2326 -2327 0
-2058 -2326 2327 0
2058 2326 -2328 0
2058 -2326 2328 0
-2058 2326 2328 0
-2058 -2326 -2328 0
2325 2327 -2329 0
2325 -2327 2329 0
-2325 2327 2329 0
-2325 -2327 -2329 0
31 56 -2330 0
31 -56 -2330 0
-31 56 -2330 0
-31 -56 2330 0
2069 2330 -2331 0
2069 -2330 -2331 0
-2069 2330 -2331 0
-2069 -2330 2331 0
2069 2330 -2332 0
2069 -2330 2332 0
-2069 2330 2332 0
-2069 -2330 -2332 0
2064 2332 -2333 0
2064 -2332 -2333 0
-2064 2332 -2333 0
-2064 -2332 2333 0
2064 2332 -2334 0
2064 -2332 2334 0
-2064 2332 2334 0
-2064 -2332 -2334 0
2331 2333 -2335 0
2331 -2333 2335 0
-2331 2333 2335 0
-2331 -2333 -2335 0
32 56 -2336 0
32 -56 -2336 0
-32 56 -2336 0
-32 -56 2336 0
2075 2336 -2337 0
2075 -2336 -2337 0
-2075 2336 -2337 0
-2075 -2336 2337 0
2075 2336 -2338 0
2075 -2336 2338 0
-2075 2336 2338 0
-2075 -2336 -2338 0
2070 2338 -2339 0
2070 -2338 -2339 0
-2070 2338 -2339 0
-2070 -2338 2339 0
2070 2338 -2340 0
2070 -2338 2340 0
-2070 2338 2340 0
-2070 -2338 -2340 0
2337 2339 -2341 0
2337 -2339 2341 0
-2337 2339 2341 0
-2337 -2339 -2341 0
33 56 -2342 0
33 -56 -2342 0
-33 56 -2342 0
-33 -56 2342 0
2081 2342 -2343 0
2081 -2342 -2343 0
-2081 2342 -2343 0
-2081 -2342 2343 0
2081 2342 -2344 0
2081 -2342 2344 0
-2081 2342 2344 0
-2081 -2342 -2344 0
2076 2344 -2345 0
2076 -2344 -2345 0
-2076 2344 -2345 0
-2076 -2344 2345 0
2076 2344 -2346 0
2076 -2344 2346 0
-2076 2344 2346 0
-2076 -2344 -2346 0
2343 2345 -2347 0
2343 -2345 2347 0
-2343 2345 2347 0
-2343 -2345 -2347 0
34 56 -2348 0
34 -56 -2348 0
-34 56 -2348 0
-34 -56 2348 0
2087 2348 -2349 0
2087 -2348 -2349 0
-2087 2348 -2349 0
-2087 -2348 2349 0
2087 2348 -2350 0
2087 -2348 2350 0
-2087 2348 2350 0
-2087 -2348 -2350 0
2082 2350 -2351 0
2082 -2350 -2351 0
-2082 2350 -2351 0
-2082 -2350 2351 0
2082 2350 -2352 0
2082 -2350 2352 0
-2082 2350 2352 0
-2082 -2350 -2352 0
2349 2351 -2353 0
2349 -2351 2353 0
-2349 2351 2353 0
-2349 -2351 -2353 0
35 56 -2354 0
35 -56 -2354 0
-35 56 -2354 0
-35 -56 2354 0
2093 2354 -2355 0
2093 -2354 -2355 0
-2093 2354 -2355 0
-2093 -2354 2355 0
2093 2354 -2356 0
2093 -2354 2356 0
-2093 2354 2356 0
-2093 -2354 -2356 0
2088 2356 -2357 0
2088 -2356 -2357 0
-2088 2356 -2357 0
-2088 -2356 2357 0
2088 2356 -2358 0
2088 -2356 2358 0
-2088 2356 2358 0
-2088 -2356 -2358 0
2355 2357 -2359 0
2355 -2357 2359 0
-2355 2357 2359 0
-2355 -2357 -2359 0
36 56 -2360 0
36 -56 -2360 0
-36 56 -2360 0
-36 -56 2360 0
2099 2360 -2361 0
2099 -2360 -2361 0
-2099 2360 -2361 0
-2099 -2360 2361 0
2099 2360 -2362 0
2099 -2360 2362 0
-2099 2360 2362 0
-2099 -2360 -2362 0
2094 2362 -2363 0
2094 -2362 -2363 0
-2094 2362 -2363 0
-2094 -2362 2363 0
2094 2362 -2364 0
2094 -2362 2364 0
-2094 2362 2364 0
-2094 -2362 -2364 0
2361 2363 -2365 0
2361 -2363 2365 0
-2361 2363 2365 0
-2361 -2363 -2365 0
37 56 -2366 0
37 -56 -2366 0
-37 56 -2366 0
-37 -56 2366 0
2105 2366 -2367 0
2105 -2366 -2367 0
-2105 2366 -2367 0
-2105 -2366 2367 0
2105 2366 -2368 0
2105 -2366 2368 0
-2105 2366 2368 0
-2105 -2366 -2368 0
2100 2368 -2369 0
2100 -2368 -2369 0
-2100 2368 -2369 0
-2100 -2368 2369 0
2100 2368 -2370 0
2100 -2368 2370 0
-2100 2368 2370 0
-2100 -2368 -2370 0
2367 2369 -2371 0
2367 -2369 2371 0
-2367 2369 2371 0
-2367 -2369 -2371 0
38 56 -2372 0
38 -56 -2372 0
-38 56 -2372 0
-38 -56 2372 0
2111 2372 -2373 0
2111 -2372 -2373 0
-2111 2372 -2373 0
-2111 -2372 2373 0
2111 2372 -2374 0
2111 -2372 2374 0
-2111 2372 2374 0
-2111 -2372 -2374 0
2106 2374 -2375 0
2106 -2374 -2375 0
-2106 2374 -2375 0
-2106 -2374 2375 0
2106 2374 -2376 0
2106 -2374 2376 0
-2106 2374 2376 0
-2106 -2374 -2376 0
2373 2375 -2377 0
2373 -2375 2377 0
-2373 2375 2377 0
-2373 -2375 -2377 0
39 56 -2378 0
39 -56 -2378 0
-39 56 -2378 0
-39 -56 2378 0
2117 2378 -2379 0
2117 -2378 -2379 0
-2117 2378 -2379 0
-2117 -2378 2379 0
2117 2378 -2380 0
2117 -2378 2380 0
-2117 2378 2380 0
-2117 -2378 -2380 0
2112 2380 -2381 0
2112 -2380 -2381 0
-2112 2380 -2381 0
-2112 -2380 2381 0
2112 2380 -2382 0
2112 -2380 2382 0
-2112 2380 2382 0
-2112 -2380 -2382 0
2379 2381 -2383 0
2379 -2381 2383 0
-2379 2381 2383 0
-2379 -2381 -2383 0
40 56 -2384 0
40 -56 -2384 0
-40 56 -2384 0
-40 -56 2384 0
2123 2384 -2385 0
2123 -2384 -2385 0
-2123 2384 -2385 0
-2123 -2384 2385 0
2123 2384 -2386 0
2123 -2384 2386 0
-2123 2384 2386 0
-2123 -2384 -2386 0
2118 2386 -2387 0
2118 -2386 -2387 0
-2118 2386 -2387 0
-2118 -2386 2387 0
2118 2386 -2388 0
2118 -2386 2388 0
-2118 2386 2388 0
-2118 -2386 -2388 0
2385 2387 -2389 0
2385 -2387 2389 0
-2385 2387 2389 0
-2385 -2387 -2389 0
41 56 -2390 0
41 -56 -2390 0
-41 56 -2390 0
-41 -56 2390 0
2129 2390 -2391 0
2129 -2390 -2391 0
-2129 2390 -2391 0
-2129 -2390 2391 0
2129 2390 -2392 0
2129 -2390 2392 0
-2129 2390 2392 0
-2129 -2390 -2392 0
2124 2392 -2393 0
2124 -2392 -2393 0
-2124 2392 -2393 0
-2124 -2392 2393 0
2124 2392 -2394 0
2124 -2392 2394 0
-2124 2392 2394 0
-2124 -2392 -2394 0
2391 2393 -2395 0
2391 -2393 2395 0
-2391 2393 2395 0
-2391 -2393 -2395 0
42 56 -2396 0
42 -56 -2396 0
-42 56 -2396 0
-42 -56 2396 0
2135 2396 -2397 0
2135 -2396 -2397 0
-2135 2396 -2397 0
-2135 -2396 2397 0
2135 2396 -2398 0
2135 -2396 2398 0
-2135 2396 2398 0
-2135 -2396 -2398 0
2130 2398 -2399 0
2130 -2398 -2399 0
-2130 2398 -2399 0
-2130 -2398 2399 0
2130 2398 -2400 0
2130 -2398 2400 0
-2130 2398 2400 0
-2130 -2398 -2400 0
2397 2399 -2401 0
2397 -2399 2401 0
-2397 2399 2401 0
-2397 -2399 -2401 0
43 56 -2402 0
43 -56 -2402 0
-43 56 -2402 0
-43 -56 2402 0
2141 2402 -2403 0
2141 -2402 -2403 0
-2141 2402 -2403 0
-2141 -2402 2403 0
2141 2402 -2404 0
2141 -2402 2404 0
-2141 2402 2404 0
-2141 -2402 -2404 0
2136 2404 -2405 0
2136 -2404 -2405 0
-2136 2404 -2405 0
-2136 -2404 2405 0
2136 2404 -2406 0
2136 -2404 2406 0
-2136 2404 2406 0
-2136 -2404 -2406 0
2403 2405 -2407 0
2403 -2405 2407 0
-2403 2405 2407 0
-2403 -2405 -2407 0
44 56 -2408 0
44 -56 -2408 0
-44 56 -2408 0
-44 -56 2408 0
2147 2408 -2409 0
2147 -2408 -2409 0
-2147 2408 -2409 0
-2147 -2408 2409 0
2147 2408 -2410 0
2147 -2408 2410 0
-2147 2408 2410 0
-2147 -2408 -2410 0
2142 2410 -2411 0
2142 -2410 -2411 0
-2142 2410 -2411 0
-2142 -2410 2411 0
2142 2410 -2412 0
2142 -2410 2412 0
-2142 2410 2412 0
-2142 -2410 -2412 0
2409 2411 -2413 0
2409 -2411 2413 0
-2409 2411 2413 0
-2409 -2411 -2413 0
45 56 -2414 0
45 -56 -2414 0
-45 56 -2414 0
-45 -56 2414 0
2149 2414 -2415 0
2149 -2414 -2415 0
-2149 2414 -2415 0
-2149 -2414 2415 0
2149 2414 -2416 0
2149 -2414 2416 0
-2149 2414 2416 0
-2149 -2414 -2416 0
2148 2416 -2417 0
2148 -2416 -2417 0
-2148 2416 -2417 0
-2148 -2416 2417 0
2148 2416 -2418 0
2148 -2416 2418 0
-2148 2416 2418 0
-2148 -2416 -2418 0
2415 2417 -2419 0
2415 -2417 2419 0
-2415 2417 2419 0
-2415 -2417 -2419 0
46 56 -2420 0
46 -56 -2420 0
-46 56 -2420 0
-46 -56 2420 0
1 57 -2421 0
1 -57 -2421 0
-1 57 -2421 0
-1 -57 2421 0
2160 2421 -2422 0
2160 -2421 -2422 0
-2160 2421 -2422 0
-2160 -2421 2422 0
2160 2421 -2423 0
2160 -2421 2423 0
-2160 2421 2423 0
-2160 -2421 -2423 0
2155 2423 -2424 0
2155 -2423 -2424 0
-2155 2423 -2424 0
-2155 -2423 2424 0
2155 2423 -2425 0
2155 -2423 2425 0
-2155 2423 2425 0
-2155 -2423 -2425 0
2422 2424 -2426 0
2422 -2424 2426 0
-2422 2424 2426 0
-2422 -2424 -2426 0
2 57 -2427 0
2 -57 -2427 0
-2 57 -2427 0
-2 -57 2427 0
2166 2427 -2428 0
2166 -2427 -2428 0
-2166 2427 -2428 0
-2166 -2427 2428 0
2166 2427 -2429 0
2166 -2427 2429 0
-2166 2427 2429 0
-2166 -2427 -2429 0
2161 2429 -2430 0
2161 -2429 -2430 0
-2161 2429 -2430 0
-2161 -2429 2430 0
2161 2429 -2431 0
2161 -2429 2431 0
-2161 2429 2431 0
-2161 -2429 -2431 0
2428 2430 -2432 0
2428 -2430 2432 0
-2428 2430 2432 0
-2428 -2430 -2432 0
3 57 -2433 0
3 -57 -2433 0
-3 57 -2433 0
-3 -57 2433 0
2172 2433 -2434 0
2172 -2433 -2434 0
-2172 2433 -2434 0
-2172 -2433 2434 0
2172 2433 -2435 0
2172 -2433 2435 0
-2172 2433 2435 0
-2172 -2433 -2435 0
2167 2435 -2436 0
2167 -2435 -2436 0
-2167 2435 -2436 0
-2167 -2435 2436 0
2167 2435 -2437 0
2167 -2435 2437 0
-2167 2435 2437 0
-2167 -2435 -2437 0
2434 2436 -2438 0
2434 -2436 2438 0
-2434 2436 2438 0
-2434 -2436 -2438 0
4 57 -2439 0
4 -57 -2439 0
-4 57 -2439 0
-4 -57 2439 0
2178 2439 -2440 0
2178 -2439 -2440 0
-2178 2439 -2440 0
-2178 -2439 2440 0
2178 2439 -2441 0
2178 -2439 2441 0
-2178 2439 2441 0
-2178 -2439 -2441 0
2173 2441 -2442 0
2173 -2441 -2442 0
-2173 2441 -2442 0
-2173 -2441 2442 0
2173 2441 -2443 0
2173 -2441 2443 0
-2173 2441 2443 0
-2173 -2441 -2443 0
2440 2442 -2444 0
2440 -2442 2444 0
-2440 2442 2444 0
-2440 -2442 -2444 0
5 57 -2445 0
5 -57 -2445 0
-5 57 -2445 0
-5 -57 2445 0
2184 2445 -2446 0
2184 -2445 -2446 0
-2184 2445 -2446 0
-2184 -2445 2446 0
2184 2445 -2447 0
2184 -2445 2447 0
-2184 2445 2447 0
-2184 -2445 -2447 0
2179 2447 -2448 0
2179 -2447 -2448 0
-2179 2447 -2448 0
-2179 -2447 2448 0
2179 2447 -2449 0
2179 -2447 2449 0
-2179 2447 2449 0
-2179 -2447 -2449 0
2446 2448 -2450 0
2446 -2448 2450 0
-2446 2448 2450 0
-2446 -2448 -2450 0
6 57 -2451 0
6 -57 -2451 0
-6 57 -2451 0
-6 -57 2451 0
2190 2451 -2452 0
2190 -2451 -2452 0
-2190 2451 -2452 0
-2190 -2451 2452 0
2190 2451 -2453 0
2190 -2451 2453 0
-2190 2451 2453 0
-2190 -2451 -2453 0
2185 2453 -2454 0
2185 -2453 -2454 0
-2185 2453 -2454 0
-2185 -2453 2454 0
2185 2453 -2455 0
2185 -2453 2455 0
-2185 2453 2455 0
-2185 -2453 -2455 0
2452 2454 -2456 0
2452 -2454 2456 0
-2452 2454 2456 0
-2452 -2454 -2456 0
7 57 -2457 0
7 -57 -2457 0
-7 57 -2457 0
-7 -57 2457 0
2196 2457 -2458 0
2196 -2457 -2458 0
-2196 2457 -2458 0
-2196 -2457 2458 0
2196 2457 -2459 0
2196 -2457 2459 0
-2196 2457 2459 0
-2196 -2457 -2459 0
2191 2459 -2460 0
2191 -2459 -2460 0
-2191 2459 -2460 0
-2191 -2459 2460 0
2191 2459 -2461 0
2191 -2459 2461 0
-2191 2459 2461 0
-2191 -2459 -2461 0
2458 2460 -2462 0
2458 -2460 2462 0
-2458 2460 2462 0
-2458 -2460 -2462 0
8 57 -2463 0
8 -57 -2463 0
-8 57 -2463 0
-8 -57 2463 0
2202 2463 -2464 0
2202 -2463 -2464 0
-2202 2463 -2464 0
-2202 -2463 2464 0
2202 2463 -2465 0
2202 -2463 2465 0
-2202 2463 2465 0
-2202 -2463 -2465 0
2197 2465 -2466 0
2197 -2465 -2466 0
-2197 2465 -2466 0
-2197 -2465 2466 0
2197 2465 -2467 0
2197 -2465 2467 0
-2197 2465 2467 0
-2197 -2465 -2467 0
2464 2466 -2468 0
2464 -2466 2468 0
-2464 2466 2468 0
-2464 -2466 -2468 0
9 57 -2469 0
9 -57 -2469 0
-9 57 -2469 0
-9 -57 2469 0
2208 2469 -2470 0
2208 -2469 -2470 0
-2208 2469 -2470 0
-2208 -2469 2470 0
2208 2469 -2471 0
2208 -2469 2471 0
-2208 2469 2471 0
-2208 -2469 -2471 0
2203 2471 -2472 0
2203 -2471 -2472 0
-2203 2471 -2472 0
-2203 -2471 2472 0
2203 2471 -2473 0
2203 -2471 2473 0
-2203 2471 2473 0
-2203 -2471 -2473 0
2470 2472 -2474 0
2470 -2472 2474 0
-2470 2472 2474 0
-2470 -2472 -2474 0
10 57 -2475 0
10 -57 -2475 0
-10 57 -2475 0
-10 -57 2475 0
2214 2475 -2476 0
2214 -2475 -2476 0
-2214 2475 -2476 0
-2214 -2475 2476 0
2214 2475 -2477 0
2214 -2475 2477 0
-2214 2475 2477 0
-2214 -2475 -2477 0
2209 2477 -2478 0
2209 -2477 -2478 0
-2209 2477 -2478 0
-2209 -2477 2478 0
2209 2477 -2479 0
2209 -2477 2479 0
-2209 2477 2479 0
-2209 -2477 -2479 0
2476 2478 -2480 0
2476 -2478 2480 0
-2476 2478 2480 0
-2476 -2478 -2480 0
11 57 -2481 0
11 -57 -2481 0
-11 57 -2481 0
-11 -57 2481 0
2220 2481 -2482 0
2220 -2481 -2482 0
-2220 2481 -2482 0
-2220 -2481 2482 0
2220 2481 -2483 0
2220 -2481 2483 0
-2220 2481 2483 0
-2220 -2481 -2483 0
2215 2483 -2484 0
2215 -2483 -2484 0
-2215 2483 -2484 0
-2215 -2483 2484 0
2215 2483 -2485 0
2215 -2483 2485 0
-2215 2483 2485 0
-2215 -2483 -2485 0
2482 2484 -2486 0
2482 -2484 2486 0
-2482 2484 2486 0
-2482 -2484 -2486 0
12 57 -2487 0
12 -57 -2487 0
-12 57 -2487 0
-12 -57 2487 0
2226 2487 -2488 0
2226 -2487 -2488 0
-2226 2487 -2488 0
-2226 -2487 2488 0
2226 2487 -2489 0
2226 -2487 2489 0
-2226 2487 2489 0
-2226 -2487 -2489 0
2221 2489 -2490 0
2221 -2489 -2490 0
-2221 2489 -2490 0
-2221 -2489 2490 0
2221 2489 -2491 0
2221 -2489 2491 0
-2221 2489 2491 0
-2221 -2489 -2491 0
2488 2490 -2492 0
2488 -2490 2492 0
-2488 2490 2492 0
-2488 -2490 -2492 0
13 57 -2493 0
13 -57 -2493 0
-13 57 -2493 0
-13 -57 2493 0
2232 2493 -2494 0
2232 -2493 -2494 0
-2232 2493 -2494 0
-2232 -2493 2494 0
2232 2493 -2495 0
2232 -2493 2495 0
-2232 2493 2495 0
-2232 -2493 -2495 0
2227 2495 -2496 0
2227 -2495 -2496 0
-2227 2495 -2496 0
-2227 -2495 2496 0
2227 2495 -2497 0
2227 -2495 2497 0
-2227 2495 2497 0
-2227 -2495 -2497 0
2494 2496 -2498 0
2494 -2496 2498 0
-2494 2496 2498 0
-2494 -2496 -2498 0
14 57 -2499 0
14 -57 -2499 0
-14 57 -2499 0
-14 -57 2499 0
2238 2499 -2500 0
2238 -2499 -2500 0
-2238 2499 -2500 0
-2238 -2499 2500 0
2238 2499 -2501 0
2238 -2499 2501 0
-2238 2499 2501 0
-2238 -2499 -2501 0
2233 2501 -2502 0
2233 -2501 -2502 0
-2233 2501 -2502 0
-2233 -2501 2502 0
2233 2501 -2503 0
2233 -2501 2503 0
-2233 2501 2503 0
-2233 -2501 -2503 0
2500 2502 -2504 0
2500 -2502 2504 0
-2500 2502 2504 0
-2500 -2502 -2504 0
15 57 -2505 0
15 -57 -2505 0
-15 57 -2505 0
-15 -57 2505 0
2244 2505 -2506 0
2244 -2505 -2506 0
-2244 2505 -2506 0
-2244 -2505 2506 0
2244 2505 -2507 0
2244 -2505 2507 0
-2244 2505 2507 0
-2244 -2505 -2507 0
2239 2507 -2508 0
2239 -2507 -2508 0
-2239 2507 -2508 0
-2239 -2507 2508 0
2239 2507 -2509 0
2239 -2507 2509 0
-2239 2507 2509 0
-2239 -2507 -2509 0
2506 2508 -2510 0
2506 -2508 2510 0
-2506 2508 2510 0
-2506 -2508 -2510 0
16 57 -2511 0
16 -57 -2511 0
-16 57 -2511 0
-16 -57 2511 0
2250 2511 -2512 0
2250 -2511 -2512 0
-2250 2511 -2512 0
-2250 -2511 2512 0
2250 2511 -2513 0
2250 -2511 2513 0
-2250 2511 2513 0
-2250 -2511 -2513 0
2245 2513 -2514 0
2245 -2513 -2514 0
-2245 2513 -2514 0
-2245 -2513 2514 0
2245 2513 -2515 0
2245 -2513 2515 0
-2245 2513 2515 0
-2245 -2513 -2515 0
2512 2514 -2516 0
2512 -2514 2516 0
-2512 2514 2516 0
-2512 -2514 -2516 0
17 57 -2517 0
17 -57 -2517 0
-17 57 -2517 0
-17 -57 2517 0
2256 2517 -2518 0
2256 -2517 -2518 0
-2256 2517 -2518 0
-2256 -2517 2518 0
2256 2517 -2519 0
2256 -2517 2519 0
-2256 2517 2519 0
-2256 -2517 -2519 0
2251 2519 -2520 0
2251 -2519 -2520 0
-2251 2519 -2520 0
-2251 -2519 2520 0
2251 2519 -2521 0
2251 -2519 2521 0
-2251 2519 2521 0
-2251 -2519 -2521 0
2518 2520 -2522 0
2518 -2520 2522 0
-2518 2520 2522 0
-2518 -2520 -2522 0
18 57 -2523 0
18 -57 -2523 0
-18 57 -2523 0
-18 -57 2523 0
2262 2523 -2524 0
2262 -2523 -2524 0
-2262 2523 -2524 0
-2262 -2523 2524 0
2262 2523 -2525 0
2262 -2523 2525 0
-2262 2523 2525 0
-2262 -2523 -2525 0
2257 2525 -2526 0
2257 -2525 -2526 0
-2257 2525 -2526 0
-2257 -2525 2526 0
2257 2525 -2527 0
2257 -2525 2527 0
-2257 2525 2527 0
-2257 -2525 -2527 0
2524 2526 -2528 0
2524 -2526 2528 0
-2524 2526 2528 0
-2524 -2526 -2528 0
19 57 -2529 0
19 -57 -2529 0
-19 57 -2529 0
-19 -57 2529 0
2268 2529 -2530 0
2268 -2529 -2530 0
-2268 2529 -2530 0
-2268 -2529 2530 0
2268 2529 -2531 0
2268 -2529 2531 0
-2268 2529 2531 0
-2268 -2529 -2531 0
2263 2531 -2532 0
2263 -2531 -2532 0
-2263 2531 -2532 0
-2263 -2531 2532 0
2263 2531 -2533 0
2263 -2531 2533 0
-2263 2531 2533 0
-2263 -2531 -2533 0
2530 2532 -2534 0
2530 -2532 2534 0
-2530 2532 2534 0
-2530 -2532 -2534 0
20 57 -2535 0
20 -57 -2535 0
-20 57 -2535 0
-20 -57 2535 0
2274 2535 -2536 0
2274 -2535 -2536 0
-2274 2535 -2536 0
-2274 -2535 2536 0
2274 2535 -2537 0
2274 -2535 2537 0
-2274 2535 2537 0
-2274 -2535 -2537 0
2269 2537 -2538 0
2269 -2537 -2538 0
-2269 2537 -2538 0
-2269 -2537 2538 0
2269 2537 -2539 0
2269 -2537 2539 0
-2269 2537 2539 0
-2269 -2537 -2539 0
2536 2538 -2540 0
2536 -2538 2540 0
-2536 2538 2540 0
-2536 -2538 -2540 0
21 57 -2541 0
21 -57 -2541 0
-21 57 -2541 0
-21 -57 2541 0
2280 2541 -2542 0
2280 -2541 -2542 0
-2280 2541 -2542 0
-2280 -2541 2542 0
2280 2541 -2543 0
2280 -2541 2543 0
-2280 2541 2543 0
-2280 -2541 -2543 0
2275 2543 -2544 0
2275 -2543 -2544 0
-2275 2543 -2544 0
-2275 -2543 2544 0
2275 2543 -2545 0
2275 -2543 2545 0
-2275 2543 2545 0
-2275 -2543 -2545 0
2542 2544 -2546 0
2542 -2544 2546 0
-2542 2544 2546 0
-2542 -2544 -2546 0
22 57 -2547 0
22 -57 -2547 0
-22 57 -2547 0
-22 -57 2547 0
2286 2547 -2548 0
2286 -2547 -2548 0
-2286 2547 -2548 0
-2286 -2547 2548 0
2286 2547 -2549 0
2286 -2547 2549 0
-2286 2547 2549 0
-2286 -2547 -2549 0
2281 2549 -2550 0
2281 -2549 -2550 0
-2281 2549 -2550 0
-2281 -2549 2550 0
2281 2549 -2551 0
2281 -2549 2551 0
-2281 2549 2551 0
-2281 -2549 -2551 0
2548 2550 -2552 0
2548 -2550 2552 0
-2548 2550 2552 0
-2548 -2550 -2552 0
23 57 -2553 0
23 -57 -2553 0
-23 57 -2553 0
-23 -57 2553 0
2292 2553 -2554 0
2292 -2553 -2554 0
-2292 2553 -2554 0
-2292 -2553 2554 0
2292 2553 -2555 0
2292 -2553 2555 0
-2292 2553 2555 0
-2292 -2553 -2555 0
2287 2555 -2556 0
2287 -2555 -2556 0
-2287 2555 -2556 0
-2287 -2555 2556 0
2287 2555 -2557 0
2287 -2555 2557 0
-2287 2555 2557 0
-2287 -2555 -2557 0
2554 2556 -2558 0
2554 -2556 2558 0
-2554 2556 2558 0
-2554 -2556 -2558 0
24 57 -2559 0
24 -57 -2559 0
-24 57 -2559 0
-24 -57 2559 0
2298 2559 -2560 0
2298 -2559 -2560 0
-2298 2559 -2560 0
-2298 -2559 2560 0
2298 2559 -2561 0
2298 -2559 2561 0
-2298 2559 2561 0
-2298 -2559 -2561 0
2293 2561 -2562 0
2293 -2561 -2562 0
-2293 2561 -2562 0
-2293 -2561 2562 0
2293 2561 -2563 0
2293 -2561 2563 0
-2293 2561 2563 0
-2293 -2561 -2563 0
2560 2562 -2564 0
2560 -2562 2564 0
-2560 2562 2564 0
-2560 -2562 -2564 0
25 57 -2565 0
25 -57 -2565 0
-25 57 -2565 0
-25 -57 2565 0
2304 2565 -2566 0
2304 -2565 -2566 0
-2304 2565 -2566 0
-2304 -2565 2566 0
2304 2565 -2567 0
2304 -2565 2567 0
-2304 2565 2567 0
-2304 -2565 -2567 0
2299 2567 -2568 0
2299 -2567 -2568 0
-2299 2567 -2568 0
-2299 -2567 2568 0
2299 2567 -2569 0
2299 -2567 2569 0
-2299 2567 2569 0
-2299 -2567 -2569 0
2566 2568 -2570 0
2566 -2568 2570 0
-2566 2568 2570 0
-2566 -2568 -2570 0
26 57 -2571 0
26 -57 -2571 0
-26 57 -2571 0
-26 -57 2571 0
2310 2571 -2572 0
2310 -2571 -2572 0
-2310 2571 -2572 0
-2310 -2571 2572 0
2310 2571 -2573 0
2310 -2571 2573 0
-2310 2571 2573 0
-2310 -2571 -2573 0
2305 2573 -2574 0
2305 -2573 -2574 0
-2305 2573 -2574 0
-2305 -2573 2574 0
2305 2573 -2575 0
2305 -2573 2575 0
-2305 2573 2575 0
-2305 -2573 -2575 0
2572 2574 -2576 0
2572 -2574 2576 0
-2572 2574 2576 0
-2572 -2574 -2576 0
27 57 -2577 0
27 -57 -2577 0
-27 57 -2577 0
-27 -57 2577 0
2316 2577 -2578 0
2316 -2577 -2578 0
-2316 2577 -2578 0
-2316 -2577 2578 0
2316 2577 -2579 0
2316 -2577 2579 0
-2316 2577 2579 0
-2316 -2577 -2579 0
2311 2579 -2580 0
2311 -2579 -2580 0
-2311 2579 -2580 0
-2311 -2579 2580 0
2311 2579 -2581 0
2311 -2579 2581 0
-2311 2579 2581 0
-2311 -2579 -2581 0
2578 2580 -2582 0
2578 -2580 2582 0
-2578 2580 2582 0
-2578 -2580 -2582 0
28 57 -2583 0
28 -57 -2583 0
-28 57 -2583 0
-28 -57 2583 0
2322 2583 -2584 0
2322 -2583 -2584 0
-2322 2583 -2584 0
-2322 -2583 2584 0
2322 2583 -2585 0
2322 -2583 2585 0
-2322 2583 2585 0
-2322 -2583 -2585 0
2317 2585 -2586 0
2317 -2585 -2586 0
-2317 2585 -2586 0
-2317 -2585 2586 0
2317 2585 -2587 0
2317 -2585 2587 0
-2317 2585 2587 0
-2317 -2585 -2587 0
2584 2586 -2588 0
2584 -2586 2588 0
-2584 2586 2588 0
-2584 -2586 -2588 0
29 57 -2589 0
29 -57 -2589 0
-29 57 -2589 0
-29 -57 2589 0
2328 2589 -2590 0
2328 -2589 -2590 0
-2328 2589 -2590 0
-2328 -2589 2590 0
2328 2589 -2591 0
2328 -2589 2591 0
-2328 2589 2591 0
-2328 -2589 -2591 0
2323 2591 -2592 0
2323 -2591 -2592 0
-2323 2591 -2592 0
-2323 -2591 2592 0
2323 2591 -2593 0
2323 -2591 2593 0
-2323 2591 2593 0
-2323 -2591 -2593 0
2590 2592 -2594 0
2590 -2592 2594 0
-2590 2592 2594 0
-2590 -2592 -2594 0
30 57 -2595 0
30 -57 -2595 0
-30 57 -2595 0
-30 -57 2595 0
2334 2595 -2596 0
2334 -2595 -2596 0
-2334 2595 -2596 0
-2334 -2595 2596 0
2334 2595 -2597 0
2334 -2595 2597 0
-2334 2595 2597 0
-2334 -2595 -2597 0
2329 2597 -2598 0
2329 -2597 -2598 0
-2329 2597 -2598 0
-2329 -2597 2598 0
2329 2597 -2599 0
2329 -2597 2599 0
-2329 2597 2599 0
-2329 -2597 -2599 0
2596 2598 -2600 0
2596 -2598 2600 0
-2596 2598 2600 0
-2596 -2598 -2600 0
31 57 -2601 0
31 -57 -2601 0
-31 57 -2601 0
-31 -57 2601 0
2340 2601 -2602 0
2340 -2601 -2602 0
-2340 2601 -2602 0
-2340 -2601 2602 0
2340 2601 -2603 0
2340 -2601 2603 0
-2340 2601 2603 0
-2340 -2601 -2603 0
2335 2603 -2604 0
2335 -2603 -2604 0
-2335 2603 -2604 0
-2335 -2603 2604 0
2335 2603 -2605 0
2335 -2603 2605 0
-2335 2603 2605 0
-2335 -2603 -2605 0
2602 2604 -2606 0
2602 -2604 2606 0
-2602 2604 2606 0
-2602 -2604 -2606 0
32 57 -2607 0
32 -57 -2607 0
-32 57 -2607 0
-32 -57 2607 0
2346 2607 -2608 0
2346 -2607 -2608 0
-2346 2607 -2608 0
-2346 -2607 2608 0
2346 2607 -2609 0
2346 -2607 2609 0
-2346 2607 2609 0
-2346 -2607 -2609 0
2341 2609 -2610 0
2341 -2609 -2610 0
-2341 2609 -2610 0
-2341 -2609 2610 0
2341 2609 -2611 0
2341 -2609 2611 0
-2341 2609 2611 0
-2341 -2609 -2611 0
2608 2610 -2612 0
2608 -2610 2612 0
-2608 2610 2612 0
-2608 -2610 -2612 0
33 57 -2613 0
33 -57 -2613 0
-33 57 -2613 0
-33 -57 2613 0
2352 2613 -2614 0
2352 -2613 -2614 0
-2352 2613 -2614 0
-2352 -2613 2614 0
2352 2613 -2615 0
2352 -2613 2615 0
-2352 2613 2615 0
-2352 -2613 -2615 0
2347 2615 -2616 0
2347 -2615 -2616 0
-2347 2615 -2616 0
-2347 -2615 2616 0
2347 2615 -2617 0
2347 -2615 2617 0
-2347 2615 2617 0
-2347 -2615 -2617 0
2614 2616 -2618 0
2614 -2616 2618 0
-2614 2616 2618 0
-2614 -2616 -2618 0
34 57 -2619 0
34 -57 -2619 0
-34 57 -2619 0
-34 -57 2619 0
2358 2619 -2620 0
2358 -2619 -2620 0
-2358 2619 -2620 0
-2358 -2619 2620 0
2358 2619 -2621 0
2358 -2619 2621 0
-2358 2619 2621 0
-2358 -2619 -2621 0
2353 2621 -2622 0
2353 -2621 -2622 0
-2353 2621 -2622 0
-2353 -2621 2622 0
2353 2621 -2623 0
2353 -2621 2623 0
-2353 2621 2623 0
-2353 -2621 -2623 0
2620 2622 -2624 0
2620 -2622 2624 0
-2620 2622 2624 0
-2620 -2622 -2624 0
35 57 -2625 0
35 -57 -2625 0
-35 57 -2625 0
-35 -57 2625 0
2364 2625 -2626 0
2364 -2625 -2626 0
-2364 2625 -2626 0
-2364 -2625 2626 0
2364 2625 -2627 0
2364 -2625 2627 0
-2364 2625 2627 0
-2364 -2625 -2627 0
2359 2627 -2628 0
2359 -2627 -2628 0
-2359 2627 -2628 0
-2359 -2627 2628 0
2359 2627 -2629 0
2359 -2627 2629 0
-2359 2627 2629 0
-2359 -2627 -2629 0
2626 2628 -2630 0
2626 -2628 2630 0
-2626 2628 2630 0
-2626 -2628 -2630 0
36 57 -2631 0
36 -57 -2631 0
-36 57 -2631 0
-36 -57 2631 0
2370 2631 -2632 0
2370 -2631 -2632 0
-2370 2631 -2632 0
-2370 -2631 2632 0
2370 2631 -2633 0
2370 -2631 2633 0
-2370 2631 2633 0
-2370 -2631 -2633 0
2365 2633 -2634 0
2365 -2633 -2634 0
-2365 2633 -2634 0
-2365 -2633 2634 0
2365 2633 -2635 0
2365 -2633 2635 0
-2365 2633 2635 0
-2365 -2633 -2635 0
2632 2634 -2636 0
2632 -2634 2636 0
-2632 2634 2636 0
-2632 -2634 -2636 0
37 57 -2637 0
37 -57 -2637 0
-37 57 -2637 0
-37 -57 2637 0
2376 2637 -2638 0
2376 -2637 -2638 0
-2376 2637 -2638 0
-2376 -2637 2638 0
2376 2637 -2639 0
2376 -2637 2639 0
-2376 2637 2639 0
-2376 -2637 -2639 0
2371 2639 -2640 0
2371 -2639 -2640 0
-2371 2639 -2640 0
-2371 -2639 2640 0
2371 2639 -2641 0
2371 -2639 2641 0
-2371 2639 2641 0
-2371 -2639 -2641 0
2638 2640 -2642 0
2638 -2640 2642 0
-2638 2640 2642 0
-2638 -2640 -2642 0
38 57 -2643 0
38 -57 -2643 0
-38 57 -2643 0
-38 -57 2643 0
2382 2643 -2644 0
2382 -2643 -2644 0
-2382 2643 -2644 0
-2382 -2643 2644 0
2382 2643 -2645 0
2382 -2643 2645 0
-2382 2643 2645 0
-2382 -2643 -2645 0
2377 2645 -2646 0
2377 -2645 -2646 0
-2377 2645 -2646 0
-2377 -2645 2646 0
2377 2645 -2647 0
2377 -2645 2647 0
-2377 2645 2647 0
-2377 -2645 -2647 0
2644 2646 -2648 0
2644 -2646 2648 0
-2644 2646 2648 0
-2644 -2646 -2648 0
39 57 -2649 0
39 -57 -2649 0
-39 57 -2649 0
-39 -57 2649 0
2388 2649 -2650 0
2388 -2649 -2650 0
-2388 2649 -2650 0
-2388 -2649 2650 0
2388 2649 -2651 0
2388 -2649 2651 0
-2388 2649 2651 0
-2388 -2649 -2651 0
2383 2651 -2652 0
2383 -2651 -2652 0
-2383 2651 -2652 0
-2383 -2651 2652 0
2383 2651 -2653 0
2383 -2651 2653 0
-2383 2651 2653 0
-2383 -2651 -2653 0
2650 2652 -2654 0
2650 -2652 2654 0
-2650 2652 2654 0
-2650 -2652 -2654 0
40 57 -2655 0
40 -57 -2655 0
-40 57 -2655 0
-40 -57 2655 0
2394 2655 -2656 0
2394 -2655 -2656 0
-2394 2655 -2656 0
-2394 -2655 2656 0
2394 2655 -2657 0
2394 -2655 2657 0
-2394 2655 2657 0
-2394 -2655 -2657 0
2389 2657 -2658 0
2389 -2657 -2658 0
-2389 2657 -2658 0
-2389 -2657 2658 0
2389 2657 -2659 0
2389 -2657 2659 0
-2389 2657 2659 0
-2389 -2657 -2659 0
2656 2658 -2660 0
2656 -2658 2660 0
-2656 2658 2660 0
-2656 -2658 -2660 0
41 57 -2661 0
41 -57 -2661 0
-41 57 -2661 0
-41 -57 2661 0
2400 2661 -2662 0
2400 -2661 -2662 0
-2400 2661 -2662 0
-2400 -2661 2662 0
2400 2661 -2663 0
2400 -2661 2663 0
-2400 2661 2663 0
-2400 -2661 -2663 0
2395 2663 -2664 0
2395 -2663 -2664 0
-2395 2663 -2664 0
-2395 -2663 2664 0
2395 2663 -2665 0
2395 -2663 2665 0
-2395 2663 2665 0
-2395 -2663 -2665 0
2662 2664 -2666 0
2662 -2664 2666 0
-2662 2664 2666 0
-2662 -2664 -2666 0
42 57 -2667 0
42 -57 -2667 0
-42 57 -2667 0
-42 -57 2667 0
2406 2667 -2668 0
2406 -2667 -2668 0
-2406 2667 -2668 0
-2406 -2667 2668 0
2406 2667 -2669 0
2406 -2667 2669 0
-2406 2667 2669 0
-2406 -2667 -2669 0
2401 2669 -2670 0
2401 -2669 -2670 0
-2401 2669 -2670 0
-2401 -2669 2670 0
2401 2669 -2671 0
2401 -2669 2671 0
-2401 2669 2671 0
-2401 -2669 -2671 0
2668 2670 -2672 0
2668 -2670 2672 0
-2668 2670 2672 0
-2668 -2670 -2672 0
43 57 -2673 0
43 -57 -2673 0
-43 57 -2673 0
-43 -57 2673 0
2412 2673 -2674 0
2412 -2673 -2674 0
-2412 2673 -2674 0
-2412 -2673 2674 0
2412 2673 -2675 0
2412 -2673 2675 0
-2412 2673 2675 0
-2412 -2673 -2675 0
2407 2675 -2676 0
2407 -2675 -2676 0
-2407 2675 -2676 0
-2407 -2675 2676 0
2407 2675 -2677 0
2407 -2675 2677 0
-2407 2675 2677 0
-2407 -2675 -2677 0
2674 2676 -2678 0
2674 -2676 2678 0
-2674 2676 2678 0
-2674 -2676 -2678 0
44 57 -2679 0
44 -57 -2679 0
-44 57 -2679 0
-44 -57 2679 0
2418 2679 -2680 0
2418 -2679 -2680 0
-2418 2679 -2680 0
-2418 -2679 2680 0
2418 2679 -2681 0
2418 -2679 2681 0
-2418 2679 2681 0
-2418 -2679 -2681 0
2413 2681 -2682 0
2413 -2681 -2682 0
-2413 2681 -2682 0
-2413 -2681 2682 0
2413 2681 -2683 0
2413 -2681 2683 0
-2413 2681 2683 0
-2413 -2681 -2683 0
2680 2682 -2684 0
2680 -2682 2684 0
-2680 2682 2684 0
-2680 -2682 -2684 0
45 57 -2685 0
45 -57 -2685 0
-45 57 -2685 0
-45 -57 2685 0
2420 2685 -2686 0
2420 -2685 -2686 0
-2420 2685 -2686 0
-2420 -2685 2686 0
2420 2685 -2687 0
2420 -2685 2687 0
-2420 2685 2687 0
-2420 -2685 -2687 0
2419 2687 -2688 0
2419 -2687 -2688 0
-2419 2687 -2688 0
-2419 -2687 2688 0
2419 2687 -2689 0
2419 -2687 2689 0
-2419 2687 2689 0
-2419 -2687 -2689 0
2686 2688 -2690 0
2686 -2688 2690 0
-2686 2688 2690 0
-2686 -2688 -2690 0
46 57 -2691 0
46 -57 -2691 0
-46 57 -2691 0
-46 -57 2691 0
1 58 -2692 0
1 -58 -2692 0
-1 58 -2692 0
-1 -58 2692 0
2431 2692 -2693 0
2431 -2692 -2693 0
-2431 2692 -2693 0
-2431 -2692 2693 0
2431 2692 -2694 0
2431 -2692 2694 0
-2431 2692 2694 0
-2431 -2692 -2694 0
2426 2694 -2695 0
2426 -2694 -2695 0
-2426 2694 -2695 0
-2426 -2694 2695 0
2426 2694 -2696 0
2426 -2694 2696 0
-2426 2694 2696 0
-2426 -2694 -2696 0
2693 2695 -2697 0
2693 -2695 2697 0
-2693 2695 2697 0
-2693 -2695 -2697 0
2 58 -2698 0
2 -58 -2698 0
-2 58 -2698 0
-2 -58 2698 0
2437 2698 -2699 0
2437 -2698 -2699 0
-2437 2698 -2699 0
-2437 -2698 2699 0
2437 2698 -2700 0
2437 -2698 2700 0
-2437 2698 2700 0
-2437 -2698 -2700 0
2432 2700 -2701 0
2432 -2700 -2701 0
-2432 2700 -2701 0
-2432 -2700 2701 0
2432 2700 -2702 0
2432 -2700 2702 0
-2432 2700 2702 0
-2432 -2700 -2702 0
2699 2701 -2703 0
2699 -2701 2703 0
-2699 2701 2703 0
-2699 -2701 -2703 0
3 58 -2704 0
3 -58 -2704 0
-3 58 -2704 0
-3 -58 2704 0
2443 2704 -2705 0
2443 -2704 -2705 0
-2443 2704 -2705 0
-2443 -2704 2705 0
2443 2704 -2706 0
2443 -2704 2706 0
-2443 2704 2706 0
-2443 -2704 -2706 0
2438 2706 -2707 0
2438 -2706 -2707 0
-2438 2706 -2707 0
-2438 -2706 2707 0
2438 2706 -2708 0
2438 -2706 2708 0
-2438 2706 2708 0
-2438 -2706 -2708 0
2705 2707 -2709 0
2705 -2707 2709 0
-2705 2707 2709 0
-2705 -2707 -2709 0
4 58 -2710 0
4 -58 -2710 0
-4 58 -2710 0
-4 -58 2710 0
2449 2710 -2711 0
2449 -2710 -2711 0
-2449 2710 -2711 0
-2449 -2710 2711 0
2449 2710 -2712 0
2449 -2710 2712 0
-2449 2710 2712 0
-2449 -2710 -2712 0
2444 2712 -2713 0
2444 -2712 -2713 0
-2444 2712 -2713 0
-2444 -2712 2713 0
2444 2712 -2714 0
2444 -2712 2714 0
-2444 2712 2714 0
-2444 -2712 -2714 0
2711 2713 -2715 0
2711 -2713 2715 0
-2711 2713 2715 0
-2711 -2713 -2715 0
5 58 -2716 0
5 -58 -2716 0
-5 58 -2716 0
-5 -58 2716 0
2455 2716 -2717 0
2455 -2716 -2717 0
-2455 2716 -2717 0
-2455 -2716 2717 0
2455 2716 -2718 0
2455 -2716 2718 0
-2455 2716 2718 0
-2455 -2716 -2718 0
2450 2718 -2719 0
2450 -2718 -2719 0
-2450 2718 -2719 0
-2450 -2718 2719 0
2450 2718 -2720 0
2450 -2718 2720 0
-2450 2718 2720 0
-2450 -2718 -2720 0
2717 2719 -2721 0
2717 -2719 2721 0
-2717 2719 2721 0
-2717 -2719 -2721 0
6 58 -2722 0
6 -58 -2722 0
-6 58 -2722 0
-6 -58 2722 0
2461 2722 -2723 0
2461 -2722 -2723 0
-2461 2722 -2723 0
-2461 -2722 2723 0
2461 2722 -2724 0
2461 -2722 2724 0
-2461 2722 2724 0
-2461 -2722 -2724 0
2456 2724 -2725 0
2456 -2724 -2725 0
-2456 2724 -2725 0
-2456 -2724 2725 0
2456 2724 -2726 0
2456 -2724 2726 0
-2456 2724 2726 0
-2456 -2724 -2726 0
2723 2725 -2727 0
2723 -2725 2727 0
-2723 2725 2727 0
-2723 -2725 -2727 0
7 58 -2728 0
7 -58 -2728 0
-7 58 -2728 0
-7 -58 2728 0
2467 2728 -2729 0
2467 -2728 -2729 0
-2467 2728 -2729 0
-2467 -2728 2729 0
2467 2728 -2730 0
2467 -2728 2730 0
-2467 2728 2730 0
-2467 -2728 -2730 0
2462 2730 -2731 0
2462 -2730 -2731 0
-2462 2730 -2731 0
-2462 -2730 2731 0
2462 2730 -2732 0
2462 -2730 2732 0
-2462 2730 2732 0
-2462 -2730 -2732 0
2729 2731 -2733 0
2729 -2731 2733 0
-2729 2731 2733 0
-2729 -2731 -2733 0
8 58 -2734 0
8 -58 -2734 0
-8 58 -2734 0
-8 -58 2734 0
2473 2734 -2735 0
2473 -2734 -2735 0
-2473 2734 -2735 0
-2473 -2734 2735 0
2473 2734 -2736 0
2473 -2734 2736 0
-2473 2734 2736 0
-2473 -2734 -2736 0
2468 2736 -2737 0
2468 -2736 -2737 0
-2468 2736 -2737 0
-2468 -2736 2737 0
2468 2736 -2738 0
2468 -2736 2738 0
-2468 2736 2738 0
-2468 -2736 -2738 0
2735 2737 -2739 0
2735 -2737 2739 0
-2735 2737 2739 0
-2735 -2737 -2739 0
9 58 -2740 0
9 -58 -2740 0
-9 58 -2740 0
-9 -58 2740 0
2479 2740 -2741 0
2479 -2740 -2741 0
-2479 2740 -2741 0
-2479 -2740 2741 0
2479 2740 -2742 0
2479 -2740 2742 0
-2479 2740 2742 0
-2479 -2740 -2742 0
2474 2742 -2743 0
2474 -2742 -2743 0
-2474 2742 -2743 0
-2474 -2742 2743 0
2474 2742 -2744 0
2474 -2742 2744 0
-2474 2742 2744 0
-2474 -2742 -2744 0
2741 2743 -2745 0
2741 -2743 2745 0
-2741 2743 2745 0
-2741 -2743 -2745 0
10 58 -2746 0
10 -58 -2746 0
-10 58 -2746 0
-10 -58 2746 0
2485 2746 -2747 0
2485 -2746 -2747 0
-2485 2746 -2747 0
-2485 -2746 2747 0
2485 2746 -2748 0
2485 -2746 2748 0
-2485 2746 2748 0
-2485 -2746 -2748 0
2480 2748 -2749 0
2480 -2748 -2749 0
-2480 2748 -2749 0
-2480 -2748 2749 0
2480 2748 -2750 0
2480 -2748 2750 0
-2480 2748 2750 0
-2480 -2748 -2750 0
2747 2749 -2751 0
2747 -2749 2751 0
-2747 2749 2751 0
-2747 -2749 -2751 0
11 58 -2752 0
11 -58 -2752 0
-11 58 -2752 0
-11 -58 2752 0
2491 2752 -2753 0
2491 -2752 -2753 0
-2491 2752 -2753 0
-2491 -2752 2753 0
2491 2752 -2754 0
2491 -2752 2754 0
-2491 2752 2754 0
-2491 -2752 -2754 0
2486 2754 -2755 0
2486 -2754 -2755 0
-2486 2754 -2755 0
-2486 -2754 2755 0
2486 2754 -2756 0
2486 -2754 2756 0
-2486 2754 2756 0
-2486 -2754 -2756 0
2753 2755 -2757 0
2753 -2755 2757 0
-2753 2755 2757 0
-2753 -2755 -2757 0
12 58 -2758 0
12 -58 -2758 0
-12 58 -2758 0
-12 -58 2758 0
2497 2758 -2759 0
2497 -2758 -2759 0
-2497 2758 -2759 0
-2497 -2758 2759 0
2497 2758 -2760 0
2497 -2758 2760 0
-2497 2758 2760 0
-2497 -2758 -2760 0
2492 2760 -2761 0
2492 -2760 -2761 0
-2492 2760 -2761 0
-2492 -2760 2761 0
2492 2760 -2762 0
2492 -2760 2762 0
-2492 2760 2762 0
-2492 -2760 -2762 0
2759 2761 -2763 0
2759 -2761 2763 0
-2759 2761 2763 0
-2759 -2761 -2763 0
13 58 -2764 0
13 -58 -2764 0
-13 58 -2764 0
-13 -58 2764 0
2503 2764 -2765 0
2503 -2764 -2765 0
-2503 2764 -2765 0
-2503 -2764 2765 0
2503 2764 -2766 0
2503 -2764 2766 0
-2503 2764 2766 0
-2503 -2764 -2766 0
2498 2766 -2767 0
2498 -2766 -2767 0
-2498 2766 -2767 0
-2498 -2766 2767 0
2498 2766 -2768 0
2498 -2766 2768 0
-2498 2766 2768 0
-2498 -2766 -2768 0
2765 2767 -2769 0
2765 -2767 2769 0
-2765 2767 2769 0
-2765 -2767 -2769 0
14 58 -2770 0
14 -58 -2770 0
-14 58 -2770 0
-14 -58 2770 0
2509 2770 -2771 0
2509 -2770 -2771 0
-2509 2770 -2771 0
-2509 -2770 2771 0
2509 2770 -2772 0
2509 -2770 2772 0
-2509 2770 2772 0
-2509 -2770 -2772 0
2504 2772 -2773 0
2504 -2772 -2773 0
-2504 2772 -2773 0
-2504 -2772 2773 0
2504 2772 -2774 0
2504 -2772 2774 0
-2504 2772 2774 0
-2504 -2772 -2774 0
2771 2773 -2775 0
2771 -2773 2775 0
-2771 2773 2775 0
-2771 -2773 -2775 0
15 58 -2776 0
15 -58 -2776 0
-15 58 -2776 0
-15 -58 2776 0
2515 2776 -2777 0
2515 -2776 -2777 0
-2515 2776 -2777 0
-2515 -2776 2777 0
2515 2776 -2778 0
2515 -2776 2778 0
-2515 2776 2778 0
-2515 -2776 -2778 0
2510 2778 -2779 0
2510 -2778 -2779 0
-2510 2778 -2779 0
-2510 -2778 2779 0
2510 2778 -2780 0
2510 -2778 2780 0
-2510 2778 2780 0
-2510 -2778 -2780 0
2777 2779 -2781 0
2777 -2779 2781 0
-2777 2779 2781 0
-2777 -2779 -2781 0
16 58 -2782 0
16 -58 -2782 0
-16 58 -2782 0
-16 -58 2782 0
2521 2782 -2783 0
2521 -2782 -2783 0
-2521 2782 -2783 0
-2521 -2782 2783 0
2521 2782 -2784 0
2521 -2782 2784 0
-2521 2782 2784 0
-2521 -2782 -2784 0
2516 2784 -2785 0
2516 -2784 -2785 0
-2516 2784 -2785 0
-2516 -2784 2785 0
2516 2784 -2786 0
2516 -2784 2786 0
-2516 2784 2786 0
-2516 -2784 -2786 0
2783 2785 -2787 0
2783 -2785 2787 0
-2783 2785 2787 0
-2783 -2785 -2787 0
17 58 -2788 0
17 -58 -2788 0
-17 58 -2788 0
-17 -58 2788 0
2527 2788 -2789 0
2527 -2788 -2789 0
-2527 2788 -2789 0
-2527 -2788 2789 0
2527 2788 -2790 0
2527 -2788 2790 0
-2527 2788 2790 0
-2527 -2788 -2790 0
2522 2790 -2791 0
2522 -2790 -2791 0
-2522 2790 -2791 0
-2522 -2790 2791 0
2522 2790 -2792 0
2522 -2790 2792 0
-2522 2790 2792 0
-2522 -2790 -2792 0
2789 2791 -2793 0
2789 -2791 2793 0
-2789 2791 2793 0
-2789 -2791 -2793 0
18 58 -2794 0
18 -58 -2794 0
-18 58 -2794 0
-18 -58 2794 0
2533 2794 -2795 0
2533 -2794 -2795 0
-2533 2794 -2795 0
-2533 -2794 2795 0
2533 2794 -2796 0
2533 -2794 2796 0
-2533 2794 2796 0
-2533 -2794 -2796 0
2528 2796 -2797 0
2528 -2796 -2797 0
-2528 2796 -2797 0
-2528 -2796 2797 0
2528 2796 -2798 0
2528 -2796 2798 0
-2528 2796 2798 0
-2528 -2796 -2798 0
2795 2797 -2799 0
2795 -2797 2799 0
-2795 2797 2799 0
-2795 -2797 -2799 0
19 58 -2800 0
19 -58 -2800 0
-19 58 -2800 0
-19 -58 2800 0
2539 2800 -2801 0
2539 -2800 -2801 0
-2539 2800 -2801 0
-2539 -2800 2801 0
2539 2800 -2802 0
2539 -2800 2802 0
-2539 2800 2802 0
-2539 -2800 -2802 0
2534 2802 -2803 0
2534 -2802 -2803 0
-2534 2802 -2803 0
-2534 -2802 2803 0
2534 2802 -2804 0
2534 -2802 2804 0
-2534 2802 2804 0
-2534 -2802 -2804 0
2801 2803 -2805 0
2801 -2803 2805 0
-2801 2803 2805 0
-2801 -2803 -2805 0
20 58 -2806 0
20 -58 -2806 0
-20 58 -2806 0
-20 -58 2806 0
2545 2806 -2807 0
2545 -2806 -2807 0
-2545 2806 -2807 0
-2545 -2806 2807 0
2545 2806 -2808 0
2545 -2806 2808 0
-2545 2806 2808 0
-2545 -2806 -2808 0
2540 2808 -2809 0
2540 -2808 -2809 0
-2540 2808 -2809 0
-2540 -2808 2809 0
2540 2808 -2810 0
2540 -2808 2810 0
-2540 2808 2810 0
-2540 -2808 -2810 0
2807 2809 -2811 0
2807 -2809 2811 0
-2807 2809 2811 0
-2807 -2809 -2811 0
21 58 -2812 0
21 -58 -2812 0
-21 58 -2812 0
-21 -58 2812 0
2551 2812 -2813 0
2551 -2812 -2813 0
-2551 2812 -2813 0
-2551 -2812 2813 0
2551 2812 -2814 0
2551 -2812 2814 0
-2551 2812 2814 0
-2551 -2812 -2814 0
2546 2814 -2815 0
2546 -2814 -2815 0
-2546 2814 -2815 0
-2546 -2814 2815 0
2546 2814 -2816 0
2546 -2814 2816 0
-2546 2814 2816 0
-2546 -2814 -2816 0
2813 2815 -2817 0
2813 -2815 2817 0
-2813 2815 2817 0
-2813 -2815 -2817 0
22 58 -2818 0
22 -58 -2818 0
-22 58 -2818 0
-22 -58 2818 0
2557 2818 -2819 0
2557 -2818 -2819 0
-2557 2818 -2819 0
-2557 -2818 2819 0
2557 2818 -2820 0
2557 -2818 2820 0
-2557 2818 2820 0
-2557 -2818 -2820 0
2552 2820 -2821 0
2552 -2820 -2821 0
-2552 2820 -2821 0
-2552 -2820 2821 0
2552 2820 -2822 0
2552 -2820 2822 0
-2552 2820 2822 0
-2552 -2820 -2822 0
2819 2821 -2823 0
2819 -2821 2823 0
-2819 2821 2823 0
-2819 -2821 -2823 0
23 58 -2824 0
23 -58 -2824 0
-23 58 -2824 0
-23 -58 2824 0
2563 2824 -2825 0
2563 -2824 -2825 0
-2563 2824 -2825 0
-2563 -2824 2825 0
2563 2824 -2826 0
2563 -2824 2826 0
-2563 2824 2826 0
-2563 -2824 -2826 0
2558 2826 -2827 0
2558 -2826 -2827 0
-2558 2826 -2827 0
-2558 -2826 2827 0
2558 2826 -2828 0
2558 -2826 2828 0
-2558 2826 2828 0
-2558 -2826 -2828 0
2825 2827 -2829 0
2825 -2827 2829 0
-2825 2827 2829 0
-2825 -2827 -2829 0
24 58 -2830 0
24 -58 -2830 0
-24 58 -2830 0
-24 -58 2830 0
2569 2830 -2831 0
2569 -2830 -2831 0
-2569 2830 -2831 0
-2569 -2830 2831 0
2569 2830 -2832 0
2569 -2830 2832 0
-2569 2830 2832 0
-2569 -2830 -2832 0
2564 2832 -2833 0
2564 -2832 -2833 0
-2564 2832 -2833 0
-2564 -2832 2833 0
2564 2832 -2834 0
2564 -2832 2834 0
-2564 2832 2834 0
-2564 -2832 -2834 0
2831 2833 -2835 0
2831 -2833 2835 0
-2831 2833 2835 0
-2831 -2833 -2835 0
25 58 -2836 0
25 -58 -2836 0
-25 58 -2836 0
-25 -58 2836 0
2575 2836 -2837 0
2575 -2836 -2837 0
-2575 2836 -2837 0
-2575 -2836 2837 0
2575 2836 -2838 0
2575 -2836 2838 0
-2575 2836 2838 0
-2575 -2836 -2838 0
2570 2838 -2839 0
2570 -2838 -2839 0
-2570 2838 -2839 0
-2570 -2838 2839 0
2570 2838 -2840 0
2570 -2838 2840 0
-2570 2838 2840 0
-2570 -2838 -2840 0
2837 2839 -2841 0
2837 -2839 2841 0
-2837 2839 2841 0
-2837 -2839 -2841 0
26 58 -2842 0
26 -58 -2842 0
-26 58 -2842 0
-26 -58 2842 0
2581 2842 -2843 0
2581 -2842 -2843 0
-2581 2842 -2843 0
-2581 -2842 2843 0
2581 2842 -2844 0
2581 -2842 2844 0
-2581 2842 2844 0
-2581 -2842 -2844 0
2576 2844 -2845 0
2576 -2844 -2845 0
-2576 2844 -2845 0
-2576 -2844 2845 0
2576 2844 -2846 0
2576 -2844 2846 0
-2576 2844 2846 0
-2576 -2844 -2846 0
2843 2845 -2847 0
2843 -2845 2847 0
-2843 2845 2847 0
-2843 -2845 -2847 0
27 58 -2848 0
27 -58 -2848 0
-27 58 -2848 0
-27 -58 2848 0
2587 2848 -2849 0
2587 -2848 -2849 0
-2587 2848 -2849 0
-2587 -2848 2849 0
2587 2848 -2850 0
2587 -2848 2850 0
-2587 2848 2850 0
-2587 -2848 -2850 0
2582 2850 -2851 0
2582 -2850 -2851 0
-2582 2850 -2851 0
-2582 -2850 2851 0
2582 2850 -2852 0
2582 -2850 2852 0
-2582 2850 2852 0
-2582 -2850 -2852 0
2849 2851 -2853 0
2849 -2851 2853 0
-2849 2851 2853 0
-2849 -2851 -2853 0
28 58 -2854 0
28 -58 -2854 0
-28 58 -2854 0
-28 -58 2854 0
2593 2854 -2855 0
2593 -2854 -2855 0
-2593 2854 -2855 0
-2593 -2854 2855 0
2593 2854 -2856 0
2593 -2854 2856 0
-2593 2854 2856 0
-2593 -2854 -2856 0
2588 2856 -2857 0
2588 -2856 -2857 0
-2588 2856 -2857 0
-2588 -2856 2857 0
2588 2856 -2858 0
2588 -2856 2858 0
-2588 2856 2858 0
-2588 -2856 -2858 0
2855 2857 -2859 0
2855 -2857 2859 0
-2855 2857 2859 0
-2855 -2857 -2859 0
29 58 -2860 0
29 -58 -2860 0
-29 58 -2860 0
-29 -58 2860 0
2599 2860 -2861 0
2599 -2860 -2861 0
-2599 2860 -2861 0
-2599 -2860 2861 0
2599 2860 -2862 0
2599 -2860 2862 0
-2599 2860 2862 0
-2599 -2860 -2862 0
2594 2862 -2863 0
2594 -2862 -2863 0
-2594 2862 -2863 0
-2594 -2862 2863 0
2594 2862 -2864 0
2594 -2862 2864 0
-2594 2862 2864 0
-2594 -2862 -2864 0
2861 2863 -2865 0
2861 -2863 2865 0
-2861 2863 2865 0
-2861 -2863 -2865 0
30 58 -2866 0
30 -58 -2866 0
-30 58 -2866 0
-30 -58 2866 0
2605 2866 -2867 0
2605 -2866 -2867 0
-2605 2866 -2867 0
-2605 -2866 2867 0
2605 2866 -2868 0
2605 -2866 2868 0
-2605 2866 2868 0
-2605 -2866 -2868 0
2600 2868 -2869 0
2600 -2868 -2869 0
-2600 2868 -2869 0
-2600 -2868 2869 0
2600 2868 -2870 0
2600 -2868 2870 0
-2600 2868 2870 0
-2600 -2868 -2870 0
2867 2869 -2871 0
2867 -2869 2871 0
-2867 2869 2871 0
-2867 -2869 -2871 0
31 58 -2872 0
31 -58 -2872 0
-31 58 -2872 0
-31 -58 2872 0
2611 2872 -2873 0
2611 -2872 -2873 0
-2611 2872 -2873 0
-2611 -2872 2873 0
2611 2872 -2874 0
2611 -2872 2874 0
-2611 2872 2874 0
-2611 -2872 -2874 0
2606 2874 -2875 0
2606 -2874 -2875 0
-2606 2874 -2875 0
-2606 -2874 2875 0
2606 2874 -2876 0
2606 -2874 2876 0
-2606 2874 2876 0
-2606 -2874 -2876 0
2873 2875 -2877 0
2873 -2875 2877 0
-2873 2875 2877 0
-2873 -2875 -2877 0
32 58 -2878 0
32 -58 -2878 0
-32 58 -2878 0
-32 -58 2878 0
2617 2878 -2879 0
2617 -2878 -2879 0
-2617 2878 -2879 0
-2617 -2878 2879 0
2617 2878 -2880 0
2617 -2878 2880 0
-2617 2878 2880 0
-2617 -2878 -2880 0
2612 2880 -2881 0
2612 -2880 -2881 0
-2612 2880 -2881 0
-2612 -2880 2881 0
2612 2880 -2882 0
2612 -2880 2882 0
-2612 2880 2882 0
-2612 -2880 -2882 0
2879 2881 -2883 0
2879 -2881 2883 0
-2879 2881 2883 0
-2879 -2881 -2883 0
33 58 -2884 0
33 -58 -2884 0
-33 58 -2884 0
-33 -58 2884 0
2623 2884 -2885 0
2623 -2884 -2885 0
-2623 2884 -2885 0
-2623 -2884 2885 0
2623 2884 -2886 0
2623 -2884 2886 0
-2623 2884 2886 0
-2623 -2884 -2886 0
2618 2886 -2887 0
2618 -2886 -2887 0
-2618 2886 -2887 0
-2618 -2886 2887 0
2618 2886 -2888 0
2618 -2886 2888 0
-2618 2886 2888 0
-2618 -2886 -2888 0
2885 2887 -2889 0
2885 -2887 2889 0
-2885 2887 2889 0
-2885 -2887 -2889 0
34 58 -2890 0
34 -58 -2890 0
-34 58 -2890 0
-34 -58 2890 0
2629 2890 -2891 0
2629 -2890 -2891 0
-2629 2890 -2891 0
-2629 -2890 2891 0
2629 2890 -2892 0
2629 -2890 2892 0
-2629 2890 2892 0
-2629 -2890 -2892 0
2624 2892 -2893 0
2624 -2892 -2893 0
-2624 2892 -2893 0
-2624 -2892 2893 0
2624 2892 -2894 0
2624 -2892 2894 0
-2624 2892 2894 0
-2624 -2892 -2894 0
2891 2893 -2895 0
2891 -2893 2895 0
-2891 2893 2895 0
-2891 -2893 -2895 0
35 58 -2896 0
35 -58 -2896 0
-35 58 -2896 0
-35 -58 2896 0
2635 2896 -2897 0
2635 -2896 -2897 0
-2635 2896 -2897 0
-2635 -2896 2897 0
2635 2896 -2898 0
2635 -2896 2898 0
-2635 2896 2898 0
-2635 -2896 -2898 0
2630 2898 -2899 0
2630 -2898 -2899 0
-2630 2898 -2899 0
-2630 -2898 2899 0
2630 2898 -2900 0
2630 -2898 2900 0
-2630 2898 2900 0
-2630 -2898 -2900 0
2897 2899 -2901 0
2897 -2899 2901 0
-2897 2899 2901 0
-2897 -2899 -2901 0
36 58 -2902 0
36 -58 -2902 0
-36 58 -2902 0
-36 -58 2902 0
2641 2902 -2903 0
2641 -2902 -2903 0
-2641 2902 -2903 0
-2641 -2902 2903 0
2641 2902 -2904 0
2641 -2902 2904 0
-2641 2902 2904 0
-2641 -2902 -2904 0
2636 2904 -2905 0
2636 -2904 -2905 0
-2636 2904 -2905 0
-2636 -2904 2905 0
2636 2904 -2906 0
2636 -2904 2906 0
-2636 2904 2906 0
-2636 -2904 -2906 0
2903 2905 -2907 0
2903 -2905 2907 0
-2903 2905 2907 0
-2903 -2905 -2907 0
37 58 -2908 0
37 -58 -2908 0
-37 58 -2908 0
-37 -58 2908 0
2647 2908 -2909 0
2647 -2908 -2909 0
-2647 2908 -2909 0
-2647 -2908 2909 0
2647 2908 -2910 0
2647 -2908 2910 0
-2647 2908 2910 0
-2647 -2908 -2910 0
2642 2910 -2911 0
2642 -2910 -2911 0
-2642 2910 -2911 0
-2642 -2910 2911 0
2642 2910 -2912 0
2642 -2910 2912 0
-2642 2910 2912 0
-2642 -2910 -2912 0
2909 2911 -2913 0
2909 -2911 2913 0
-2909 2911 2913 0
-2909 -2911 -2913 0
38 58 -2914 0
38 -58 -2914 0
-38 58 -2914 0
-38 -58 2914 0
2653 2914 -2915 0
2653 -2914 -2915 0
-2653 2914 -2915 0
-2653 -2914 2915 0
2653 2914 -2916 0
2653 -2914 2916 0
-2653 2914 2916 0
-2653 -2914 -2916 0
2648 2916 -2917 0
2648 -2916 -2917 0
-2648 2916 -2917 0
-2648 -2916 2917 0
2648 2916 -2918 0
2648 -2916 2918 0
-2648 2916 2918 0
-2648 -2916 -2918 0
2915 2917 -2919 0
2915 -2917 2919 0
-2915 2917 2919 0
-2915 -2917 -2919 0
39 58 -2920 0
39 -58 -2920 0
-39 58 -2920 0
-39 -58 2920 0
2659 2920 -2921 0
2659 -2920 -2921 0
-2659 2920 -2921 0
-2659 -2920 2921 0
2659 2920 -2922 0
2659 -2920 2922 0
-2659 2920 2922 0
-2659 -2920 -2922 0
2654 2922 -2923 0
2654 -2922 -2923 0
-2654 2922 -2923 0
-2654 -2922 2923 0
2654 2922 -2924 0
2654 -2922 2924 0
-2654 2922 2924 0
-2654 -2922 -2924 0
2921 2923 -2925 0
2921 -2923 2925 0
-2921 2923 2925 0
-2921 -2923 -2925 0
40 58 -2926 0
40 -58 -2926 0
-40 58 -2926 0
-40 -58 2926 0
2665 2926 -2927 0
2665 -2926 -2927 0
-2665 2926 -2927 0
-2665 -2926 2927 0
2665 2926 -2928 0
2665 -2926 2928 0
-2665 2926 2928 0
-2665 -2926 -2928 0
2660 2928 -2929 0
2660 -2928 -2929 0
-2660 2928 -2929 0
-2660 -2928 2929 0
2660 2928 -2930 0
2660 -2928 2930 0
-2660 2928 2930 0
-2660 -2928 -2930 0
2927 2929 -2931 0
2927 -2929 2931 0
-2927 2929 2931 0
-2927 -2929 -2931 0
41 58 -2932 0
41 -58 -2932 0
-41 58 -2932 0
-41 -58 2932 0
2671 2932 -2933 0
2671 -2932 -2933 0
-2671 2932 -2933 0
-2671 -2932 2933 0
2671 2932 -2934 0
2671 -2932 2934 0
-2671 2932 2934 0
-2671 -2932 -2934 0
2666 2934 -2935 0
2666 -2934 -2935 0
-2666 2934 -2935 0
-2666 -2934 2935 0
2666 2934 -2936 0
2666 -2934 2936 0
-2666 2934 2936 0
-2666 -2934 -2936 0
2933 2935 -2937 0
2933 -2935 2937 0
-2933 2935 2937 0
-2933 -2935 -2937 0
42 58 -2938 0
42 -58 -2938 0
-42 58 -2938 0
-42 -58 2938 0
2677 2938 -2939 0
2677 -2938 -2939 0
-2677 2938 -2939 0
-2677 -2938 2939 0
2677 2938 -2940 0
2677 -2938 2940 0
-2677 2938 2940 0
-2677 -2938 -2940 0
2672 2940 -2941 0
2672 -2940 -2941 0
-2672 2940 -2941 0
-2672 -2940 2941 0
2672 2940 -2942 0
2672 -2940 2942 0
-2672 2940 2942 0
-2672 -2940 -2942 0
2939 2941 -2943 0
2939 -2941 2943 0
-2939 2941 2943 0
-2939 -2941 -2943 0
43 58 -2944 0
43 -58 -2944 0
-43 58 -2944 0
-43 -58 2944 0
2683 2944 -2945 0
2683 -2944 -2945 0
-2683 2944 -2945 0
-2683 -2944 2945 0
2683 2944 -2946 0
2683 -2944 2946 0
-2683 2944 2946 0
-2683 -2944 -2946 0
2678 2946 -2947 0
2678 -2946 -2947 0
-2678 2946 -2947 0
-2678 -2946 2947 0
2678 2946 -2948 0
2678 -2946 2948 0
-2678 2946 2948 0
-2678 -2946 -2948 0
2945 2947 -2949 0
2945 -2947 2949 0
-2945 2947 2949 0
-2945 -2947 -2949 0
44 58 -2950 0
44 -58 -2950 0
-44 58 -2950 0
-44 -58 2950 0
2689 2950 -2951 0
2689 -2950 -2951 0
-2689 2950 -2951 0
-2689 -2950 2951 0
2689 2950 -2952 0
2689 -2950 2952 0
-2689 2950 2952 0
-2689 -2950 -2952 0
2684 2952 -2953 0
2684 -2952 -2953 0
-2684 2952 -2953 0
-2684 -2952 2953 0
2684 2952 -2954 0
2684 -2952 2954 0
-2684 2952 2954 0
-2684 -2952 -2954 0
2951 2953 -2955 0
2951 -2953 2955 0
-2951 2953 2955 0
-2951 -2953 -2955 0
45 58 -2956 0
45 -58 -2956 0
-45 58 -2956 0
-45 -58 2956 0
2691 2956 -2957 0
2691 -2956 -2957 0
-2691 2956 -2957 0
-2691 -2956 2957 0
2691 2956 -2958 0
2691 -2956 2958 0
-2691 2956 2958 0
-2691 -2956 -2958 0
2690 2958 -2959 0
2690 -2958 -2959 0
-2690 2958 -2959 0
-2690 -2958 2959 0
2690 2958 -2960 0
2690 -2958 2960 0
-2690 2958 2960 0
-2690 -2958 -2960 0
2957 2959 -2961 0
2957 -2959 2961 0
-2957 2959 2961 0
-2957 -2959 -2961 0
46 58 -2962 0
46 -58 -2962 0
-46 58 -2962 0
-46 -58 2962 0
1 59 -2963 0
1 -59 -2963 0
-1 59 -2963 0
-1 -59 2963 0
2702 2963 -2964 0
2702 -2963 -2964 0
-2702 2963 -2964 0
-2702 -2963 2964 0
2702 2963 -2965 0
2702 -2963 2965 0
-2702 2963 2965 0
-2702 -2963 -2965 0
2697 2965 -2966 0
2697 -2965 -2966 0
-2697 2965 -2966 0
-2697 -2965 2966 0
2697 2965 -2967 0
2697 -2965 2967 0
-2697 2965 2967 0
-2697 -2965 -2967 0
2964 2966 -2968 0
2964 -2966 2968 0
-2964 2966 2968 0
-2964 -2966 -2968 0
2 59 -2969 0
2 -59 -2969 0
-2 59 -2969 0
-2 -59 2969 0
2708 2969 -2970 0
2708 -2969 -2970 0
-2708 2969 -2970 0
-2708 -2969 2970 0
2708 2969 -2971 0
2708 -2969 2971 0
-2708 2969 2971 0
-2708 -2969 -2971 0
2703 2971 -2972 0
2703 -2971 -2972 0
-2703 2971 -2972 0
-2703 -2971 2972 0
2703 2971 -2973 0
2703 -2971 2973 0
-2703 2971 2973 0
-2703 -2971 -2973 0
2970 2972 -2974 0
2970 -2972 2974 0
-2970 2972 2974 0
-2970 -2972 -2974 0
3 59 -2975 0
3 -59 -2975 0
-3 59 -2975 0
-3 -59 2975 0
2714 2975 -2976 0
2714 -2975 -2976 0
-2714 2975 -2976 0
-2714 -2975 2976 0
2714 2975 -2977 0
2714 -2975 2977 0
-2714 2975 2977 0
-2714 -2975 -2977 0
2709 2977 -2978 0
2709 -2977 -2978 0
-2709 2977 -2978 0
-2709 -2977 2978 0
2709 2977 -2979 0
2709 -2977 2979 0
-2709 2977 2979 0
-2709 -2977 -2979 0
2976 2978 -2980 0
2976 -2978 2980 0
-2976 2978 2980 0
-2976 -2978 -2980 0
4 59 -2981 0
4 -59 -2981 0
-4 59 -2981 0
-4 -59 2981 0
2720 2981 -2982 0
2720 -2981 -2982 0
-2720 2981 -2982 0
-2720 -2981 2982 0
2720 2981 -2983 0
2720 -2981 2983 0
-2720 2981 2983 0
-2720 -2981 -2983 0
2715 2983 -2984 0
2715 -2983 -2984 0
-2715 2983 -2984 0
-2715 -2983 2984 0
2715 2983 -2985 0
2715 -2983 2985 0
-2715 2983 2985 0
-2715 -2983 -2985 0
2982 2984 -2986 0
2982 -2984 2986 0
-2982 2984 2986 0
-2982 -2984 -2986 0
5 59 -2987 0
5 -59 -2987 0
-5 59 -2987 0
-5 -59 2987 0
2726 2987 -2988 0
2726 -2987 -2988 0
-2726 2987 -2988 0
-2726 -2987 2988 0
2726 2987 -2989 0
2726 -2987 2989 0
-2726 2987 2989 0
-2726 -2987 -2989 0
2721 2989 -2990 0
2721 -2989 -2990 0
-2721 2989 -2990 0
-2721 -2989 2990 0
2721 2989 -2991 0
2721 -2989 2991 0
-2721 2989 2991 0
-2721 -2989 -2991 0
2988 2990 -2992 0
2988 -2990 2992 0
-2988 2990 2992 0
-2988 -2990 -2992 0
6 59 -2993 0
6 -59 -2993 0
-6 59 -2993 0
-6 -59 2993 0
2732 2993 -2994 0
2732 -2993 -2994 0
-2732 2993 -2994 0
-2732 -2993 2994 0
2732 2993 -2995 0
2732 -2993 2995 0
-2732 2993 2995 0
-2732 -2993 -2995 0
2727 2995 -2996 0
2727 -2995 -2996 0
-2727 2995 -2996 0
-2727 -2995 2996 0
2727 2995 -2997 0
2727 -2995 2997 0
-2727 2995 2997 0
-2727 -2995 -2997 0
2994 2996 -2998 0
2994 -2996 2998 0
-2994 2996 2998 0
-2994 -2996 -2998 0
7 59 -2999 0
7 -59 -2999 0
-7 59 -2999 0
-7 -59 2999 0
2738 2999 -3000 0
2738 -2999 -3000 0
-2738 2999 -3000 0
-2738 -2999 3000 0
2738 2999 -3001 0
2738 -2999 3001 0
-2738 2999 3001 0
-2738 -2999 -3001 0
2733 3001 -3002 0
2733 -3001 -3002 0
-2733 3001 -3002 0
-2733 -3001 3002 0
2733 3001 -3003 0
2733 -3001 3003 0
-2733 3001 3003 0
-2733 -3001 -3003 0
3000 3002 -3004 0
3000 -3002 3004 0
-3000 3002 3004 0
-3000 -3002 -3004 0
8 59 -3005 0
8 -59 -3005 0
-8 59 -3005 0
-8 -59 3005 0
2744 3005 -3006 0
2744 -3005 -3006 0
-2744 3005 -3006 0
-2744 -3005 3006 0
2744 3005 -3007 0
2744 -3005 3007 0
-2744 3005 3007 0
-2744 -3005 -3007 0
2739 3007 -3008 0
2739 -3007 -3008 0
-2739 3007 -3008 0
-2739 -3007 3008 0
2739 3007 -3009 0
2739 -3007 3009 0
-2739 3007 3009 0
-2739 -3007 -3009 0
3006 3008 -3010 0
3006 -3008 3010 0
-3006 3008 3010 0
-3006 -3008 -3010 0
9 59 -3011 0
9 -59 -3011 0
-9 59 -3011 0
-9 -59 3011 0
2750 3011 -3012 0
2750 -3011 -3012 0
-2750 3011 -3012 0
-2750 -3011 3012 0
2750 3011 -3013 0
2750 -3011 3013 0
-2750 3011 3013 0
-2750 -3011 -3013 0
2745 3013 -3014 0
2745 -3013 -3014 0
-2745 3013 -3014 0
-2745 -3013 3014 0
2745 3013 -3015 0
2745 -3013 3015 0
-2745 3013 3015 0
-2745 -3013 -3015 0
3012 3014 -3016 0
3012 -3014 3016 0
-3012 3014 3016 0
-3012 -3014 -3016 0
10 59 -3017 0
10 -59 -3017 0
-10 59 -3017 0
-10 -59 3017 0
2756 3017 -3018 0
2756 -3017 -3018 0
-2756 3017 -3018 0
-2756 -3017 3018 0
2756 3017 -3019 0
2756 -3017 3019 0
-2756 3017 3019 0
-2756 -3017 -3019 0
2751 3019 -3020 0
2751 -3019 -3020 0
-2751 3019 -3020 0
-2751 -3019 3020 0
2751 3019 -3021 0
2751 -3019 3021 0
-2751 3019 3021 0
-2751 -3019 -3021 0
3018 3020 -3022 0
3018 -3020 3022 0
-3018 3020 3022 0
-3018 -3020 -3022 0
11 59 -3023 0
11 -59 -3023 0
-11 59 -3023 0
-11 -59 3023 0
2762 3023 -3024 0
2762 -3023 -3024 0
-2762 3023 -3024 0
-2762 -3023 3024 0
2762 3023 -3025 0
2762 -3023 3025 0
-2762 3023 3025 0
-2762 -3023 -3025 0
2757 3025 -3026 0
2757 -3025 -3026 0
-2757 3025 -3026 0
-2757 -3025 3026 0
2757 3025 -3027 0
2757 -3025 3027 0
-2757 3025 3027 0
-2757 -3025 -3027 0
3024 3026 -3028 0
3024 -3026 3028 0
-3024 3026 3028 0
-3024 -3026 -3028 0
12 59 -3029 0
12 -59 -3029 0
-12 59 -3029 0
-12 -59 3029 0
2768 3029 -3030 0
2768 -3029 -3030 0
-2768 3029 -3030 0
-2768 -3029 3030 0
2768 3029 -3031 0
2768 -3029 3031 0
-2768 3029 3031 0
-2768 -3029 -3031 0
2763 3031 -3032 0
2763 -3031 -3032 0
-2763 3031 -3032 0
-2763 -3031 3032 0
2763 3031 -3033 0
2763 -3031 3033 0
-2763 3031 3033 0
-2763 -3031 -3033 0
3030 3032 -3034 0
3030 -3032 3034 0
-3030 3032 3034 0
-3030 -3032 -3034 0
13 59 -3035 0
13 -59 -3035 0
-13 59 -3035 0
-13 -59 3035 0
2774 3035 -3036 0
2774 -3035 -3036 0
-2774 3035 -3036 0
-2774 -3035 3036 0
2774 3035 -3037 0
2774 -3035 3037 0
-2774 3035 3037 0
-2774 -3035 -3037 0
2769 3037 -3038 0
2769 -3037 -3038 0
-2769 3037 -3038 0
-2769 -3037 3038 0
2769 3037 -3039 0
2769 -3037 3039 0
-2769 3037 3039 0
-2769 -3037 -3039 0
3036 3038 -3040 0
3036 -3038 3040 0
-3036 3038 3040 0
-3036 -3038 -3040 0
14 59 -3041 0
14 -59 -3041 0
-14 59 -3041 0
-14 -59 3041 0
2780 3041 -3042 0
2780 -3041 -3042 0
-2780 3041 -3042 0
-2780 -3041 3042 0
2780 3041 -3043 0
2780 -3041 3043 0
-2780 3041 3043 0
-2780 -3041 -3043 0
2775 3043 -3044 0
2775 -3043 -3044 0
-2775 3043 -3044 0
-2775 -3043 3044 0
2775 3043 -3045 0
2775 -3043 3045 0
-2775 3043 3045 0
-2775 -3043 -3045 0
3042 3044 -3046 0
3042 -3044 3046 0
-3042 3044 3046 0
-3042 -3044 -3046 0
15 59 -3047 0
15 -59 -3047 0
-15 59 -3047 0
-15 -59 3047 0
2786 3047 -3048 0
2786 -3047 -3048 0
-2786 3047 -3048 0
-2786 -3047 3048 0
2786 3047 -3049 0
2786 -3047 3049 0
-2786 3047 3049 0
-2786 -3047 -3049 0
2781 3049 -3050 0
2781 -3049 -3050 0
-2781 3049 -3050 0
-2781 -3049 3050 0
2781 3049 -3051 0
2781 -3049 3051 0
-2781 3049 3051 0
-2781 -3049 -3051 0
3048 3050 -3052 0
3048 -3050 3052 0
-3048 3050 3052 0
-3048 -3050 -3052 0
16 59 -3053 0
16 -59 -3053 0
-16 59 -3053 0
-16 -59 3053 0
2792 3053 -3054 0
2792 -3053 -3054 0
-2792 3053 -3054 0
-2792 -3053 3054 0
2792 3053 -3055 0
2792 -3053 3055 0
-2792 3053 3055 0
-2792 -3053 -3055 0
2787 3055 -3056 0
2787 -3055 -3056 0
-2787 3055 -3056 0
-2787 -3055 3056 0
2787 3055 -3057 0
2787 -3055 3057 0
-2787 3055 3057 0
-2787 -3055 -3057 0
3054 3056 -3058 0
3054 -3056 3058 0
-3054 3056 3058 0
-3054 -3056 -3058 0
17 59 -3059 0
17 -59 -3059 0
-17 59 -3059 0
-17 -59 3059 0
2798 3059 -3060 0
2798 -3059 -3060 0
-2798 3059 -3060 0
-2798 -3059 3060 0
2798 3059 -3061 0
2798 -3059 3061 0
-2798 3059 3061 0
-2798 -3059 -3061 0
2793 3061 -3062 0
2793 -3061 -3062 0
-2793 3061 -3062 0
-2793 -3061 3062 0
2793 3061 -3063 0
2793 -3061 3063 0
-2793 3061 3063 0
-2793 -3061 -3063 0
3060 3062 -3064 0
3060 -3062 3064 0
-3060 3062 3064 0
-3060 -3062 -3064 0
18 59 -3065 0
18 -59 -3065 0
-18 59 -3065 0
-18 -59 3065 0
2804 3065 -3066 0
2804 -3065 -3066 0
-2804 3065 -3066 0
-2804 -3065 3066 0
2804 3065 -3067 0
2804 -3065 3067 0
-2804 3065 3067 0
-2804 -3065 -3067 0
2799 3067 -3068 0
2799 -3067 -3068 0
-2799 3067 -3068 0
-2799 -3067 3068 0
2799 3067 -3069 0
2799 -3067 3069 0
-2799 3067 3069 0
-2799 -3067 -3069 0
3066 3068 -3070 0
3066 -3068 3070 0
-3066 3068 3070 0
-3066 -3068 -3070 0
19 59 -3071 0
19 -59 -3071 0
-19 59 -3071 0
-19 -59 3071 0
2810 3071 -3072 0
2810 -3071 -3072 0
-2810 3071 -3072 0
-2810 -3071 3072 0
2810 3071 -3073 0
2810 -3071 3073 0
-2810 3071 3073 0
-2810 -3071 -3073 0
2805 3073 -3074 0
2805 -3073 -3074 0
-2805 3073 -3074 0
-2805 -3073 3074 0
2805 3073 -3075 0
2805 -3073 3075 0
-2805 3073 3075 0
-2805 -3073 -3075 0
3072 3074 -3076 0
3072 -3074 3076 0
-3072 3074 3076 0
-3072 -3074 -3076 0
20 59 -3077 0
20 -59 -3077 0
-20 59 -3077 0
-20 -59 3077 0
2816 3077 -3078 0
2816 -3077 -3078 0
-2816 3077 -3078 0
-2816 -3077 3078 0
2816 3077 -3079 0
2816 -3077 3079 0
-2816 3077 3079 0
-2816 -3077 -3079 0
2811 3079 -3080 0
2811 -3079 -3080 0
-2811 3079 -3080 0
-2811 -3079 3080 0
2811 3079 -3081 0
2811 -3079 3081 0
-2811 3079 3081 0
-2811 -3079 -3081 0
3078 3080 -3082 0
3078 -3080 3082 0
-3078 3080 3082 0
-3078 -3080 -3082 0
21 59 -3083 0
21 -59 -3083 0
-21 59 -3083 0
-21 -59 3083 0
2822 3083 -3084 0
2822 -3083 -3084 0
-2822 3083 -3084 0
-2822 -3083 3084 0
2822 3083 -3085 0
2822 -3083 3085 0
-2822 3083 3085 0
-2822 -3083 -3085 0
2817 3085 -3086 0
2817 -3085 -3086 0
-2817 3085 -3086 0
-2817 -3085 3086 0
2817 3085 -3087 0
2817 -3085 3087 0
-2817 3085 3087 0
-2817 -3085 -3087 0
3084 3086 -3088 0
3084 -3086 3088 0
-3084 3086 3088 0
-3084 -3086 -3088 0
22 59 -3089 0
22 -59 -3089 0
-22 59 -3089 0
-22 -59 3089 0
2828 3089 -3090 0
2828 -3089 -3090 0
-2828 3089 -3090 0
-2828 -3089 3090 0
2828 3089 -3091 0
2828 -3089 3091 0
-2828 3089 3091 0
-2828 -3089 -3091 0
2823 3091 -3092 0
2823 -3091 -3092 0
-2823 3091 -3092 0
-2823 -3091 3092 0
2823 3091 -3093 0
2823 -3091 3093 0
-2823 3091 3093 0
-2823 -3091 -3093 0
3090 3092 -3094 0
3090 -3092 3094 0
-3090 3092 3094 0
-3090 -3092 -3094 0
23 59 -3095 0
23 -59 -3095 0
-23 59 -3095 0
-23 -59 3095 0
2834 3095 -3096 0
2834 -3095 -3096 0
-2834 3095 -3096 0
-2834 -3095 3096 0
2834 3095 -3097 0
2834 -3095 3097 0
-2834 3095 3097 0
-2834 -3095 -3097 0
2829 3097 -3098 0
2829 -3097 -3098 0
-2829 3097 -3098 0
-2829 -3097 3098 0
2829 3097 -3099 0
2829 -3097 3099 0
-2829 3097 3099 0
-2829 -3097 -3099 0
3096 3098 -3100 0
3096 -3098 3100 0
-3096 3098 3100 0
-3096 -3098 -3100 0
24 59 -3101 0
24 -59 -3101 0
-24 59 -3101 0
-24 -59 3101 0
2840 3101 -3102 0
2840 -3101 -3102 0
-2840 3101 -3102 0
-2840 -3101 3102 0
2840 3101 -3103 0
2840 -3101 3103 0
-2840 3101 3103 0
-2840 -3101 -3103 0
2835 3103 -3104 0
2835 -3103 -3104 0
-2835 3103 -3104 0
-2835 -3103 3104 0
2835 3103 -3105 0
2835 -3103 3105 0
-2835 3103 3105 0
-2835 -3103 -3105 0
3102 3104 -3106 0
3102 -3104 3106 0
-3102 3104 3106 0
-3102 -3104 -3106 0
25 59 -3107 0
25 -59 -3107 0
-25 59 -3107 0
-25 -59 3107 0
2846 3107 -3108 0
2846 -3107 -3108 0
-2846 3107 -3108 0
-2846 -3107 3108 0
2846 3107 -3109 0
2846 -3107 3109 0
-2846 3107 3109 0
-2846 -3107 -3109 0
2841 3109 -3110 0
2841 -3109 -3110 0
-2841 3109 -3110 0
-2841 -3109 3110 0
2841 3109 -3111 0
2841 -3109 3111 0
-2841 3109 3111 0
-2841 -3109 -3111 0
3108 3110 -3112 0
3108 -3110 3112 0
-3108 3110 3112 0
-3108 -3110 -3112 0
26 59 -3113 0
26 -59 -3113 0
-26 59 -3113 0
-26 -59 3113 0
2852 3113 -3114 0
2852 -3113 -3114 0
-2852 3113 -3114 0
-2852 -3113 3114 0
2852 3113 -3115 0
2852 -3113 3115 0
-2852 3113 3115 0
-2852 -3113 -3115 0
2847 3115 -3116 0
2847 -3115 -3116 0
-2847 3115 -3116 0
-2847 -3115 3116 0
2847 3115 -3117 0
2847 -3115 3117 0
-2847 3115 3117 0
-2847 -3115 -3117 0
3114 3116 -3118 0
3114 -3116 3118 0
-3114 3116 3118 0
-3114 -3116 -3118 0
27 59 -3119 0
27 -59 -3119 0
-27 59 -3119 0
-27 -59 3119 0
2858 3119 -3120 0
2858 -3119 -3120 0
-2858 3119 -3120 0
-2858 -3119 3120 0
2858 3119 -3121 0
2858 -3119 3121 0
-2858 3119 3121 0
-2858 -3119 -3121 0
2853 3121 -3122 0
2853 -3121 -3122 0
-2853 3121 -3122 0
-2853 -3121 3122 0
2853 3121 -3123 0
2853 -3121 3123 0
-2853 3121 3123 0
-2853 -3121 -3123 0
3120 3122 -3124 0
3120 -3122 3124 0
-3120 3122 3124 0
-3120 -3122 -3124 0
28 59 -3125 0
28 -59 -3125 0
-28 59 -3125 0
-28 -59 3125 0
2864 3125 -3126 0
2864 -3125 -3126 0
-2864 3125 -3126 0
-2864 -3125 3126 0
2864 3125 -3127 0
2864 -3125 3127 0
-2864 3125 3127 0
-2864 -3125 -3127 0
2859 3127 -3128 0
2859 -3127 -3128 0
-2859 3127 -3128 0
-2859 -3127 3128 0
2859 3127 -3129 0
2859 -3127 3129 0
-2859 3127 3129 0
-2859 -3127 -3129 0
3126 3128 -3130 0
3126 -3128 3130 0
-3126 3128 3130 0
-3126 -3128 -3130 0
29 59 -3131 0
29 -59 -3131 0
-29 59 -3131 0
-29 -59 3131 0
2870 3131 -3132 0
2870 -3131 -3132 0
-2870 3131 -3132 0
-2870 -3131 3132 0
2870 3131 -3133 0
2870 -3131 3133 0
-2870 3131 3133 0
-2870 -3131 -3133 0
2865 3133 -3134 0
2865 -3133 -3134 0
-2865 3133 -3134 0
-2865 -3133 3134 0
2865 3133 -3135 0
2865 -3133 3135 0
-2865 3133 3135 0
-2865 -3133 -3135 0
3132 3134 -3136 0
3132 -3134 3136 0
-3132 3134 3136 0
-3132 -3134 -3136 0
30 59 -3137 0
30 -59 -3137 0
-30 59 -3137 0
-30 -59 3137 0
2876 3137 -3138 0
2876 -3137 -3138 0
-2876 3137 -3138 0
-2876 -3137 3138 0
2876 3137 -3139 0
2876 -3137 3139 0
-2876 3137 3139 0
-2876 -3137 -3139 0
2871 3139 -3140 0
2871 -3139 -3140 0
-2871 3139 -3140 0
-2871 -3139 3140 0
2871 3139 -3141 0
2871 -3139 3141 0
-2871 3139 3141 0
-2871 -3139 -3141 0
3138 3140 -3142 0
3138 -3140 3142 0
-3138 3140 3142 0
-3138 -3140 -3142 0
31 59 -3143 0
31 -59 -3143 0
-31 59 -3143 0
-31 -59 3143 0
2882 3143 -3144 0
2882 -3143 -3144 0
-2882 3143 -3144 0
-2882 -3143 3144 0
2882 3143 -3145 0
2882 -3143 3145 0
-2882 3143 3145 0
-2882 -3143 -3145 0
2877 3145 -3146 0
2877 -3145 -3146 0
-2877 3145 -3146 0
-2877 -3145 3146 0
2877 3145 -3147 0
2877 -3145 3147 0
-2877 3145 3147 0
-2877 -3145 -3147 0
3144 3146 -3148 0
3144 -3146 3148 0
-3144 3146 3148 0
-3144 -3146 -3148 0
32 59 -3149 0
32 -59 -3149 0
-32 59 -3149 0
-32 -59 3149 0
2888 3149 -3150 0
2888 -3149 -3150 0
-2888 3149 -3150 0
-2888 -3149 3150 0
2888 3149 -3151 0
2888 -3149 3151 0
-2888 3149 3151 0
-2888 -3149 -3151 0
2883 3151 -3152 0
2883 -3151 -3152 0
-2883 3151 -3152 0
-2883 -3151 3152 0
2883 3151 -3153 0
2883 -3151 3153 0
-2883 3151 3153 0
-2883 -3151 -3153 0
3150 3152 -3154 0
3150 -3152 3154 0
-3150 3152 3154 0
-3150 -3152 -3154 0
33 59 -3155 0
33 -59 -3155 0
-33 59 -3155 0
-33 -59 3155 0
2894 3155 -3156 0
2894 -3155 -3156 0
-2894 3155 -3156 0
-2894 -3155 3156 0
2894 3155 -3157 0
2894 -3155 3157 0
-2894 3155 3157 0
-2894 -3155 -3157 0
2889 3157 -3158 0
2889 -3157 -3158 0
-2889 3157 -3158 0
-2889 -3157 3158 0
2889 3157 -3159 0
2889 -3157 3159 0
-2889 3157 3159 0
-2889 -3157 -3159 0
3156 3158 -3160 0
3156 -3158 3160 0
-3156 3158 3160 0
-3156 -3158 -3160 0
34 59 -3161 0
34 -59 -3161 0
-34 59 -3161 0
-34 -59 3161 0
2900 3161 -3162 0
2900 -3161 -3162 0
-2900 3161 -3162 0
-2900 -3161 3162 0
2900 3161 -3163 0
2900 -3161 3163 0
-2900 3161 3163 0
-2900 -3161 -3163 0
2895 3163 -3164 0
2895 -3163 -3164 0
-2895 3163 -3164 0
-2895 -3163 3164 0
2895 3163 -3165 0
2895 -3163 3165 0
-2895 3163 3165 0
-2895 -3163 -3165 0
3162 3164 -3166 0
3162 -3164 3166 0
-3162 3164 3166 0
-3162 -3164 -3166 0
35 59 -3167 0
35 -59 -3167 0
-35 59 -3167 0
-35 -59 3167 0
2906 3167 -3168 0
2906 -3167 -3168 0
-2906 3167 -3168 0
-2906 -3167 3168 0
2906 3167 -3169 0
2906 -3167 3169 0
-2906 3167 3169 0
-2906 -3167 -3169 0
2901 3169 -3170 0
2901 -3169 -3170 0
-2901 3169 -3170 0
-2901 -3169 3170 0
2901 3169 -3171 0
2901 -3169 3171 0
-2901 3169 3171 0
-2901 -3169 -3171 0
3168 3170 -3172 0
3168 -3170 3172 0
-3168 3170 3172 0
-3168 -3170 -3172 0
36 59 -3173 0
36 -59 -3173 0
-36 59 -3173 0
-36 -59 3173 0
2912 3173 -3174 0
2912 -3173 -3174 0
-2912 3173 -3174 0
-2912 -3173 3174 0
2912 3173 -3175 0
2912 -3173 3175 0
-2912 3173 3175 0
-2912 -3173 -3175 0
2907 3175 -3176 0
2907 -3175 -3176 0
-2907 3175 -3176 0
-2907 -3175 3176 0
2907 3175 -3177 0
2907 -3175 3177 0
-2907 3175 3177 0
-2907 -3175 -3177 0
3174 3176 -3178 0
3174 -3176 3178 0
-3174 3176 3178 0
-3174 -3176 -3178 0
37 59 -3179 0
37 -59 -3179 0
-37 59 -3179 0
-37 -59 3179 0
2918 3179 -3180 0
2918 -3179 -3180 0
-2918 3179 -3180 0
-2918 -3179 3180 0
2918 3179 -3181 0
2918 -3179 3181 0
-2918 3179 3181 0
-2918 -3179 -3181 0
2913 3181 -3182 0
2913 -3181 -3182 0
-2913 3181 -3182 0
-2913 -3181 3182 0
2913 3181 -3183 0
2913 -3181 3183 0
-2913 3181 3183 0
-2913 -3181 -3183 0
3180 3182 -3184 0
3180 -3182 3184 0
-3180 3182 3184 0
-3180 -3182 -3184 0
38 59 -3185 0
38 -59 -3185 0
-38 59 -3185 0
-38 -59 3185 0
2924 3185 -3186 0
2924 -3185 -3186 0
-2924 3185 -3186 0
-2924 -3185 3186 0
2924 3185 -3187 0
2924 -3185 3187 0
-2924 3185 3187 0
-2924 -3185 -3187 0
2919 3187 -3188 0
2919 -3187 -3188 0
-2919 3187 -3188 0
-2919 -3187 3188 0
2919 3187 -3189 0
2919 -3187 3189 0
-2919 3187 3189 0
-2919 -3187 -3189 0
3186 3188 -3190 0
3186 -3188 3190 0
-3186 3188 3190 0
-3186 -3188 -3190 0
39 59 -3191 0
39 -59 -3191 0
-39 59 -3191 0
-39 -59 3191 0
2930 3191 -3192 0
2930 -3191 -3192 0
-2930 3191 -3192 0
-2930 -3191 3192 0
2930 3191 -3193 0
2930 -3191 3193 0
-2930 3191 3193 0
-2930 -3191 -3193 0
2925 3193 -3194 0
2925 -3193 -3194 0
-2925 3193 -3194 0
-2925 -3193 3194 0
2925 3193 -3195 0
2925 -3193 3195 0
-2925 3193 3195 0
-2925 -3193 -3195 0
3192 3194 -3196 0
3192 -3194 3196 0
-3192 3194 3196 0
-3192 -3194 -3196 0
40 59 -3197 0
40 -59 -3197 0
-40 59 -3197 0
-40 -59 3197 0
2936 3197 -3198 0
2936 -3197 -3198 0
-2936 3197 -3198 0
-2936 -3197 3198 0
2936 3197 -3199 0
2936 -3197 3199 0
-2936 3197 3199 0
-2936 -3197 -3199 0
2931 3199 -3200 0
2931 -3199 -3200 0
-2931 3199 -3200 0
-2931 -3199 3200 0
2931 3199 -3201 0
2931 -3199 3201 0
-2931 3199 3201 0
-2931 -3199 -3201 0
3198 3200 -3202 0
3198 -3200 3202 0
-3198 3200 3202 0
-3198 -3200 -3202 0
41 59 -3203 0
41 -59 -3203 0
-41 59 -3203 0
-41 -59 3203 0
2942 3203 -3204 0
2942 -3203 -3204 0
-2942 3203 -3204 0
-2942 -3203 3204 0
2942 3203 -3205 0
2942 -3203 3205 0
-2942 3203 3205 0
-2942 -3203 -3205 0
2937 3205 -3206 0
2937 -3205 -3206 0
-2937 3205 -3206 0
-2937 -3205 3206 0
2937 3205 -3207 0
2937 -3205 3207 0
-2937 3205 3207 0
-2937 -3205 -3207 0
3204 3206 -3208 0
3204 -3206 3208 0
-3204 3206 3208 0
-3204 -3206 -3208 0
42 59 -3209 0
42 -59 -3209 0
-42 59 -3209 0
-42 -59 3209 0
2948 3209 -3210 0
2948 -3209 -3210 0
-2948 3209 -3210 0
-2948 -3209 3210 0
2948 3209 -3211 0
2948 -3209 3211 0
-2948 3209 3211 0
-2948 -3209 -3211 0
2943 3211 -3212 0
2943 -3211 -3212 0
-2943 3211 -3212 0
-2943 -3211 3212 0
2943 3211 -3213 0
2943 -3211 3213 0
-2943 3211 3213 0
-2943 -3211 -3213 0
3210 3212 -3214 0
3210 -3212 3214 0
-3210 3212 3214 0
-3210 -3212 -3214 0
43 59 -3215 0
43 -59 -3215 0
-43 59 -3215 0
-43 -59 3215 0
2954 3215 -3216 0
2954 -3215 -3216 0
-2954 3215 -3216 0
-2954 -3215 3216 0
2954 3215 -3217 0
2954 -3215 3217 0
-2954 3215 3217 0
-2954 -3215 -3217 0
2949 3217 -3218 0
2949 -3217 -3218 0
-2949 3217 -3218 0
-2949 -3217 3218 0
2949 3217 -3219 0
2949 -3217 3219 0
-2949 3217 3219 0
-2949 -3217 -3219 0
3216 3218 -3220 0
3216 -3218 3220 0
-3216 3218 3220 0
-3216 -3218 -3220 0
44 59 -3221 0
44 -59 -3221 0
-44 59 -3221 0
-44 -59 3221 0
2960 3221 -3222 0
2960 -3221 -3222 0
-2960 3221 -3222 0
-2960 -3221 3222 0
2960 3221 -3223 0
2960 -3221 3223 0
-2960 3221 3223 0
-2960 -3221 -3223 0
2955 3223 -3224 0
2955 -3223 -3224 0
-2955 3223 -3224 0
-2955 -3223 3224 0
2955 3223 -3225 0
2955 -3223 3225 0
-2955 3223 3225 0
-2955 -3223 -3225 0
3222 3224 -3226 0
3222 -3224 3226 0
-3222 3224 3226 0
-3222 -3224 -3226 0
45 59 -3227 0
45 -59 -3227 0
-45 59 -3227 0
-45 -59 3227 0
2962 3227 -3228 0
2962 -3227 -3228 0
-2962 3227 -3228 0
-2962 -3227 3228 0
2962 3227 -3229 0
2962 -3227 3229 0
-2962 3227 3229 0
-2962 -3227 -3229 0
2961 3229 -3230 0
2961 -3229 -3230 0
-2961 3229 -3230 0
-2961 -3229 3230 0
2961 3229 -3231 0
2961 -3229 3231 0
-2961 3229 3231 0
-2961 -3229 -3231 0
3228 3230 -3232 0
3228 -3230 3232 0
-3228 3230 3232 0
-3228 -3230 -3232 0
46 59 -3233 0
46 -59 -3233 0
-46 59 -3233 0
-46 -59 3233 0
1 60 -3234 0
1 -60 -3234 0
-1 60 -3234 0
-1 -60 3234 0
2973 3234 -3235 0
2973 -3234 -3235 0
-2973 3234 -3235 0
-2973 -3234 3235 0
2973 3234 -3236 0
2973 -3234 3236 0
-2973 3234 3236 0
-2973 -3234 -3236 0
2968 3236 -3237 0
2968 -3236 -3237 0
-2968 3236 -3237 0
-2968 -3236 3237 0
2968 3236 -3238 0
2968 -3236 3238 0
-2968 3236 3238 0
-2968 -3236 -3238 0
3235 3237 -3239 0
3235 -3237 3239 0
-3235 3237 3239 0
-3235 -3237 -3239 0
2 60 -3240 0
2 -60 -3240 0
-2 60 -3240 0
-2 -60 3240 0
2979 3240 -3241 0
2979 -3240 -3241 0
-2979 3240 -3241 0
-2979 -3240 3241 0
2979 3240 -3242 0
2979 -3240 3242 0
-2979 3240 3242 0
-2979 -3240 -3242 0
2974 3242 -3243 0
2974 -3242 -3243 0
-2974 3242 -3243 0
-2974 -3242 3243 0
2974 3242 -3244 0
2974 -3242 3244 0
-2974 3242 3244 0
-2974 -3242 -3244 0
3241 3243 -3245 0
3241 -3243 3245 0
-3241 3243 3245 0
-3241 -3243 -3245 0
3 60 -3246 0
3 -60 -3246 0
-3 60 -3246 0
-3 -60 3246 0
2985 3246 -3247 0
2985 -3246 -3247 0
-2985 3246 -3247 0
-2985 -3246 3247 0
2985 3246 -3248 0
2985 -3246 3248 0
-2985 3246 3248 0
-2985 -3246 -3248 0
2980 3248 -3249 0
2980 -3248 -3249 0
-2980 3248 -3249 0
-2980 -3248 3249 0
2980 3248 -3250 0
2980 -3248 3250 0
-2980 3248 3250 0
-2980 -3248 -3250 0
3247 3249 -3251 0
3247 -3249 3251 0
-3247 3249 3251 0
-3247 -3249 -3251 0
4 60 -3252 0
4 -60 -3252 0
-4 60 -3252 0
-4 -60 3252 0
2991 3252 -3253 0
2991 -3252 -3253 0
-2991 3252 -3253 0
-2991 -3252 3253 0
2991 3252 -3254 0
2991 -3252 3254 0
-2991 3252 3254 0
-2991 -3252 -3254 0
2986 3254 -3255 0
2986 -3254 -3255 0
-2986 3254 -3255 0
-2986 -3254 3255 0
2986 3254 -3256 0
2986 -3254 3256 0
-2986 3254 3256 0
-2986 -3254 -3256 0
3253 3255 -3257 0
3253 -3255 3257 0
-3253 3255 3257 0
-3253 -3255 -3257 0
5 60 -3258 0
5 -60 -3258 0
-5 60 -3258 0
-5 -60 3258 0
2997 3258 -3259 0
2997 -3258 -3259 0
-2997 3258 -3259 0
-2997 -3258 3259 0
2997 3258 -3260 0
2997 -3258 3260 0
-2997 3258 3260 0
-2997 -3258 -3260 0
2992 3260 -3261 0
2992 -3260 -3261 0
-2992 3260 -3261 0
-2992 -3260 3261 0
2992 3260 -3262 0
2992 -3260 3262 0
-2992 3260 3262 0
-2992 -3260 -3262 0
3259 3261 -3263 0
3259 -3261 3263 0
-3259 3261 3263 0
-3259 -3261 -3263 0
6 60 -3264 0
6 -60 -3264 0
-6 60 -3264 0
-6 -60 3264 0
3003 3264 -3265 0
3003 -3264 -3265 0
-3003 3264 -3265 0
-3003 -3264 3265 0
3003 3264 -3266 0
3003 -3264 3266 0
-3003 3264 3266 0
-3003 -3264 -3266 0
2998 3266 -3267 0
2998 -3266 -3267 0
-2998 3266 -3267 0
-2998 -3266 3267 0
2998 3266 -3268 0
2998 -3266 3268 0
-2998 3266 3268 0
-2998 -3266 -3268 0
3265 3267 -3269 0
3265 -3267 3269 0
-3265 3267 3269 0
-3265 -3267 -3269 0
7 60 -3270 0
7 -60 -3270 0
-7 60 -3270 0
-7 -60 3270 0
3009 3270 -3271 0
3009 -3270 -3271 0
-3009 3270 -3271 0
-3009 -3270 3271 0
3009 3270 -3272 0
3009 -3270 3272 0
-3009 3270 3272 0
-3009 -3270 -3272 0
3004 3272 -3273 0
3004 -3272 -3273 0
-3004 3272 -3273 0
-3004 -3272 3273 0
3004 3272 -3274 0
3004 -3272 3274 0
-3004 3272 3274 0
-3004 -3272 -3274 0
3271 3273 -3275 0
3271 -3273 3275 0
-3271 3273 3275 0
-3271 -3273 -3275 0
8 60 -3276 0
8 -60 -3276 0
-8 60 -3276 0
-8 -60 3276 0
3015 3276 -3277 0
3015 -3276 -3277 0
-3015 3276 -3277 0
-3015 -3276 3277 0
3015 3276 -3278 0
3015 -3276 3278 0
-3015 3276 3278 0
-3015 -3276 -3278 0
3010 3278 -3279 0
3010 -3278 -3279 0
-3010 3278 -3279 0
-3010 -3278 3279 0
3010 3278 -3280 0
3010 -3278 3280 0
-3010 3278 3280 0
-3010 -3278 -3280 0
3277 3279 -3281 0
3277 -3279 3281 0
-3277 3279 3281 0
-3277 -3279 -3281 0
9 60 -3282 0
9 -60 -3282 0
-9 60 -3282 0
-9 -60 3282 0
3021 3282 -3283 0
3021 -3282 -3283 0
-3021 3282 -3283 0
-3021 -3282 3283 0
3021 3282 -3284 0
3021 -3282 3284 0
-3021 3282 3284 0
-3021 -3282 -3284 0
3016 3284 -3285 0
3016 -3284 -3285 0
-3016 3284 -3285 0
-3016 -3284 3285 0
3016 3284 -3286 0
3016 -3284 3286 0
-3016 3284 3286 0
-3016 -3284 -3286 0
3283 3285 -3287 0
3283 -3285 3287 0
-3283 3285 3287 0
-3283 -3285 -3287 0
10 60 -3288 0
10 -60 -3288 0
-10 60 -3288 0
-10 -60 3288 0
3027 3288 -3289 0
3027 -3288 -3289 0
-3027 3288 -3289 0
-3027 -3288 3289 0
3027 3288 -3290 0
3027 -3288 3290 0
-3027 3288 3290 0
-3027 -3288 -3290 0
3022 3290 -3291 0
3022 -3290 -3291 0
-3022 3290 -3291 0
-3022 -3290 3291 0
3022 3290 -3292 0
3022 -3290 3292 0
-3022 3290 3292 0
-3022 -3290 -3292 0
3289 3291 -3293 0
3289 -3291 3293 0
-3289 3291 3293 0
-3289 -3291 -3293 0
11 60 -3294 0
11 -60 -3294 0
-11 60 -3294 0
-11 -60 3294 0
3033 3294 -3295 0
3033 -3294 -3295 0
-3033 3294 -3295 0
-3033 -3294 3295 0
3033 3294 -3296 0
3033 -3294 3296 0
-3033 3294 3296 0
-3033 -3294 -3296 0
3028 3296 -3297 0
3028 -3296 -3297 0
-3028 3296 -3297 0
-3028 -3296 3297 0
3028 3296 -3298 0
3028 -3296 3298 0
-3028 3296 3298 0
-3028 -3296 -3298 0
3295 3297 -3299 0
3295 -3297 3299 0
-3295 3297 3299 0
-3295 -3297 -3299 0
12 60 -3300 0
12 -60 -3300 0
-12 60 -3300 0
-12 -60 3300 0
3039 3300 -3301 0
3039 -3300 -3301 0
-3039 3300 -3301 0
-3039 -3300 3301 0
3039 3300 -3302 0
3039 -3300 3302 0
-3039 3300 3302 0
-3039 -3300 -3302 0
3034 3302 -3303 0
3034 -3302 -3303 0
-3034 3302 -3303 0
-3034 -3302 3303 0
3034 3302 -3304 0
3034 -3302 3304 0
-3034 3302 3304 0
-3034 -3302 -3304 0
3301 3303 -3305 0
3301 -3303 3305 0
-3301 3303 3305 0
-3301 -3303 -3305 0
13 60 -3306 0
13 -60 -3306 0
-13 60 -3306 0
-13 -60 3306 0
3045 3306 -3307 0
3045 -3306 -3307 0
-3045 3306 -3307 0
-3045 -3306 3307 0
3045 3306 -3308 0
3045 -3306 3308 0
-3045 3306 3308 0
-3045 -3306 -3308 0
3040 3308 -3309 0
3040 -3308 -3309 0
-3040 3308 -3309 0
-3040 -3308 3309 0
3040 3308 -3310 0
3040 -3308 3310 0
-3040 3308 3310 0
-3040 -3308 -3310 0
3307 3309 -3311 0
3307 -3309 3311 0
-3307 3309 3311 0
-3307 -3309 -3311 0
14 60 -3312 0
14 -60 -3312 0
-14 60 -3312 0
-14 -60 3312 0
3051 3312 -3313 0
3051 -3312 -3313 0
-3051 3312 -3313 0
-3051 -3312 3313 0
3051 3312 -3314 0
3051 -3312 3314 0
-3051 3312 3314 0
-3051 -3312 -3314 0
3046 3314 -3315 0
3046 -3314 -3315 0
-3046 3314 -3315 0
-3046 -3314 3315 0
3046 3314 -3316 0
3046 -3314 3316 0
-3046 3314 3316 0
-3046 -3314 -3316 0
3313 3315 -3317 0
3313 -3315 3317 0
-3313 3315 3317 0
-3313 -3315 -3317 0
15 60 -3318 0
15 -60 -3318 0
-15 60 -3318 0
-15 -60 3318 0
3057 3318 -3319 0
3057 -3318 -3319 0
-3057 3318 -3319 0
-3057 -3318 3319 0
3057 3318 -3320 0
3057 -3318 3320 0
-3057 3318 3320 0
-3057 -3318 -3320 0
3052 3320 -3321 0
3052 -3320 -3321 0
-3052 3320 -3321 0
-3052 -3320 3321 0
3052 3320 -3322 0
3052 -3320 3322 0
-3052 3320 3322 0
-3052 -3320 -3322 0
3319 3321 -3323 0
3319 -3321 3323 0
-3319 3321 3323 0
-3319 -3321 -3323 0
16 60 -3324 0
16 -60 -3324 0
-16 60 -3324 0
-16 -60 3324 0
3063 3324 -3325 0
3063 -3324 -3325 0
-3063 3324 -3325 0
-3063 -3324 3325 0
3063 3324 -3326 0
3063 -3324 3326 0
-3063 3324 3326 0
-3063 -3324 -3326 0
3058 3326 -3327 0
3058 -3326 -3327 0
-3058 3326 -3327 0
-3058 -3326 3327 0
3058 3326 -3328 0
3058 -3326 3328 0
-3058 3326 3328 0
-3058 -3326 -3328 0
3325 3327 -3329 0
3325 -3327 3329 0
-3325 3327 3329 0
-3325 -3327 -3329 0
17 60 -3330 0
17 -60 -3330 0
-17 60 -3330 0
-17 -60 3330 0
3069 3330 -3331 0
3069 -3330 -3331 0
-3069 3330 -3331 0
-3069 -3330 3331 0
3069 3330 -3332 0
3069 -3330 3332 0
-3069 3330 3332 0
-3069 -3330 -3332 0
3064 3332 -3333 0
3064 -3332 -3333 0
-3064 3332 -3333 0
-3064 -3332 3333 0
3064 3332 -3334 0
3064 -3332 3334 0
-3064 3332 3334 0
-3064 -3332 -3334 0
3331 3333 -3335 0
3331 -3333 3335 0
-3331 3333 3335 0
-3331 -3333 -3335 0
18 60 -3336 0
18 -60 -3336 0
-18 60 -3336 0
-18 -60 3336 0
3075 3336 -3337 0
3075 -3336 -3337 0
-3075 3336 -3337 0
-3075 -3336 3337 0
3075 3336 -3338 0
3075 -3336 3338 0
-3075 3336 3338 0
-3075 -3336 -3338 0
3070 3338 -3339 0
3070 -3338 -3339 0
-3070 3338 -3339 0
-3070 -3338 3339 0
3070 3338 -3340 0
3070 -3338 3340 0
-3070 3338 3340 0
-3070 -3338 -3340 0
3337 3339 -3341 0
3337 -3339 3341 0
-3337 3339 3341 0
-3337 -3339 -3341 0
19 60 -3342 0
19 -60 -3342 0
-19 60 -3342 0
-19 -60 3342 0
3081 3342 -3343 0
3081 -3342 -3343 0
-3081 3342 -3343 0
-3081 -3342 3343 0
3081 3342 -3344 0
3081 -3342 3344 0
-3081 3342 3344 0
-3081 -3342 -3344 0
3076 3344 -3345 0
3076 -3344 -3345 0
-3076 3344 -3345 0
-3076 -3344 3345 0
3076 3344 -3346 0
3076 -3344 3346 0
-3076 3344 3346 0
-3076 -3344 -3346 0
3343 3345 -3347 0
3343 -3345 3347 0
-3343 3345 3347 0
-3343 -3345 -3347 0
20 60 -3348 0
20 -60 -3348 0
-20 60 -3348 0
-20 -60 3348 0
3087 3348 -3349 0
3087 -3348 -3349 0
-3087 3348 -3349 0
-3087 -3348 3349 0
3087 3348 -3350 0
3087 -3348 3350 0
-3087 3348 3350 0
-3087 -3348 -3350 0
3082 3350 -3351 0
3082 -3350 -3351 0
-3082 3350 -3351 0
-3082 -3350 3351 0
3082 3350 -3352 0
3082 -3350 3352 0
-3082 3350 3352 0
-3082 -3350 -3352 0
3349 3351 -3353 0
3349 -3351 3353 0
-3349 3351 3353 0
-3349 -3351 -3353 0
21 60 -3354 0
21 -60 -3354 0
-21 60 -3354 0
-21 -60 3354 0
3093 3354 -3355 0
3093 -3354 -3355 0
-3093 3354 -3355 0
-3093 -3354 3355 0
3093 3354 -3356 0
3093 -3354 3356 0
-3093 3354 3356 0
-3093 -3354 -3356 0
3088 3356 -3357 0
3088 -3356 -3357 0
-3088 3356 -3357 0
-3088 -3356 3357 0
3088 3356 -3358 0
3088 -3356 3358 0
-3088 3356 3358 0
-3088 -3356 -3358 0
3355 3357 -3359 0
3355 -3357 3359 0
-3355 3357 3359 0
-3355 -3357 -3359 0
22 60 -3360 0
22 -60 -3360 0
-22 60 -3360 0
-22 -60 3360 0
3099 3360 -3361 0
3099 -3360 -3361 0
-3099 3360 -3361 0
-3099 -3360 3361 0
3099 3360 -3362 0
3099 -3360 3362 0
-3099 3360 3362 0
-3099 -3360 -3362 0
3094 3362 -3363 0
3094 -3362 -3363 0
-3094 3362 -3363 0
-3094 -3362 3363 0
3094 3362 -3364 0
3094 -3362 3364 0
-3094 3362 3364 0
-3094 -3362 -3364 0
3361 3363 -3365 0
3361 -3363 3365 0
-3361 3363 3365 0
-3361 -3363 -3365 0
23 60 -3366 0
23 -60 -3366 0
-23 60 -3366 0
-23 -60 3366 0
3105 3366 -3367 0
3105 -3366 -3367 0
-3105 3366 -3367 0
-3105 -3366 3367 0
3105 3366 -3368 0
3105 -3366 3368 0
-3105 3366 3368 0
-3105 -3366 -3368 0
3100 3368 -3369 0
3100 -3368 -3369 0
-3100 3368 -3369 0
-3100 -3368 3369 0
3100 3368 -3370 0
3100 -3368 3370 0
-3100 3368 3370 0
-3100 -3368 -3370 0
3367 3369 -3371 0
3367 -3369 3371 0
-3367 3369 3371 0
-3367 -3369 -3371 0
24 60 -3372 0
24 -60 -3372 0
-24 60 -3372 0
-24 -60 3372 0
3111 3372 -3373 0
3111 -3372 -3373 0
-3111 3372 -3373 0
-3111 -3372 3373 0
3111 3372 -3374 0
3111 -3372 3374 0
-3111 3372 3374 0
-3111 -3372 -3374 0
3106 3374 -3375 0
3106 -3374 -3375 0
-3106 3374 -3375 0
-3106 -3374 3375 0
3106 3374 -3376 0
3106 -3374 3376 0
-3106 3374 3376 0
-3106 -3374 -3376 0
3373 3375 -3377 0
3373 -3375 3377 0
-3373 3375 3377 0
-3373 -3375 -3377 0
25 60 -3378 0
25 -60 -3378 0
-25 60 -3378 0
-25 -60 3378 0
3117 3378 -3379 0
3117 -3378 -3379 0
-3117 3378 -3379 0
-3117 -3378 3379 0
3117 3378 -3380 0
3117 -3378 3380 0
-3117 3378 3380 0
-3117 -3378 -3380 0
3112 3380 -3381 0
3112 -3380 -3381 0
-3112 3380 -3381 0
-3112 -3380 3381 0
3112 3380 -3382 0
3112 -3380 3382 0
-3112 3380 3382 0
-3112 -3380 -3382 0
3379 3381 -3383 0
3379 -3381 3383 0
-3379 3381 3383 0
-3379 -3381 -3383 0
26 60 -3384 0
26 -60 -3384 0
-26 60 -3384 0
-26 -60 3384 0
3123 3384 -3385 0
3123 -3384 -3385 0
-3123 3384 -3385 0
-3123 -3384 3385 0
3123 3384 -3386 0
3123 -3384 3386 0
-3123 3384 3386 0
-3123 -3384 -3386 0
3118 3386 -3387 0
3118 -3386 -3387 0
-3118 3386 -3387 0
-3118 -3386 3387 0
3118 3386 -3388 0
3118 -3386 3388 0
-3118 3386 3388 0
-3118 -3386 -3388 0
3385 3387 -3389 0
3385 -3387 3389 0
-3385 3387 3389 0
-3385 -3387 -3389 0
27 60 -3390 0
27 -60 -3390 0
-27 60 -3390 0
-27 -60 3390 0
3129 3390 -3391 0
3129 -3390 -3391 0
-3129 3390 -3391 0
-3129 -3390 3391 0
3129 3390 -3392 0
3129 -3390 3392 0
-3129 3390 3392 0
-3129 -3390 -3392 0
3124 3392 -3393 0
3124 -3392 -3393 0
-3124 3392 -3393 0
-3124 -3392 3393 0
3124 3392 -3394 0
3124 -3392 3394 0
-3124 3392 3394 0
-3124 -3392 -3394 0
3391 3393 -3395 0
3391 -3393 3395 0
-3391 3393 3395 0
-3391 -3393 -3395 0
28 60 -3396 0
28 -60 -3396 0
-28 60 -3396 0
-28 -60 3396 0
3135 3396 -3397 0
3135 -3396 -3397 0
-3135 3396 -3397 0
-3135 -3396 3397 0
3135 3396 -3398 0
3135 -3396 3398 0
-3135 3396 3398 0
-3135 -3396 -3398 0
3130 3398 -3399 0
3130 -3398 -3399 0
-3130 3398 -3399 0
-3130 -3398 3399 0
3130 3398 -3400 0
3130 -3398 3400 0
-3130 3398 3400 0
-3130 -3398 -3400 0
3397 3399 -3401 0
3397 -3399 3401 0
-3397 3399 3401 0
-3397 -3399 -3401 0
29 60 -3402 0
29 -60 -3402 0
-29 60 -3402 0
-29 -60 3402 0
3141 3402 -3403 0
3141 -3402 -3403 0
-3141 3402 -3403 0
-3141 -3402 3403 0
3141 3402 -3404 0
3141 -3402 3404 0
-3141 3402 3404 0
-3141 -3402 -3404 0
3136 3404 -3405 0
3136 -3404 -3405 0
-3136 3404 -3405 0
-3136 -3404 3405 0
3136 3404 -3406 0
3136 -3404 3406 0
-3136 3404 3406 0
-3136 -3404 -3406 0
3403 3405 -3407 0
3403 -3405 3407 0
-3403 3405 3407 0
-3403 -3405 -3407 0
30 60 -3408 0
30 -60 -3408 0
-30 60 -3408 0
-30 -60 3408 0
3147 3408 -3409 0
3147 -3408 -3409 0
-3147 3408 -3409 0
-3147 -3408 3409 0
3147 3408 -3410 0
3147 -3408 3410 0
-3147 3408 3410 0
-3147 -3408 -3410 0
3142 3410 -3411 0
3142 -3410 -3411 0
-3142 3410 -3411 0
-3142 -3410 3411 0
3142 3410 -3412 0
3142 -3410 3412 0
-3142 3410 3412 0
-3142 -3410 -3412 0
3409 3411 -3413 0
3409 -3411 3413 0
-3409 3411 3413 0
-3409 -3411 -3413 0
31 60 -3414 0
31 -60 -3414 0
-31 60 -3414 0
-31 -60 3414 0
3153 3414 -3415 0
3153 -3414 -3415 0
-3153 3414 -3415 0
-3153 -3414 3415 0
3153 3414 -3416 0
3153 -3414 3416 0
-3153 3414 3416 0
-3153 -3414 -3416 0
3148 3416 -3417 0
3148 -3416 -3417 0
-3148 3416 -3417 0
-3148 -3416 3417 0
3148 3416 -3418 0
3148 -3416 3418 0
-3148 3416 3418 0
-3148 -3416 -3418 0
3415 3417 -3419 0
3415 -3417 3419 0
-3415 3417 3419 0
-3415 -3417 -3419 0
32 60 -3420 0
32 -60 -3420 0
-32 60 -3420 0
-32 -60 3420 0
3159 3420 -3421 0
3159 -3420 -3421 0
-3159 3420 -3421 0
-3159 -3420 3421 0
3159 3420 -3422 0
3159 -3420 3422 0
-3159 3420 3422 0
-3159 -3420 -3422 0
3154 3422 -3423 0
3154 -3422 -3423 0
-3154 3422 -3423 0
-3154 -3422 3423 0
3154 3422 -3424 0
3154 -3422 3424 0
-3154 3422 3424 0
-3154 -3422 -3424 0
3421 3423 -3425 0
3421 -3423 3425 0
-3421 3423 3425 0
-3421 -3423 -3425 0
33 60 -3426 0
33 -60 -3426 0
-33 60 -3426 0
-33 -60 3426 0
3165 3426 -3427 0
3165 -3426 -3427 0
-3165 3426 -3427 0
-3165 -3426 3427 0
3165 3426 -3428 0
3165 -3426 3428 0
-3165 3426 3428 0
-3165 -3426 -3428 0
3160 3428 -3429 0
3160 -3428 -3429 0
-3160 3428 -3429 0
-3160 -3428 3429 0
3160 3428 -3430 0
3160 -3428 3430 0
-3160 3428 3430 0
-3160 -3428 -3430 0
3427 3429 -3431 0
3427 -3429 3431 0
-3427 3429 3431 0
-3427 -3429 -3431 0
34 60 -3432 0
34 -60 -3432 0
-34 60 -3432 0
-34 -60 3432 0
3171 3432 -3433 0
3171 -3432 -3433 0
-3171 3432 -3433 0
-3171 -3432 3433 0
3171 3432 -3434 0
3171 -3432 3434 0
-3171 3432 3434 0
-3171 -3432 -3434 0
3166 3434 -3435 0
3166 -3434 -3435 0
-3166 3434 -3435 0
-3166 -3434 3435 0
3166 3434 -3436 0
3166 -3434 3436 0
-3166 3434 3436 0
-3166 -3434 -3436 0
3433 3435 -3437 0
3433 -3435 3437 0
-3433 3435 3437 0
-3433 -3435 -3437 0
35 60 -3438 0
35 -60 -3438 0
-35 60 -3438 0
-35 -60 3438 0
3177 3438 -3439 0
3177 -3438 -3439 0
-3177 3438 -3439 0
-3177 -3438 3439 0
3177 3438 -3440 0
3177 -3438 3440 0
-3177 3438 3440 0
-3177 -3438 -3440 0
3172 3440 -3441 0
3172 -3440 -3441 0
-3172 3440 -3441 0
-3172 -3440 3441 0
3172 3440 -3442 0
3172 -3440 3442 0
-3172 3440 3442 0
-3172 -3440 -3442 0
3439 3441 -3443 0
3439 -3441 3443 0
-3439 3441 3443 0
-3439 -3441 -3443 0
36 60 -3444 0
36 -60 -3444 0
-36 60 -3444 0
-36 -60 3444 0
3183 3444 -3445 0
3183 -3444 -3445 0
-3183 3444 -3445 0
-3183 -3444 3445 0
3183 3444 -3446 0
3183 -3444 3446 0
-3183 3444 3446 0
-3183 -3444 -3446 0
3178 3446 -3447 0
3178 -3446 -3447 0
-3178 3446 -3447 0
-3178 -3446 3447 0
3178 3446 -3448 0
3178 -3446 3448 0
-3178 3446 3448 0
-3178 -3446 -3448 0
3445 3447 -3449 0
3445 -3447 3449 0
-3445 3447 3449 0
-3445 -3447 -3449 0
37 60 -3450 0
37 -60 -3450 0
-37 60 -3450 0
-37 -60 3450 0
3189 3450 -3451 0
3189 -3450 -3451 0
-3189 3450 -3451 0
-3189 -3450 3451 0
3189 3450 -3452 0
3189 -3450 3452 0
-3189 3450 3452 0
-3189 -3450 -3452 0
3184 3452 -3453 0
3184 -3452 -3453 0
-3184 3452 -3453 0
-3184 -3452 3453 0
3184 3452 -3454 0
3184 -3452 3454 0
-3184 3452 3454 0
-3184 -3452 -3454 0
3451 3453 -3455 0
3451 -3453 3455 0
-3451 3453 3455 0
-3451 -3453 -3455 0
38 60 -3456 0
38 -60 -3456 0
-38 60 -3456 0
-38 -60 3456 0
3195 3456 -3457 0
3195 -3456 -3457 0
-3195 3456 -3457 0
-3195 -3456 3457 0
3195 3456 -3458 0
3195 -3456 3458 0
-3195 3456 3458 0
-3195 -3456 -3458 0
3190 3458 -3459 0
3190 -3458 -3459 0
-3190 3458 -3459 0
-3190 -3458 3459 0
3190 3458 -3460 0
3190 -3458 3460 0
-3190 3458 3460 0
-3190 -3458 -3460 0
3457 3459 -3461 0
3457 -3459 3461 0
-3457 3459 3461 0
-3457 -3459 -3461 0
39 60 -3462 0
39 -60 -3462 0
-39 60 -3462 0
-39 -60 3462 0
3201 3462 -3463 0
3201 -3462 -3463 0
-3201 3462 -3463 0
-3201 -3462 3463 0
3201 3462 -3464 0
3201 -3462 3464 0
-3201 3462 3464 0
-3201 -3462 -3464 0
3196 3464 -3465 0
3196 -3464 -3465 0
-3196 3464 -3465 0
-3196 -3464 3465 0
3196 3464 -3466 0
3196 -3464 3466 0
-3196 3464 3466 0
-3196 -3464 -3466 0
3463 3465 -3467 0
3463 -3465 3467 0
-3463 3465 3467 0
-3463 -3465 -3467 0
40 60 -3468 0
40 -60 -3468 0
-40 60 -3468 0
-40 -60 3468 0
3207 3468 -3469 0
3207 -3468 -3469 0
-3207 3468 -3469 0
-3207 -3468 3469 0
3207 3468 -3470 0
3207 -3468 3470 0
-3207 3468 3470 0
-3207 -3468 -3470 0
3202 3470 -3471 0
3202 -3470 -3471 0
-3202 3470 -3471 0
-3202 -3470 3471 0
3202 3470 -3472 0
3202 -3470 3472 0
-3202 3470 3472 0
-3202 -3470 -3472 0
3469 3471 -3473 0
3469 -3471 3473 0
-3469 3471 3473 0
-3469 -3471 -3473 0
41 60 -3474 0
41 -60 -3474 0
-41 60 -3474 0
-41 -60 3474 0
3213 3474 -3475 0
3213 -3474 -3475 0
-3213 3474 -3475 0
-3213 -3474 3475 0
3213 3474 -3476 0
3213 -3474 3476 0
-3213 3474 3476 0
-3213 -3474 -3476 0
3208 3476 -3477 0
3208 -3476 -3477 0
-3208 3476 -3477 0
-3208 -3476 3477 0
3208 3476 -3478 0
3208 -3476 3478 0
-3208 3476 3478 0
-3208 -3476 -3478 0
3475 3477 -3479 0
3475 -3477 3479 0
-3475 3477 3479 0
-3475 -3477 -3479 0
42 60 -3480 0
42 -60 -3480 0
-42 60 -3480 0
-42 -60 3480 0
3219 3480 -3481 0
3219 -3480 -3481 0
-3219 3480 -3481 0
-3219 -3480 3481 0
3219 3480 -3482 0
3219 -3480 3482 0
-3219 3480 3482 0
-3219 -3480 -3482 0
3214 3482 -3483 0
3214 -3482 -3483 0
-3214 3482 -3483 0
-3214 -3482 3483 0
3214 3482 -3484 0
3214 -3482 3484 0
-3214 3482 3484 0
-3214 -3482 -3484 0
3481 3483 -3485 0
3481 -3483 3485 0
-3481 3483 3485 0
-3481 -3483 -3485 0
43 60 -3486 0
43 -60 -3486 0
-43 60 -3486 0
-43 -60 3486 0
3225 3486 -3487 0
3225 -3486 -3487 0
-3225 3486 -3487 0
-3225 -3486 3487 0
3225 3486 -3488 0
3225 -3486 3488 0
-3225 3486 3488 0
-3225 -3486 -3488 0
3220 3488 -3489 0
3220 -3488 -3489 0
-3220 3488 -3489 0
-3220 -3488 3489 0
3220 3488 -3490 0
3220 -3488 3490 0
-3220 3488 3490 0
-3220 -3488 -3490 0
3487 3489 -3491 0
3487 -3489 3491 0
-3487 3489 3491 0
-3487 -3489 -3491 0
44 60 -3492 0
44 -60 -3492 0
-44 60 -3492 0
-44 -60 3492 0
3231 3492 -3493 0
3231 -3492 -3493 0
-3231 3492 -3493 0
-3231 -3492 3493 0
3231 3492 -3494 0
3231 -3492 3494 0
-3231 3492 3494 0
-3231 -3492 -3494 0
3226 3494 -3495 0
3226 -3494 -3495 0
-3226 3494 -3495 0
-3226 -3494 3495 0
3226 3494 -3496 0
3226 -3494 3496 0
-3226 3494 3496 0
-3226 -3494 -3496 0
3493 3495 -3497 0
3493 -3495 3497 0
-3493 3495 3497 0
-3493 -3495 -3497 0
45 60 -3498 0
45 -60 -3498 0
-45 60 -3498 0
-45 -60 3498 0
3233 3498 -3499 0
3233 -3498 -3499 0
-3233 3498 -3499 0
-3233 -3498 3499 0
3233 3498 -3500 0
3233 -3498 3500 0
-3233 3498 3500 0
-3233 -3498 -3500 0
3232 3500 -3501 0
3232 -3500 -3501 0
-3232 3500 -3501 0
-3232 -3500 3501 0
3232 3500 -3502 0
3232 -3500 3502 0
-3232 3500 3502 0
-3232 -3500 -3502 0
3499 3501 -3503 0
3499 -3501 3503 0
-3499 3501 3503 0
-3499 -3501 -3503 0
46 60 -3504 0
46 -60 -3504 0
-46 60 -3504 0
-46 -60 3504 0
1 61 -3505 0
1 -61 -3505 0
-1 61 -3505 0
-1 -61 3505 0
3244 3505 -3506 0
3244 -3505 -3506 0
-3244 3505 -3506 0
-3244 -3505 3506 0
3244 3505 -3507 0
3244 -3505 3507 0
-3244 3505 3507 0
-3244 -3505 -3507 0
3239 3507 -3508 0
3239 -3507 -3508 0
-3239 3507 -3508 0
-3239 -3507 3508 0
3239 3507 -3509 0
3239 -3507 3509 0
-3239 3507 3509 0
-3239 -3507 -3509 0
3506 3508 -3510 0
3506 -3508 3510 0
-3506 3508 3510 0
-3506 -3508 -3510 0
2 61 -3511 0
2 -61 -3511 0
-2 61 -3511 0
-2 -61 3511 0
3250 3511 -3512 0
3250 -3511 -3512 0
-3250 3511 -3512 0
-3250 -3511 3512 0
3250 3511 -3513 0
3250 -3511 3513 0
-3250 3511 3513 0
-3250 -3511 -3513 0
3245 3513 -3514 0
3245 -3513 -3514 0
-3245 3513 -3514 0
-3245 -3513 3514 0
3245 3513 -3515 0
3245 -3513 3515 0
-3245 3513 3515 0
-3245 -3513 -3515 0
3512 3514 -3516 0
3512 -3514 3516 0
-3512 3514 3516 0
-3512 -3514 -3516 0
3 61 -3517 0
3 -61 -3517 0
-3 61 -3517 0
-3 -61 3517 0
3256 3517 -3518 0
3256 -3517 -3518 0
-3256 3517 -3518 0
-3256 -3517 3518 0
3256 3517 -3519 0
3256 -3517 3519 0
-3256 3517 3519 0
-3256 -3517 -3519 0
3251 3519 -3520 0
3251 -3519 -3520 0
-3251 3519 -3520 0
-3251 -3519 3520 0
3251 3519 -3521 0
3251 -3519 3521 0
-3251 3519 3521 0
-3251 -3519 -3521 0
3518 3520 -3522 0
3518 -3520 3522 0
-3518 3520 3522 0
-3518 -3520 -3522 0
4 61 -3523 0
4 -61 -3523 0
-4 61 -3523 0
-4 -61 3523 0
3262 3523 -3524 0
3262 -3523 -3524 0
-3262 3523 -3524 0
-3262 -3523 3524 0
3262 3523 -3525 0
3262 -3523 3525 0
-3262 3523 3525 0
-3262 -3523 -3525 0
3257 3525 -3526 0
3257 -3525 -3526 0
-3257 3525 -3526 0
-3257 -3525 3526 0
3257 3525 -3527 0
3257 -3525 3527 0
-3257 3525 3527 0
-3257 -3525 -3527 0
3524 3526 -3528 0
3524 -3526 3528 0
-3524 3526 3528 0
-3524 -3526 -3528 0
5 61 -3529 0
5 -61 -3529 0
-5 61 -3529 0
-5 -61 3529 0
3268 3529 -3530 0
3268 -3529 -3530 0
-3268 3529 -3530 0
-3268 -3529 3530 0
3268 3529 -3531 0
3268 -3529 3531 0
-3268 3529 3531 0
-3268 -3529 -3531 0
3263 3531 -3532 0
3263 -3531 -3532 0
-3263 3531 -3532 0
-3263 -3531 3532 0
3263 3531 -3533 0
3263 -3531 3533 0
-3263 3531 3533 0
-3263 -3531 -3533 0
3530 3532 -3534 0
3530 -3532 3534 0
-3530 3532 3534 0
-3530 -3532 -3534 0
6 61 -3535 0
6 -61 -3535 0
-6 61 -3535 0
-6 -61 3535 0
3274 3535 -3536 0
3274 -3535 -3536 0
-3274 3535 -3536 0
-3274 -3535 3536 0
3274 3535 -3537 0
3274 -3535 3537 0
-3274 3535 3537 0
-3274 -3535 -3537 0
3269 3537 -3538 0
3269 -3537 -3538 0
-3269 3537 -3538 0
-3269 -3537 3538 0
3269 3537 -3539 0
3269 -3537 3539 0
-3269 3537 3539 0
-3269 -3537 -3539 0
3536 3538 -3540 0
3536 -3538 3540 0
-3536 3538 3540 0
-3536 -3538 -3540 0
7 61 -3541 0
7 -61 -3541 0
-7 61 -3541 0
-7 -61 3541 0
3280 3541 -3542 0
3280 -3541 -3542 0
-3280 3541 -3542 0
-3280 -3541 3542 0
3280 3541 -3543 0
3280 -3541 3543 0
-3280 3541 3543 0
-3280 -3541 -3543 0
3275 3543 -3544 0
3275 -3543 -3544 0
-3275 3543 -3544 0
-3275 -3543 3544 0
3275 3543 -3545 0
3275 -3543 3545 0
-3275 3543 3545 0
-3275 -3543 -3545 0
3542 3544 -3546 0
3542 -3544 3546 0
-3542 3544 3546 0
-3542 -3544 -3546 0
8 61 -3547 0
8 -61 -3547 0
-8 61 -3547 0
-8 -61 3547 0
3286 3547 -3548 0
3286 -3547 -3548 0
-3286 3547 -3548 0
-3286 -3547 3548 0
3286 3547 -3549 0
3286 -3547 3549 0
-3286 3547 3549 0
-3286 -3547 -3549 0
3281 3549 -3550 0
3281 -3549 -3550 0
-3281 3549 -3550 0
-3281 -3549 3550 0
3281 3549 -3551 0
3281 -3549 3551 0
-3281 3549 3551 0
-3281 -3549 -3551 0
3548 3550 -3552 0
3548 -3550 3552 0
-3548 3550 3552 0
-3548 -3550 -3552 0
9 61 -3553 0
9 -61 -3553 0
-9 61 -3553 0
-9 -61 3553 0
3292 3553 -3554 0
3292 -3553 -3554 0
-3292 3553 -3554 0
-3292 -3553 3554 0
3292 3553 -3555 0
3292 -3553 3555 0
-3292 3553 3555 0
-3292 -3553 -3555 0
3287 3555 -3556 0
3287 -3555 -3556 0
-3287 3555 -3556 0
-3287 -3555 3556 0
3287 3555 -3557 0
3287 -3555 3557 0
-3287 3555 3557 0
-3287 -3555 -3557 0
3554 3556 -3558 0
3554 -3556 3558 0
-3554 3556 3558 0
-3554 -3556 -3558 0
10 61 -3559 0
10 -61 -3559 0
-10 61 -3559 0
-10 -61 3559 0
3298 3559 -3560 0
3298 -3559 -3560 0
-3298 3559 -3560 0
-3298 -3559 3560 0
3298 3559 -3561 0
3298 -3559 3561 0
-3298 3559 3561 0
-3298 -3559 -3561 0
3293 3561 -3562 0
3293 -3561 -3562 0
-3293 3561 -3562 0
-3293 -3561 3562 0
3293 3561 -3563 0
3293 -3561 3563 0
-3293 3561 3563 0
-3293 -3561 -3563 0
3560 3562 -3564 0
3560 -3562 3564 0
-3560 3562 3564 0
-3560 -3562 -3564 0
11 61 -3565 0
11 -61 -3565 0
-11 61 -3565 0
-11 -61 3565 0
3304 3565 -3566 0
3304 -3565 -3566 0
-3304 3565 -3566 0
-3304 -3565 3566 0
3304 3565 -3567 0
3304 -3565 3567 0
-3304 3565 3567 0
-3304 -3565 -3567 0
3299 3567 -3568 0
3299 -3567 -3568 0
-3299 3567 -3568 0
-3299 -3567 3568 0
3299 3567 -3569 0
3299 -3567 3569 0
-3299 3567 3569 0
-3299 -3567 -3569 0
3566 3568 -3570 0
3566 -3568 3570 0
-3566 3568 3570 0
-3566 -3568 -3570 0
12 61 -3571 0
12 -61 -3571 0
-12 61 -3571 0
-12 -61 3571 0
3310 3571 -3572 0
3310 -3571 -3572 0
-3310 3571 -3572 0
-3310 -3571 3572 0
3310 3571 -3573 0
3310 -3571 3573 0
-3310 3571 3573 0
-3310 -3571 -3573 0
3305 3573 -3574 0
3305 -3573 -3574 0
-3305 3573 -3574 0
-3305 -3573 3574 0
3305 3573 -3575 0
3305 -3573 3575 0
-3305 3573 3575 0
-3305 -3573 -3575 0
3572 3574 -3576 0
3572 -3574 3576 0
-3572 3574 3576 0
-3572 -3574 -3576 0
13 61 -3577 0
13 -61 -3577 0
-13 61 -3577 0
-13 -61 3577 0
3316 3577 -3578 0
3316 -3577 -3578 0
-3316 3577 -3578 0
-3316 -3577 3578 0
3316 3577 -3579 0
3316 -3577 3579 0
-3316 3577 3579 0
-3316 -3577 -3579 0
3311 3579 -3580 0
3311 -3579 -3580 0
-3311 3579 -3580 0
-3311 -3579 3580 0
3311 3579 -3581 0
3311 -3579 3581 0
-3311 3579 3581 0
-3311 -3579 -3581 0
3578 3580 -3582 0
3578 -3580 3582 0
-3578 3580 3582 0
-3578 -3580 -3582 0
14 61 -3583 0
14 -61 -3583 0
-14 61 -3583 0
-14 -61 3583 0
3322 3583 -3584 0
3322 -3583 -3584 0
-3322 3583 -3584 0
-3322 -3583 3584 0
3322 3583 -3585 0
3322 -3583 3585 0
-3322 3583 3585 0
-3322 -3583 -3585 0
3317 3585 -3586 0
3317 -3585 -3586 0
-3317 3585 -3586 0
-3317 -3585 3586 0
3317 3585 -3587 0
3317 -3585 3587 0
-3317 3585 3587 0
-3317 -3585 -3587 0
3584 3586 -3588 0
3584 -3586 3588 0
-3584 3586 3588 0
-3584 -3586 -3588 0
15 61 -3589 0
15 -61 -3589 0
-15 61 -3589 0
-15 -61 3589 0
3328 3589 -3590 0
3328 -3589 -3590 0
-3328 3589 -3590 0
-3328 -3589 3590 0
3328 3589 -3591 0
3328 -3589 3591 0
-3328 3589 3591 0
-3328 -3589 -3591 0
3323 3591 -3592 0
3323 -3591 -3592 0
-3323 3591 -3592 0
-3323 -3591 3592 0
3323 3591 -3593 0
3323 -3591 3593 0
-3323 3591 3593 0
-3323 -3591 -3593 0
3590 3592 -3594 0
3590 -3592 3594 0
-3590 3592 3594 0
-3590 -3592 -3594 0
16 61 -3595 0
16 -61 -3595 0
-16 61 -3595 0
-16 -61 3595 0
3334 3595 -3596 0
3334 -3595 -3596 0
-3334 3595 -3596 0
-3334 -3595 3596 0
3334 3595 -3597 0
3334 -3595 3597 0
-3334 3595 3597 0
-3334 -3595 -3597 0
3329 3597 -3598 0
3329 -3597 -3598 0
-3329 3597 -3598 0
-3329 -3597 3598 0
3329 3597 -3599 0
3329 -3597 3599 0
-3329 3597 3599 0
-3329 -3597 -3599 0
3596 3598 -3600 0
3596 -3598 3600 0
-3596 3598 3600 0
-3596 -3598 -3600 0
17 61 -3601 0
17 -61 -3601 0
-17 61 -3601 0
-17 -61 3601 0
3340 3601 -3602 0
3340 -3601 -3602 0
-3340 3601 -3602 0
-3340 -3601 3602 0
3340 3601 -3603 0
3340 -3601 3603 0
-3340 3601 3603 0
-3340 -3601 -3603 0
3335 3603 -3604 0
3335 -3603 -3604 0
-3335 3603 -3604 0
-3335 -3603 3604 0
3335 3603 -3605 0
3335 -3603 3605 0
-3335 3603 3605 0
-3335 -3603 -3605 0
3602 3604 -3606 0
3602 -3604 3606 0
-3602 3604 3606 0
-3602 -3604 -3606 0
18 61 -3607 0
18 -61 -3607 0
-18 61 -3607 0
-18 -61 3607 0
3346 3607 -3608 0
3346 -3607 -3608 0
-3346 3607 -3608 0
-3346 -3607 3608 0
3346 3607 -3609 0
3346 -3607 3609 0
-3346 3607 3609 0
-3346 -3607 -3609 0
3341 3609 -3610 0
3341 -3609 -3610 0
-3341 3609 -3610 0
-3341 -3609 3610 0
3341 3609 -3611 0
3341 -3609 3611 0
-3341 3609 3611 0
-3341 -3609 -3611 0
3608 3610 -3612 0
3608 -3610 3612 0
-3608 3610 3612 0
-3608 -3610 -3612 0
19 61 -3613 0
19 -61 -3613 0
-19 61 -3613 0
-19 -61 3613 0
3352 3613 -3614 0
3352 -3613 -3614 0
-3352 3613 -3614 0
-3352 -3613 3614 0
3352 3613 -3615 0
3352 -3613 3615 0
-3352 3613 3615 0
-3352 -3613 -3615 0
3347 3615 -3616 0
3347 -3615 -3616 0
-3347 3615 -3616 0
-3347 -3615 3616 0
3347 3615 -3617 0
3347 -3615 3617 0
-3347 3615 3617 0
-3347 -3615 -3617 0
3614 3616 -3618 0
3614 -3616 3618 0
-3614 3616 3618 0
-3614 -3616 -3618 0
20 61 -3619 0
20 -61 -3619 0
-20 61 -3619 0
-20 -61 3619 0
3358 3619 -3620 0
3358 -3619 -3620 0
-3358 3619 -3620 0
-3358 -3619 3620 0
3358 3619 -3621 0
3358 -3619 3621 0
-3358 3619 3621 0
-3358 -3619 -3621 0
3353 3621 -3622 0
3353 -3621 -3622 0
-3353 3621 -3622 0
-3353 -3621 3622 0
3353 3621 -3623 0
3353 -3621 3623 0
-3353 3621 3623 0
-3353 -3621 -3623 0
3620 3622 -3624 0
3620 -3622 3624 0
-3620 3622 3624 0
-3620 -3622 -3624 0
21 61 -3625 0
21 -61 -3625 0
-21 61 -3625 0
-21 -61 3625 0
3364 3625 -3626 0
3364 -3625 -3626 0
-3364 3625 -3626 0
-3364 -3625 3626 0
3364 3625 -3627 0
3364 -3625 3627 0
-3364 3625 3627 0
-3364 -3625 -3627 0
3359 3627 -3628 0
3359 -3627 -3628 0
-3359 3627 -3628 0
-3359 -3627 3628 0
3359 3627 -3629 0
3359 -3627 3629 0
-3359 3627 3629 0
-3359 -3627 -3629 0
3626 3628 -3630 0
3626 -3628 3630 0
-3626 3628 3630 0
-3626 -3628 -3630 0
22 61 -3631 0
22 -61 -3631 0
-22 61 -3631 0
-22 -61 3631 0
3370 3631 -3632 0
3370 -3631 -3632 0
-3370 3631 -3632 0
-3370 -3631 3632 0
3370 3631 -3633 0
3370 -3631 3633 0
-3370 3631 3633 0
-3370 -3631 -3633 0
3365 3633 -3634 0
3365 -3633 -3634 0
-3365 3633 -3634 0
-3365 -3633 3634 0
3365 3633 -3635 0
3365 -3633 3635 0
-3365 3633 3635 0
-3365 -3633 -3635 0
3632 3634 -3636 0
3632 -3634 3636 0
-3632 3634 3636 0
-3632 -3634 -3636 0
23 61 -3637 0
23 -61 -3637 0
-23 61 -3637 0
-23 -61 3637 0
3376 3637 -3638 0
3376 -3637 -3638 0
-3376 3637 -3638 0
-3376 -3637 3638 0
3376 3637 -3639 0
3376 -3637 3639 0
-3376 3637 3639 0
-3376 -3637 -3639 0
3371 3639 -3640 0
3371 -3639 -3640 0
-3371 3639 -3640 0
-3371 -3639 3640 0
3371 3639 -3641 0
3371 -3639 3641 0
-3371 3639 3641 0
-3371 -3639 -3641 0
3638 3640 -3642 0
3638 -3640 3642 0
-3638 3640 3642 0
-3638 -3640 -3642 0
24 61 -3643 0
24 -61 -3643 0
-24 61 -3643 0
-24 -61 3643 0
3382 3643 -3644 0
3382 -3643 -3644 0
-3382 3643 -3644 0
-3382 -3643 3644 0
3382 3643 -3645 0
3382 -3643 3645 0
-3382 3643 3645 0
-3382 -3643 -3645 0
3377 3645 -3646 0
3377 -3645 -3646 0
-3377 3645 -3646 0
-3377 -3645 3646 0
3377 3645 -3647 0
3377 -3645 3647 0
-3377 3645 3647 0
-3377 -3645 -3647 0
3644 3646 -3648 0
3644 -3646 3648 0
-3644 3646 3648 0
-3644 -3646 -3648 0
25 61 -3649 0
25 -61 -3649 0
-25 61 -3649 0
-25 -61 3649 0
3388 3649 -3650 0
3388 -3649 -3650 0
-3388 3649 -3650 0
-3388 -3649 3650 0
3388 3649 -3651 0
3388 -3649 3651 0
-3388 3649 3651 0
-3388 -3649 -3651 0
3383 3651 -3652 0
3383 -3651 -3652 0
-3383 3651 -3652 0
-3383 -3651 3652 0
3383 3651 -3653 0
3383 -3651 3653 0
-3383 3651 3653 0
-3383 -3651 -3653 0
3650 3652 -3654 0
3650 -3652 3654 0
-3650 3652 3654 0
-3650 -3652 -3654 0
26 61 -3655 0
26 -61 -3655 0
-26 61 -3655 0
-26 -61 3655 0
3394 3655 -3656 0
3394 -3655 -3656 0
-3394 3655 -3656 0
-3394 -3655 3656 0
3394 3655 -3657 0
3394 -3655 3657 0
-3394 3655 3657 0
-3394 -3655 -3657 0
3389 3657 -3658 0
3389 -3657 -3658 0
-3389 3657 -3658 0
-3389 -3657 3658 0
3389 3657 -3659 0
3389 -3657 3659 0
-3389 3657 3659 0
-3389 -3657 -3659 0
3656 3658 -3660 0
3656 -3658 3660 0
-3656 3658 3660 0
-3656 -3658 -3660 0
27 61 -3661 0
27 -61 -3661 0
-27 61 -3661 0
-27 -61 3661 0
3400 3661 -3662 0
3400 -3661 -3662 0
-3400 3661 -3662 0
-3400 -3661 3662 0
3400 3661 -3663 0
3400 -3661 3663 0
-3400 3661 3663 0
-3400 -3661 -3663 0
3395 3663 -3664 0
3395 -3663 -3664 0
-3395 3663 -3664 0
-3395 -3663 3664 0
3395 3663 -3665 0
3395 -3663 3665 0
-3395 3663 3665 0
-3395 -3663 -3665 0
3662 3664 -3666 0
3662 -3664 3666 0
-3662 3664 3666 0
-3662 -3664 -3666 0
28 61 -3667 0
28 -61 -3667 0
-28 61 -3667 0
-28 -61 3667 0
3406 3667 -3668 0
3406 -3667 -3668 0
-3406 3667 -3668 0
-3406 -3667 3668 0
3406 3667 -3669 0
3406 -3667 3669 0
-3406 3667 3669 0
-3406 -3667 -3669 0
3401 3669 -3670 0
3401 -3669 -3670 0
-3401 3669 -3670 0
-3401 -3669 3670 0
3401 3669 -3671 0
3401 -3669 3671 0
-3401 3669 3671 0
-3401 -3669 -3671 0
3668 3670 -3672 0
3668 -3670 3672 0
-3668 3670 3672 0
-3668 -3670 -3672 0
29 61 -3673 0
29 -61 -3673 0
-29 61 -3673 0
-29 -61 3673 0
3412 3673 -3674 0
3412 -3673 -3674 0
-3412 3673 -3674 0
-3412 -3673 3674 0
3412 3673 -3675 0
3412 -3673 3675 0
-3412 3673 3675 0
-3412 -3673 -3675 0
3407 3675 -3676 0
3407 -3675 -3676 0
-3407 3675 -3676 0
-3407 -3675 3676 0
3407 3675 -3677 0
3407 -3675 3677 0
-3407 3675 3677 0
-3407 -3675 -3677 0
3674 3676 -3678 0
3674 -3676 3678 0
-3674 3676 3678 0
-3674 -3676 -3678 0
30 61 -3679 0
30 -61 -3679 0
-30 61 -3679 0
-30 -61 3679 0
3418 3679 -3680 0
3418 -3679 -3680 0
-3418 3679 -3680 0
-3418 -3679 3680 0
3418 3679 -3681 0
3418 -3679 3681 0
-3418 3679 3681 0
-3418 -3679 -3681 0
3413 3681 -3682 0
3413 -3681 -3682 0
-3413 3681 -3682 0
-3413 -3681 3682 0
3413 3681 -3683 0
3413 -3681 3683 0
-3413 3681 3683 0
-3413 -3681 -3683 0
3680 3682 -3684 0
3680 -3682 3684 0
-3680 3682 3684 0
-3680 -3682 -3684 0
31 61 -3685 0
31 -61 -3685 0
-31 61 -3685 0
-31 -61 3685 0
3424 3685 -3686 0
3424 -3685 -3686 0
-3424 3685 -3686 0
-3424 -3685 3686 0
3424 3685 -3687 0
3424 -3685 3687 0
-3424 3685 3687 0
-3424 -3685 -3687 0
3419 3687 -3688 0
3419 -3687 -3688 0
-3419 3687 -3688 0
-3419 -3687 3688 0
3419 3687 -3689 0
3419 -3687 3689 0
-3419 3687 3689 0
-3419 -3687 -3689 0
3686 3688 -3690 0
3686 -3688 3690 0
-3686 3688 3690 0
-3686 -3688 -3690 0
32 61 -3691 0
32 -61 -3691 0
-32 61 -3691 0
-32 -61 3691 0
3430 3691 -3692 0
3430 -3691 -3692 0
-3430 3691 -3692 0
-3430 -3691 3692 0
3430 3691 -3693 0
3430 -3691 3693 0
-3430 3691 3693 0
-3430 -3691 -3693 0
3425 3693 -3694 0
3425 -3693 -3694 0
-3425 3693 -3694 0
-3425 -3693 3694 0
3425 3693 -3695 0
3425 -3693 3695 0
-3425 3693 3695 0
-3425 -3693 -3695 0
3692 3694 -3696 0
3692 -3694 3696 0
-3692 3694 3696 0
-3692 -3694 -3696 0
33 61 -3697 0
33 -61 -3697 0
-33 61 -3697 0
-33 -61 3697 0
3436 3697 -3698 0
3436 -3697 -3698 0
-3436 3697 -3698 0
-3436 -3697 3698 0
3436 3697 -3699 0
3436 -3697 3699 0
-3436 3697 3699 0
-3436 -3697 -3699 0
3431 3699 -3700 0
3431 -3699 -3700 0
-3431 3699 -3700 0
-3431 -3699 3700 0
3431 3699 -3701 0
3431 -3699 3701 0
-3431 3699 3701 0
-3431 -3699 -3701 0
3698 3700 -3702 0
3698 -3700 3702 0
-3698 3700 3702 0
-3698 -3700 -3702 0
34 61 -3703 0
34 -61 -3703 0
-34 61 -3703 0
-34 -61 3703 0
3442 3703 -3704 0
3442 -3703 -3704 0
-3442 3703 -3704 0
-3442 -3703 3704 0
3442 3703 -3705 0
3442 -3703 3705 0
-3442 3703 3705 0
-3442 -3703 -3705 0
3437 3705 -3706 0
3437 -3705 -3706 0
-3437 3705 -3706 0
-3437 -3705 3706 0
3437 3705 -3707 0
3437 -3705 3707 0
-3437 3705 3707 0
-3437 -3705 -3707 0
3704 3706 -3708 0
3704 -3706 3708 0
-3704 3706 3708 0
-3704 -3706 -3708 0
35 61 -3709 0
35 -61 -3709 0
-35 61 -3709 0
-35 -61 3709 0
3448 3709 -3710 0
3448 -3709 -3710 0
-3448 3709 -3710 0
-3448 -3709 3710 0
3448 3709 -3711 0
3448 -3709 3711 0
-3448 3709 3711 0
-3448 -3709 -3711 0
3443 3711 -3712 0
3443 -3711 -3712 0
-3443 3711 -3712 0
-3443 -3711 3712 0
3443 3711 -3713 0
3443 -3711 3713 0
-3443 3711 3713 0
-3443 -3711 -3713 0
3710 3712 -3714 0
3710 -3712 3714 0
-3710 3712 3714 0
-3710 -3712 -3714 0
36 61 -3715 0
36 -61 -3715 0
-36 61 -3715 0
-36 -61 3715 0
3454 3715 -3716 0
3454 -3715 -3716 0
-3454 3715 -3716 0
-3454 -3715 3716 0
3454 3715 -3717 0
3454 -3715 3717 0
-3454 3715 3717 0
-3454 -3715 -3717 0
3449 3717 -3718 0
3449 -3717 -3718 0
-3449 3717 -3718 0
-3449 -3717 3718 0
3449 3717 -3719 0
3449 -3717 3719 0
-3449 3717 3719 0
-3449 -3717 -3719 0
3716 3718 -3720 0
3716 -3718 3720 0
-3716 3718 3720 0
-3716 -3718 -3720 0
37 61 -3721 0
37 -61 -3721 0
-37 61 -3721 0
-37 -61 3721 0
3460 3721 -3722 0
3460 -3721 -3722 0
-3460 3721 -3722 0
-3460 -3721 3722 0
3460 3721 -3723 0
3460 -3721 3723 0
-3460 3721 3723 0
-3460 -3721 -3723 0
3455 3723 -3724 0
3455 -3723 -3724 0
-3455 3723 -3724 0
-3455 -3723 3724 0
3455 3723 -3725 0
3455 -3723 3725 0
-3455 3723 3725 0
-3455 -3723 -3725 0
3722 3724 -3726 0
3722 -3724 3726 0
-3722 3724 3726 0
-3722 -3724 -3726 0
38 61 -3727 0
38 -61 -3727 0
-38 61 -3727 0
-38 -61 3727 0
3466 3727 -3728 0
3466 -3727 -3728 0
-3466 3727 -3728 0
-3466 -3727 3728 0
3466 3727 -3729 0
3466 -3727 3729 0
-3466 3727 3729 0
-3466 -3727 -3729 0
3461 3729 -3730 0
3461 -3729 -3730 0
-3461 3729 -3730 0
-3461 -3729 3730 0
3461 3729 -3731 0
3461 -3729 3731 0
-3461 3729 3731 0
-3461 -3729 -3731 0
3728 3730 -3732 0
3728 -3730 3732 0
-3728 3730 3732 0
-3728 -3730 -3732 0
39 61 -3733 0
39 -61 -3733 0
-39 61 -3733 0
-39 -61 3733 0
3472 3733 -3734 0
3472 -3733 -3734 0
-3472 3733 -3734 0
-3472 -3733 3734 0
3472 3733 -3735 0
3472 -3733 3735 0
-3472 3733 3735 0
-3472 -3733 -3735 0
3467 3735 -3736 0
3467 -3735 -3736 0
-3467 3735 -3736 0
-3467 -3735 3736 0
3467 3735 -3737 0
3467 -3735 3737 0
-3467 3735 3737 0
-3467 -3735 -3737 0
3734 3736 -3738 0
3734 -3736 3738 0
-3734 3736 3738 0
-3734 -3736 -3738 0
40 61 -3739 0
40 -61 -3739 0
-40 61 -3739 0
-40 -61 3739 0
3478 3739 -3740 0
3478 -3739 -3740 0
-3478 3739 -3740 0
-3478 -3739 3740 0
3478 3739 -3741 0
3478 -3739 3741 0
-3478 3739 3741 0
-3478 -3739 -3741 0
3473 3741 -3742 0
3473 -3741 -3742 0
-3473 3741 -3742 0
-3473 -3741 3742 0
3473 3741 -3743 0
3473 -3741 3743 0
-3473 3741 3743 0
-3473 -3741 -3743 0
3740 3742 -3744 0
3740 -3742 3744 0
-3740 3742 3744 0
-3740 -3742 -3744 0
41 61 -3745 0
41 -61 -3745 0
-41 61 -3745 0
-41 -61 3745 0
3484 3745 -3746 0
3484 -3745 -3746 0
-3484 3745 -3746 0
-3484 -3745 3746 0
3484 3745 -3747 0
3484 -3745 3747 0
-3484 3745 3747 0
-3484 -3745 -3747 0
3479 3747 -3748 0
3479 -3747 -3748 0
-3479 3747 -3748 0
-3479 -3747 3748 0
3479 3747 -3749 0
3479 -3747 3749 0
-3479 3747 3749 0
-3479 -3747 -3749 0
3746 3748 -3750 0
3746 -3748 3750 0
-3746 3748 3750 0
-3746 -3748 -3750 0
42 61 -3751 0
42 -61 -3751 0
-42 61 -3751 0
-42 -61 3751 0
3490 3751 -3752 0
3490 -3751 -3752 0
-3490 3751 -3752 0
-3490 -3751 3752 0
3490 3751 -3753 0
3490 -3751 3753 0
-3490 3751 3753 0
-3490 -3751 -3753 0
3485 3753 -3754 0
3485 -3753 -3754 0
-3485 3753 -3754 0
-3485 -3753 3754 0
3485 3753 -3755 0
3485 -3753 3755 0
-3485 3753 3755 0
-3485 -3753 -3755 0
3752 3754 -3756 0
3752 -3754 3756 0
-3752 3754 3756 0
-3752 -3754 -3756 0
43 61 -3757 0
43 -61 -3757 0
-43 61 -3757 0
-43 -61 3757 0
3496 3757 -3758 0
3496 -3757 -3758 0
-3496 3757 -3758 0
-3496 -3757 3758 0
3496 3757 -3759 0
3496 -3757 3759 0
-3496 3757 3759 0
-3496 -3757 -3759 0
3491 3759 -3760 0
3491 -3759 -3760 0
-3491 3759 -3760 0
-3491 -3759 3760 0
3491 3759 -3761 0
3491 -3759 3761 0
-3491 3759 3761 0
-3491 -3759 -3761 0
3758 3760 -3762 0
3758 -3760 3762 0
-3758 3760 3762 0
-3758 -3760 -3762 0
44 61 -3763 0
44 -61 -3763 0
-44 61 -3763 0
-44 -61 3763 0
3502 3763 -3764 0
3502 -3763 -3764 0
-3502 3763 -3764 0
-3502 -3763 3764 0
3502 3763 -3765 0
3502 -3763 3765 0
-3502 3763 3765 0
-3502 -3763 -3765 0
3497 3765 -3766 0
3497 -3765 -3766 0
-3497 3765 -3766 0
-3497 -3765 3766 0
3497 3765 -3767 0
3497 -3765 3767 0
-3497 3765 3767 0
-3497 -3765 -3767 0
3764 3766 -3768 0
3764 -3766 3768 0
-3764 3766 3768 0
-3764 -3766 -3768 0
45 61 -3769 0
45 -61 -3769 0
-45 61 -3769 0
-45 -61 3769 0
3504 3769 -3770 0
3504 -3769 -3770 0
-3504 3769 -3770 0
-3504 -3769 3770 0
3504 3769 -3771 0
3504 -3769 3771 0
-3504 3769 3771 0
-3504 -3769 -3771 0
3503 3771 -3772 0
3503 -3771 -3772 0
-3503 3771 -3772 0
-3503 -3771 3772 0
3503 3771 -3773 0
3503 -3771 3773 0
-3503 3771 3773 0
-3503 -3771 -3773 0
3770 3772 -3774 0
3770 -3772 3774 0
-3770 3772 3774 0
-3770 -3772 -3774 0
46 61 -3775 0
46 -61 -3775 0
-46 61 -3775 0
-46 -61 3775 0
1 62 -3776 0
1 -62 -3776 0
-1 62 -3776 0
-1 -62 3776 0
3515 3776 -3777 0
3515 -3776 -3777 0
-3515 3776 -3777 0
-3515 -3776 3777 0
3515 3776 -3778 0
3515 -3776 3778 0
-3515 3776 3778 0
-3515 -3776 -3778 0
3510 3778 -3779 0
3510 -3778 -3779 0
-3510 3778 -3779 0
-3510 -3778 3779 0
3510 3778 -3780 0
3510 -3778 3780 0
-3510 3778 3780 0
-3510 -3778 -3780 0
3777 3779 -3781 0
3777 -3779 3781 0
-3777 3779 3781 0
-3777 -3779 -3781 0
2 62 -3782 0
2 -62 -3782 0
-2 62 -3782 0
-2 -62 3782 0
3521 3782 -3783 0
3521 -3782 -3783 0
-3521 3782 -3783 0
-3521 -3782 3783 0
3521 3782 -3784 0
3521 -3782 3784 0
-3521 3782 3784 0
-3521 -3782 -3784 0
3516 3784 -3785 0
3516 -3784 -3785 0
-3516 3784 -3785 0
-3516 -3784 3785 0
3516 3784 -3786 0
3516 -3784 3786 0
-3516 3784 3786 0
-3516 -3784 -3786 0
3783 3785 -3787 0
3783 -3785 3787 0
-3783 3785 3787 0
-3783 -3785 -3787 0
3 62 -3788 0
3 -62 -3788 0
-3 62 -3788 0
-3 -62 3788 0
3527 3788 -3789 0
3527 -3788 -3789 0
-3527 3788 -3789 0
-3527 -3788 3789 0
3527 3788 -3790 0
3527 -3788 3790 0
-3527 3788 3790 0
-3527 -3788 -3790 0
3522 3790 -3791 0
3522 -3790 -3791 0
-3522 3790 -3791 0
-3522 -3790 3791 0
3522 3790 -3792 0
3522 -3790 3792 0
-3522 3790 3792 0
-3522 -3790 -3792 0
3789 3791 -3793 0
3789 -3791 3793 0
-3789 3791 3793 0
-3789 -3791 -3793 0
4 62 -3794 0
4 -62 -3794 0
-4 62 -3794 0
-4 -62 3794 0
3533 3794 -3795 0
3533 -3794 -3795 0
-3533 3794 -3795 0
-3533 -3794 3795 0
3533 3794 -3796 0
3533 -3794 3796 0
-3533 3794 3796 0
-3533 -3794 -3796 0
3528 3796 -3797 0
3528 -3796 -3797 0
-3528 3796 -3797 0
-3528 -3796 3797 0
3528 3796 -3798 0
3528 -3796 3798 0
-3528 3796 3798 0
-3528 -3796 -3798 0
3795 3797 -3799 0
3795 -3797 3799 0
-3795 3797 3799 0
-3795 -3797 -3799 0
5 62 -3800 0
5 -62 -3800 0
-5 62 -3800 0
-5 -62 3800 0
3539 3800 -3801 0
3539 -3800 -3801 0
-3539 3800 -3801 0
-3539 -3800 3801 0
3539 3800 -3802 0
3539 -3800 3802 0
-3539 3800 3802 0
-3539 -3800 -3802 0
3534 3802 -3803 0
3534 -3802 -3803 0
-3534 3802 -3803 0
-3534 -3802 3803 0
3534 3802 -3804 0
3534 -3802 3804 0
-3534 3802 3804 0
-3534 -3802 -3804 0
3801 3803 -3805 0
3801 -3803 3805 0
-3801 3803 3805 0
-3801 -3803 -3805 0
6 62 -3806 0
6 -62 -3806 0
-6 62 -3806 0
-6 -62 3806 0
3545 3806 -3807 0
3545 -3806 -3807 0
-3545 3806 -3807 0
-3545 -3806 3807 0
3545 3806 -3808 0
3545 -3806 3808 0
-3545 3806 3808 0
-3545 -3806 -3808 0
3540 3808 -3809 0
3540 -3808 -3809 0
-3540 3808 -3809 0
-3540 -3808 3809 0
3540 3808 -3810 0
3540 -3808 3810 0
-3540 3808 3810 0
-3540 -3808 -3810 0
3807 3809 -3811 0
3807 -3809 3811 0
-3807 3809 3811 0
-3807 -3809 -3811 0
7 62 -3812 0
7 -62 -3812 0
-7 62 -3812 0
-7 -62 3812 0
3551 3812 -3813 0
3551 -3812 -3813 0
-3551 3812 -3813 0
-3551 -3812 3813 0
3551 3812 -3814 0
3551 -3812 3814 0
-3551 3812 3814 0
-3551 -3812 -3814 0
3546 3814 -3815 0
3546 -3814 -3815 0
-3546 3814 -3815 0
-3546 -3814 3815 0
3546 3814 -3816 0
3546 -3814 3816 0
-3546 3814 3816 0
-3546 -3814 -3816 0
3813 3815 -3817 0
3813 -3815 3817 0
-3813 3815 3817 0
-3813 -3815 -3817 0
8 62 -3818 0
8 -62 -3818 0
-8 62 -3818 0
-8 -62 3818 0
3557 3818 -3819 0
3557 -3818 -3819 0
-3557 3818 -3819 0
-3557 -3818 3819 0
3557 3818 -3820 0
3557 -3818 3820 0
-3557 3818 3820 0
-3557 -3818 -3820 0
3552 3820 -3821 0
3552 -3820 -3821 0
-3552 3820 -3821 0
-3552 -3820 3821 0
3552 3820 -3822 0
3552 -3820 3822 0
-3552 3820 3822 0
-3552 -3820 -3822 0
3819 3821 -3823 0
3819 -3821 3823 0
-3819 3821 3823 0
-3819 -3821 -3823 0
9 62 -3824 0
9 -62 -3824 0
-9 62 -3824 0
-9 -62 3824 0
3563 3824 -3825 0
3563 -3824 -3825 0
-3563 3824 -3825 0
-3563 -3824 3825 0
3563 3824 -3826 0
3563 -3824 3826 0
-3563 3824 3826 0
-3563 -3824 -3826 0
3558 3826 -3827 0
3558 -3826 -3827 0
-3558 3826 -3827 0
-3558 -3826 3827 0
3558 3826 -3828 0
3558 -3826 3828 0
-3558 3826 3828 0
-3558 -3826 -3828 0
3825 3827 -3829 0
3825 -3827 3829 0
-3825 3827 3829 0
-3825 -3827 -3829 0
10 62 -3830 0
10 -62 -3830 0
-10 62 -3830 0
-10 -62 3830 0
3569 3830 -3831 0
3569 -3830 -3831 0
-3569 3830 -3831 0
-3569 -3830 3831 0
3569 3830 -3832 0
3569 -3830 3832 0
-3569 3830 3832 0
-3569 -3830 -3832 0
3564 3832 -3833 0
3564 -3832 -3833 0
-3564 3832 -3833 0
-3564 -3832 3833 0
3564 3832 -3834 0
3564 -3832 3834 0
-3564 3832 3834 0
-3564 -3832 -3834 0
3831 3833 -3835 0
3831 -3833 3835 0
-3831 3833 3835 0
-3831 -3833 -3835 0
11 62 -3836 0
11 -62 -3836 0
-11 62 -3836 0
-11 -62 3836 0
3575 3836 -3837 0
3575 -3836 -3837 0
-3575 3836 -3837 0
-3575 -3836 3837 0
3575 3836 -3838 0
3575 -3836 3838 0
-3575 3836 3838 0
-3575 -3836 -3838 0
3570 3838 -3839 0
3570 -3838 -3839 0
-3570 3838 -3839 0
-3570 -3838 3839 0
3570 3838 -3840 0
3570 -3838 3840 0
-3570 3838 3840 0
-3570 -3838 -3840 0
3837 3839 -3841 0
3837 -3839 3841 0
-3837 3839 3841 0
-3837 -3839 -3841 0
12 62 -3842 0
12 -62 -3842 0
-12 62 -3842 0
-12 -62 3842 0
3581 3842 -3843 0
3581 -3842 -3843 0
-3581 3842 -3843 0
-3581 -3842 3843 0
3581 3842 -3844 0
3581 -3842 3844 0
-3581 3842 3844 0
-3581 -3842 -3844 0
3576 3844 -3845 0
3576 -3844 -3845 0
-3576 3844 -3845 0
-3576 -3844 3845 0
3576 3844 -3846 0
3576 -3844 3846 0
-3576 3844 3846 0
-3576 -3844 -3846 0
3843 3845 -3847 0
3843 -3845 3847 0
-3843 3845 3847 0
-3843 -3845 -3847 0
13 62 -3848 0
13 -62 -3848 0
-13 62 -3848 0
-13 -62 3848 0
3587 3848 -3849 0
3587 -3848 -3849 0
-3587 3848 -3849 0
-3587 -3848 3849 0
3587 3848 -3850 0
3587 -3848 3850 0
-3587 3848 3850 0
-3587 -3848 -3850 0
3582 3850 -3851 0
3582 -3850 -3851 0
-3582 3850 -3851 0
-3582 -3850 3851 0
3582 3850 -3852 0
3582 -3850 3852 0
-3582 3850 3852 0
-3582 -3850 -3852 0
3849 3851 -3853 0
3849 -3851 3853 0
-3849 3851 3853 0
-3849 -3851 -3853 0
14 62 -3854 0
14 -62 -3854 0
-14 62 -3854 0
-14 -62 3854 0
3593 3854 -3855 0
3593 -3854 -3855 0
-3593 3854 -3855 0
-3593 -3854 3855 0
3593 3854 -3856 0
3593 -3854 3856 0
-3593 3854 3856 0
-3593 -3854 -3856 0
3588 3856 -3857 0
3588 -3856 -3857 0
-3588 3856 -3857 0
-3588 -3856 3857 0
3588 3856 -3858 0
3588 -3856 3858 0
-3588 3856 3858 0
-3588 -3856 -3858 0
3855 3857 -3859 0
3855 -3857 3859 0
-3855 3857 3859 0
-3855 -3857 -3859 0
15 62 -3860 0
15 -62 -3860 0
-15 62 -3860 0
-15 -62 3860 0
3599 3860 -3861 0
3599 -3860 -3861 0
-3599 3860 -3861 0
-3599 -3860 3861 0
3599 3860 -3862 0
3599 -3860 3862 0
-3599 3860 3862 0
-3599 -3860 -3862 0
3594 3862 -3863 0
3594 -3862 -3863 0
-3594 3862 -3863 0
-3594 -3862 3863 0
3594 3862 -3864 0
3594 -3862 3864 0
-3594 3862 3864 0
-3594 -3862 -3864 0
3861 3863 -3865 0
3861 -3863 3865 0
-3861 3863 3865 0
-3861 -3863 -3865 0
16 62 -3866 0
16 -62 -3866 0
-16 62 -3866 0
-16 -62 3866 0
3605 3866 -3867 0
3605 -3866 -3867 0
-3605 3866 -3867 0
-3605 -3866 3867 0
3605 3866 -3868 0
3605 -3866 3868 0
-3605 3866 3868 0
-3605 -3866 -3868 0
3600 3868 -3869 0
3600 -3868 -3869 0
-3600 3868 -3869 0
-3600 -3868 3869 0
3600 3868 -3870 0
3600 -3868 3870 0
-3600 3868 3870 0
-3600 -3868 -3870 0
3867 3869 -3871 0
3867 -3869 3871 0
-3867 3869 3871 0
-3867 -3869 -3871 0
17 62 -3872 0
17 -62 -3872 0
-17 62 -3872 0
-17 -62 3872 0
3611 3872 -3873 0
3611 -3872 -3873 0
-3611 3872 -3873 0
-3611 -3872 3873 0
3611 3872 -3874 0
3611 -3872 3874 0
-3611 3872 3874 0
-3611 -3872 -3874 0
3606 3874 -3875 0
3606 -3874 -3875 0
-3606 3874 -3875 0
-3606 -3874 3875 0
3606 3874 -3876 0
3606 -3874 3876 0
-3606 3874 3876 0
-3606 -3874 -3876 0
3873 3875 -3877 0
3873 -3875 3877 0
-3873 3875 3877 0
-3873 -3875 -3877 0
18 62 -3878 0
18 -62 -3878 0
-18 62 -3878 0
-18 -62 3878 0
3617 3878 -3879 0
3617 -3878 -3879 0
-3617 3878 -3879 0
-3617 -3878 3879 0
3617 3878 -3880 0
3617 -3878 3880 0
-3617 3878 3880 0
-3617 -3878 -3880 0
3612 3880 -3881 0
3612 -3880 -3881 0
-3612 3880 -3881 0
-3612 -3880 3881 0
3612 3880 -3882 0
3612 -3880 3882 0
-3612 3880 3882 0
-3612 -3880 -3882 0
3879 3881 -3883 0
3879 -3881 3883 0
-3879 3881 3883 0
-3879 -3881 -3883 0
19 62 -3884 0
19 -62 -3884 0
-19 62 -3884 0
-19 -62 3884 0
3623 3884 -3885 0
3623 -3884 -3885 0
-3623 3884 -3885 0
-3623 -3884 3885 0
3623 3884 -3886 0
3623 -3884 3886 0
-3623 3884 3886 0
-3623 -3884 -3886 0
3618 3886 -3887 0
3618 -3886 -3887 0
-3618 3886 -3887 0
-3618 -3886 3887 0
3618 3886 -3888 0
3618 -3886 3888 0
-3618 3886 3888 0
-3618 -3886 -3888 0
3885 3887 -3889 0
3885 -3887 3889 0
-3885 3887 3889 0
-3885 -3887 -3889 0
20 62 -3890 0
20 -62 -3890 0
-20 62 -3890 0
-20 -62 3890 0
3629 3890 -3891 0
3629 -3890 -3891 0
-3629 3890 -3891 0
-3629 -3890 3891 0
3629 3890 -3892 0
3629 -3890 3892 0
-3629 3890 3892 0
-3629 -3890 -3892 0
3624 3892 -3893 0
3624 -3892 -3893 0
-3624 3892 -3893 0
-3624 -3892 3893 0
3624 3892 -3894 0
3624 -3892 3894 0
-3624 3892 3894 0
-3624 -3892 -3894 0
3891 3893 -3895 0
3891 -3893 3895 0
-3891 3893 3895 0
-3891 -3893 -3895 0
21 62 -3896 0
21 -62 -3896 0
-21 62 -3896 0
-21 -62 3896 0
3635 3896 -3897 0
3635 -3896 -3897 0
-3635 3896 -3897 0
-3635 -3896 3897 0
3635 3896 -3898 0
3635 -3896 3898 0
-3635 3896 3898 0
-3635 -3896 -3898 0
3630 3898 -3899 0
3630 -3898 -3899 0
-3630 3898 -3899 0
-3630 -3898 3899 0
3630 3898 -3900 0
3630 -3898 3900 0
-3630 3898 3900 0
-3630 -3898 -3900 0
3897 3899 -3901 0
3897 -3899 3901 0
-3897 3899 3901 0
-3897 -3899 -3901 0
22 62 -3902 0
22 -62 -3902 0
-22 62 -3902 0
-22 -62 3902 0
3641 3902 -3903 0
3641 -3902 -3903 0
-3641 3902 -3903 0
-3641 -3902 3903 0
3641 3902 -3904 0
3641 -3902 3904 0
-3641 3902 3904 0
-3641 -3902 -3904 0
3636 3904 -3905 0
3636 -3904 -3905 0
-3636 3904 -3905 0
-3636 -3904 3905 0
3636 3904 -3906 0
3636 -3904 3906 0
-3636 3904 3906 0
-3636 -3904 -3906 0
3903 3905 -3907 0
3903 -3905 3907 0
-3903 3905 3907 0
-3903 -3905 -3907 0
23 62 -3908 0
23 -62 -3908 0
-23 62 -3908 0
-23 -62 3908 0
3647 3908 -3909 0
3647 -3908 -3909 0
-3647 3908 -3909 0
-3647 -3908 3909 0
3647 3908 -3910 0
3647 -3908 3910 0
-3647 3908 3910 0
-3647 -3908 -3910 0
3642 3910 -3911 0
3642 -3910 -3911 0
-3642 3910 -3911 0
-3642 -3910 3911 0
3642 3910 -3912 0
3642 -3910 3912 0
-3642 3910 3912 0
-3642 -3910 -3912 0
3909 3911 -3913 0
3909 -3911 3913 0
-3909 3911 3913 0
-3909 -3911 -3913 0
24 62 -3914 0
24 -62 -3914 0
-24 62 -3914 0
-24 -62 3914 0
3653 3914 -3915 0
3653 -3914 -3915 0
-3653 3914 -3915 0
-3653 -3914 3915 0
3653 3914 -3916 0
3653 -3914 3916 0
-3653 3914 3916 0
-3653 -3914 -3916 0
3648 3916 -3917 0
3648 -3916 -3917 0
-3648 3916 -3917 0
-3648 -3916 3917 0
3648 3916 -3918 0
3648 -3916 3918 0
-3648 3916 3918 0
-3648 -3916 -3918 0
3915 3917 -3919 0
3915 -3917 3919 0
-3915 3917 3919 0
-3915 -3917 -3919 0
25 62 -3920 0
25 -62 -3920 0
-25 62 -3920 0
-25 -62 3920 0
3659 3920 -3921 0
3659 -3920 -3921 0
-3659 3920 -3921 0
-3659 -3920 3921 0
3659 3920 -3922 0
3659 -3920 3922 0
-3659 3920 3922 0
-3659 -3920 -3922 0
3654 3922 -3923 0
3654 -3922 -3923 0
-3654 3922 -3923 0
-3654 -3922 3923 0
3654 3922 -3924 0
3654 -3922 3924 0
-3654 3922 3924 0
-3654 -3922 -3924 0
3921 3923 -3925 0
3921 -3923 3925 0
-3921 3923 3925 0
-3921 -3923 -3925 0
26 62 -3926 0
26 -62 -3926 0
-26 62 -3926 0
-26 -62 3926 0
3665 3926 -3927 0
3665 -3926 -3927 0
-3665 3926 -3927 0
-3665 -3926 3927 0
3665 3926 -3928 0
3665 -3926 3928 0
-3665 3926 3928 0
-3665 -3926 -3928 0
3660 3928 -3929 0
3660 -3928 -3929 0
-3660 3928 -3929 0
-3660 -3928 3929 0
3660 3928 -3930 0
3660 -3928 3930 0
-3660 3928 3930 0
-3660 -3928 -3930 0
3927 3929 -3931 0
3927 -3929 3931 0
-3927 3929 3931 0
-3927 -3929 -3931 0
27 62 -3932 0
27 -62 -3932 0
-27 62 -3932 0
-27 -62 3932 0
3671 3932 -3933 0
3671 -3932 -3933 0
-3671 3932 -3933 0
-3671 -3932 3933 0
3671 3932 -3934 0
3671 -3932 3934 0
-3671 3932 3934 0
-3671 -3932 -3934 0
3666 3934 -3935 0
3666 -3934 -3935 0
-3666 3934 -3935 0
-3666 -3934 3935 0
3666 3934 -3936 0
3666 -3934 3936 0
-3666 3934 3936 0
-3666 -3934 -3936 0
3933 3935 -3937 0
3933 -3935 3937 0
-3933 3935 3937 0
-3933 -3935 -3937 0
28 62 -3938 0
28 -62 -3938 0
-28 62 -3938 0
-28 -62 3938 0
3677 3938 -3939 0
3677 -3938 -3939 0
-3677 3938 -3939 0
-3677 -3938 3939 0
3677 3938 -3940 0
3677 -3938 3940 0
-3677 3938 3940 0
-3677 -3938 -3940 0
3672 3940 -3941 0
3672 -3940 -3941 0
-3672 3940 -3941 0
-3672 -3940 3941 0
3672 3940 -3942 0
3672 -3940 3942 0
-3672 3940 3942 0
-3672 -3940 -3942 0
3939 3941 -3943 0
3939 -3941 3943 0
-3939 3941 3943 0
-3939 -3941 -3943 0
29 62 -3944 0
29 -62 -3944 0
-29 62 -3944 0
-29 -62 3944 0
3683 3944 -3945 0
3683 -3944 -3945 0
-3683 3944 -3945 0
-3683 -3944 3945 0
3683 3944 -3946 0
3683 -3944 3946 0
-3683 3944 3946 0
-3683 -3944 -3946 0
3678 3946 -3947 0
3678 -3946 -3947 0
-3678 3946 -3947 0
-3678 -3946 3947 0
3678 3946 -3948 0
3678 -3946 3948 0
-3678 3946 3948 0
-3678 -3946 -3948 0
3945 3947 -3949 0
3945 -3947 3949 0
-3945 3947 3949 0
-3945 -3947 -3949 0
30 62 -3950 0
30 -62 -3950 0
-30 62 -3950 0
-30 -62 3950 0
3689 3950 -3951 0
3689 -3950 -3951 0
-3689 3950 -3951 0
-3689 -3950 3951 0
3689 3950 -3952 0
3689 -3950 3952 0
-3689 3950 3952 0
-3689 -3950 -3952 0
3684 3952 -3953 0
3684 -3952 -3953 0
-3684 3952 -3953 0
-3684 -3952 3953 0
3684 3952 -3954 0
3684 -3952 3954 0
-3684 3952 3954 0
-3684 -3952 -3954 0
3951 3953 -3955 0
3951 -3953 3955 0
-3951 3953 3955 0
-3951 -3953 -3955 0
31 62 -3956 0
31 -62 -3956 0
-31 62 -3956 0
-31 -62 3956 0
3695 3956 -3957 0
3695 -3956 -3957 0
-3695 3956 -3957 0
-3695 -3956 3957 0
3695 3956 -3958 0
3695 -3956 3958 0
-3695 3956 3958 0
-3695 -3956 -3958 0
3690 3958 -3959 0
3690 -3958 -3959 0
-3690 3958 -3959 0
-3690 -3958 3959 0
3690 3958 -3960 0
3690 -3958 3960 0
-3690 3958 3960 0
-3690 -3958 -3960 0
3957 3959 -3961 0
3957 -3959 3961 0
-3957 3959 3961 0
-3957 -3959 -3961 0
32 62 -3962 0
32 -62 -3962 0
-32 62 -3962 0
-32 -62 3962 0
3701 3962 -3963 0
3701 -3962 -3963 0
-3701 3962 -3963 0
-3701 -3962 3963 0
3701 3962 -3964 0
3701 -3962 3964 0
-3701 3962 3964 0
-3701 -3962 -3964 0
3696 3964 -3965 0
3696 -3964 -3965 0
-3696 3964 -3965 0
-3696 -3964 3965 0
3696 3964 -3966 0
3696 -3964 3966 0
-3696 3964 3966 0
-3696 -3964 -3966 0
3963 3965 -3967 0
3963 -3965 3967 0
-3963 3965 3967 0
-3963 -3965 -3967 0
33 62 -3968 0
33 -62 -3968 0
-33 62 -3968 0
-33 -62 3968 0
3707 3968 -3969 0
3707 -3968 -3969 0
-3707 3968 -3969 0
-3707 -3968 3969 0
3707 3968 -3970 0
3707 -3968 3970 0
-3707 3968 3970 0
-3707 -3968 -3970 0
3702 3970 -3971 0
3702 -3970 -3971 0
-3702 3970 -3971 0
-3702 -3970 3971 0
3702 3970 -3972 0
3702 -3970 3972 0
-3702 3970 3972 0
-3702 -3970 -3972 0
3969 3971 -3973 0
3969 -3971 3973 0
-3969 3971 3973 0
-3969 -3971 -3973 0
34 62 -3974 0
34 -62 -3974 0
-34 62 -3974 0
-34 -62 3974 0
3713 3974 -3975 0
3713 -3974 -3975 0
-3713 3974 -3975 0
-3713 -3974 3975 0
3713 3974 -3976 0
3713 -3974 3976 0
-3713 3974 3976 0
-3713 -3974 -3976 0
3708 3976 -3977 0
3708 -3976 -3977 0
-3708 3976 -3977 0
-3708 -3976 3977 0
3708 3976 -3978 0
3708 -3976 3978 0
-3708 3976 3978 0
-3708 -3976 -3978 0
3975 3977 -3979 0
3975 -3977 3979 0
-3975 3977 3979 0
-3975 -3977 -3979 0
35 62 -3980 0
35 -62 -3980 0
-35 62 -3980 0
-35 -62 3980 0
3719 3980 -3981 0
3719 -3980 -3981 0
-3719 3980 -3981 0
-3719 -3980 3981 0
3719 3980 -3982 0
3719 -3980 3982 0
-3719 3980 3982 0
-3719 -3980 -3982 0
3714 3982 -3983 0
3714 -3982 -3983 0
-3714 3982 -3983 0
-3714 -3982 3983 0
3714 3982 -3984 0
3714 -3982 3984 0
-3714 3982 3984 0
-3714 -3982 -3984 0
3981 3983 -3985 0
3981 -3983 3985 0
-3981 3983 3985 0
-3981 -3983 -3985 0
36 62 -3986 0
36 -62 -3986 0
-36 62 -3986 0
-36 -62 3986 0
3725 3986 -3987 0
3725 -3986 -3987 0
-3725 3986 -3987 0
-3725 -3986 3987 0
3725 3986 -3988 0
3725 -3986 3988 0
-3725 3986 3988 0
-3725 -3986 -3988 0
3720 3988 -3989 0
3720 -3988 -3989 0
-3720 3988 -3989 0
-3720 -3988 3989 0
3720 3988 -3990 0
3720 -3988 3990 0
-3720 3988 3990 0
-3720 -3988 -3990 0
3987 3989 -3991 0
3987 -3989 3991 0
-3987 3989 3991 0
-3987 -3989 -3991 0
37 62 -3992 0
37 -62 -3992 0
-37 62 -3992 0
-37 -62 3992 0
3731 3992 -3993 0
3731 -3992 -3993 0
-3731 3992 -3993 0
-3731 -3992 3993 0
3731 3992 -3994 0
3731 -3992 3994 0
-3731 3992 3994 0
-3731 -3992 -3994 0
3726 3994 -3995 0
3726 -3994 -3995 0
-3726 3994 -3995 0
-3726 -3994 3995 0
3726 3994 -3996 0
3726 -3994 3996 0
-3726 3994 3996 0
-3726 -3994 -3996 0
3993 3995 -3997 0
3993 -3995 3997 0
-3993 3995 3997 0
-3993 -3995 -3997 0
38 62 -3998 0
38 -62 -3998 0
-38 62 -3998 0
-38 -62 3998 0
3737 3998 -3999 0
3737 -3998 -3999 0
-3737 3998 -3999 0
-3737 -3998 3999 0
3737 3998 -4000 0
3737 -3998 4000 0
-3737 3998 4000 0
-3737 -3998 -4000 0
3732 4000 -4001 0
3732 -4000 -4001 0
-3732 4000 -4001 0
-3732 -4000 4001 0
3732 4000 -4002 0
3732 -4000 4002 0
-3732 4000 4002 0
-3732 -4000 -4002 0
3999 4001 -4003 0
3999 -4001 4003 0
-3999 4001 4003 0
-3999 -4001 -4003 0
39 62 -4004 0
39 -62 -4004 0
-39 62 -4004 0
-39 -62 4004 0
3743 4004 -4005 0
3743 -4004 -4005 0
-3743 4004 -4005 0
-3743 -4004 4005 0
3743 4004 -4006 0
3743 -4004 4006 0
-3743 4004 4006 0
-3743 -4004 -4006 0
3738 4006 -4007 0
3738 -4006 -4007 0
-3738 4006 -4007 0
-3738 -4006 4007 0
3738 4006 -4008 0
3738 -4006 4008 0
-3738 4006 4008 0
-3738 -4006 -4008 0
4005 4007 -4009 0
4005 -4007 4009 0
-4005 4007 4009 0
-4005 -4007 -4009 0
40 62 -4010 0
40 -62 -4010 0
-40 62 -4010 0
-40 -62 4010 0
3749 4010 -4011 0
3749 -4010 -4011 0
-3749 4010 -4011 0
-3749 -4010 4011 0
3749 4010 -4012 0
3749 -4010 4012 0
-3749 4010 4012 0
-3749 -4010 -4012 0
3744 4012 -4013 0
3744 -4012 -4013 0
-3744 4012 -4013 0
-3744 -4012 4013 0
3744 4012 -4014 0
3744 -4012 4014 0
-3744 4012 4014 0
-3744 -4012 -4014 0
4011 4013 -4015 0
4011 -4013 4015 0
-4011 4013 4015 0
-4011 -4013 -4015 0
41 62 -4016 0
41 -62 -4016 0
-41 62 -4016 0
-41 -62 4016 0
3755 4016 -4017 0
3755 -4016 -4017 0
-3755 4016 -4017 0
-3755 -4016 4017 0
3755 4016 -4018 0
3755 -4016 4018 0
-3755 4016 4018 0
-3755 -4016 -4018 0
3750 4018 -4019 0
3750 -4018 -4019 0
-3750 4018 -4019 0
-3750 -4018 4019 0
3750 4018 -4020 0
3750 -4018 4020 0
-3750 4018 4020 0
-3750 -4018 -4020 0
4017 4019 -4021 0
4017 -4019 4021 0
-4017 4019 4021 0
-4017 -4019 -4021 0
42 62 -4022 0
42 -62 -4022 0
-42 62 -4022 0
-42 -62 4022 0
3761 4022 -4023 0
3761 -4022 -4023 0
-3761 4022 -4023 0
-3761 -4022 4023 0
3761 4022 -4024 0
3761 -4022 4024 0
-3761 4022 4024 0
-3761 -4022 -4024 0
3756 4024 -4025 0
3756 -4024 -4025 0
-3756 4024 -4025 0
-3756 -4024 4025 0
3756 4024 -4026 0
3756 -4024 4026 0
-3756 4024 4026 0
-3756 -4024 -4026 0
4023 4025 -4027 0
4023 -4025 4027 0
-4023 4025 4027 0
-4023 -4025 -4027 0
43 62 -4028 0
43 -62 -4028 0
-43 62 -4028 0
-43 -62 4028 0
3767 4028 -4029 0
3767 -4028 -4029 0
-3767 4028 -4029 0
-3767 -4028 4029 0
3767 4028 -4030 0
3767 -4028 4030 0
-3767 4028 4030 0
-3767 -4028 -4030 0
3762 4030 -4031 0
3762 -4030 -4031 0
-3762 4030 -4031 0
-3762 -4030 4031 0
3762 4030 -4032 0
3762 -4030 4032 0
-3762 4030 4032 0
-3762 -4030 -4032 0
4029 4031 -4033 0
4029 -4031 4033 0
-4029 4031 4033 0
-4029 -4031 -4033 0
44 62 -4034 0
44 -62 -4034 0
-44 62 -4034 0
-44 -62 4034 0
3773 4034 -4035 0
3773 -4034 -4035 0
-3773 4034 -4035 0
-3773 -4034 4035 0
3773 4034 -4036 0
3773 -4034 4036 0
-3773 4034 4036 0
-3773 -4034 -4036 0
3768 4036 -4037 0
3768 -4036 -4037 0
-3768 4036 -4037 0
-3768 -4036 4037 0
3768 4036 -4038 0
3768 -4036 4038 0
-3768 4036 4038 0
-3768 -4036 -4038 0
4035 4037 -4039 0
4035 -4037 4039 0
-4035 4037 4039 0
-4035 -4037 -4039 0
45 62 -4040 0
45 -62 -4040 0
-45 62 -4040 0
-45 -62 4040 0
3775 4040 -4041 0
3775 -4040 -4041 0
-3775 4040 -4041 0
-3775 -4040 4041 0
3775 4040 -4042 0
3775 -4040 4042 0
-3775 4040 4042 0
-3775 -4040 -4042 0
3774 4042 -4043 0
3774 -4042 -4043 0
-3774 4042 -4043 0
-3774 -4042 4043 0
3774 4042 -4044 0
3774 -4042 4044 0
-3774 4042 4044 0
-3774 -4042 -4044 0
4041 4043 -4045 0
4041 -4043 4045 0
-4041 4043 4045 0
-4041 -4043 -4045 0
46 62 -4046 0
46 -62 -4046 0
-46 62 -4046 0
-46 -62 4046 0
1 63 -4047 0
1 -63 -4047 0
-1 63 -4047 0
-1 -63 4047 0
3786 4047 -4048 0
3786 -4047 -4048 0
-3786 4047 -4048 0
-3786 -4047 4048 0
3786 4047 -4049 0
3786 -4047 4049 0
-3786 4047 4049 0
-3786 -4047 -4049 0
3781 4049 -4050 0
3781 -4049 -4050 0
-3781 4049 -4050 0
-3781 -4049 4050 0
3781 4049 -4051 0
3781 -4049 4051 0
-3781 4049 4051 0
-3781 -4049 -4051 0
4048 4050 -4052 0
4048 -4050 4052 0
-4048 4050 4052 0
-4048 -4050 -4052 0
2 63 -4053 0
2 -63 -4053 0
-2 63 -4053 0
-2 -63 4053 0
3792 4053 -4054 0
3792 -4053 -4054 0
-3792 4053 -4054 0
-3792 -4053 4054 0
3792 4053 -4055 0
3792 -4053 4055 0
-3792 4053 4055 0
-3792 -4053 -4055 0
3787 4055 -4056 0
3787 -4055 -4056 0
-3787 4055 -4056 0
-3787 -4055 4056 0
3787 4055 -4057 0
3787 -4055 4057 0
-3787 4055 4057 0
-3787 -4055 -4057 0
4054 4056 -4058 0
4054 -4056 4058 0
-4054 4056 4058 0
-4054 -4056 -4058 0
3 63 -4059 0
3 -63 -4059 0
-3 63 -4059 0
-3 -63 4059 0
3798 4059 -4060 0
3798 -4059 -4060 0
-3798 4059 -4060 0
-3798 -4059 4060 0
3798 4059 -4061 0
3798 -4059 4061 0
-3798 4059 4061 0
-3798 -4059 -4061 0
3793 4061 -4062 0
3793 -4061 -4062 0
-3793 4061 -4062 0
-3793 -4061 4062 0
3793 4061 -4063 0
3793 -4061 4063 0
-3793 4061 4063 0
-3793 -4061 -4063 0
4060 4062 -4064 0
4060 -4062 4064 0
-4060 4062 4064 0
-4060 -4062 -4064 0
4 63 -4065 0
4 -63 -4065 0
-4 63 -4065 0
-4 -63 4065 0
3804 4065 -4066 0
3804 -4065 -4066 0
-3804 4065 -4066 0
-3804 -4065 4066 0
3804 4065 -4067 0
3804 -4065 4067 0
-3804 4065 4067 0
-3804 -4065 -4067 0
3799 4067 -4068 0
3799 -4067 -4068 0
-3799 4067 -4068 0
-3799 -4067 4068 0
3799 4067 -4069 0
3799 -4067 4069 0
-3799 4067 4069 0
-3799 -4067 -4069 0
4066 4068 -4070 0
4066 -4068 4070 0
-4066 4068 4070 0
-4066 -4068 -4070 0
5 63 -4071 0
5 -63 -4071 0
-5 63 -4071 0
-5 -63 4071 0
3810 4071 -4072 0
3810 -4071 -4072 0
-3810 4071 -4072 0
-3810 -4071 4072 0
3810 4071 -4073 0
3810 -4071 4073 0
-3810 4071 4073 0
-3810 -4071 -4073 0
3805 4073 -4074 0
3805 -4073 -4074 0
-3805 4073 -4074 0
-3805 -4073 4074 0
3805 4073 -4075 0
3805 -4073 4075 0
-3805 4073 4075 0
-3805 -4073 -4075 0
4072 4074 -4076 0
4072 -4074 4076 0
-4072 4074 4076 0
-4072 -4074 -4076 0
6 63 -4077 0
6 -63 -4077 0
-6 63 -4077 0
-6 -63 4077 0
3816 4077 -4078 0
3816 -4077 -4078 0
-3816 4077 -4078 0
-3816 -4077 4078 0
3816 4077 -4079 0
3816 -4077 4079 0
-3816 4077 4079 0
-3816 -4077 -4079 0
3811 4079 -4080 0
3811 -4079 -4080 0
-3811 4079 -4080 0
-3811 -4079 4080 0
3811 4079 -4081 0
3811 -4079 4081 0
-3811 4079 4081 0
-3811 -4079 -4081 0
4078 4080 -4082 0
4078 -4080 4082 0
-4078 4080 4082 0
-4078 -4080 -4082 0
7 63 -4083 0
7 -63 -4083 0
-7 63 -4083 0
-7 -63 4083 0
3822 4083 -4084 0
3822 -4083 -4084 0
-3822 4083 -4084 0
-3822 -4083 4084 0
3822 4083 -4085 0
3822 -4083 4085 0
-3822 4083 4085 0
-3822 -4083 -4085 0
3817 4085 -4086 0
3817 -4085 -4086 0
-3817 4085 -4086 0
-3817 -4085 4086 0
3817 4085 -4087 0
3817 -4085 4087 0
-3817 4085 4087 0
-3817 -4085 -4087 0
4084 4086 -4088 0
4084 -4086 4088 0
-4084 4086 4088 0
-4084 -4086 -4088 0
8 63 -4089 0
8 -63 -4089 0
-8 63 -4089 0
-8 -63 4089 0
3828 4089 -4090 0
3828 -4089 -4090 0
-3828 4089 -4090 0
-3828 -4089 4090 0
3828 4089 -4091 0
3828 -4089 4091 0
-3828 4089 4091 0
-3828 -4089 -4091 0
3823 4091 -4092 0
3823 -4091 -4092 0
-3823 4091 -4092 0
-3823 -4091 4092 0
3823 4091 -4093 0
3823 -4091 4093 0
-3823 4091 4093 0
-3823 -4091 -4093 0
4090 4092 -4094 0
4090 -4092 4094 0
-4090 4092 4094 0
-4090 -4092 -4094 0
9 63 -4095 0
9 -63 -4095 0
-9 63 -4095 0
-9 -63 4095 0
3834 4095 -4096 0
3834 -4095 -4096 0
-3834 4095 -4096 0
-3834 -4095 4096 0
3834 4095 -4097 0
3834 -4095 4097 0
-3834 4095 4097 0
-3834 -4095 -4097 0
3829 4097 -4098 0
3829 -4097 -4098 0
-3829 4097 -4098 0
-3829 -4097 4098 0
3829 4097 -4099 0
3829 -4097 4099 0
-3829 4097 4099 0
-3829 -4097 -4099 0
4096 4098 -4100 0
4096 -4098 4100 0
-4096 4098 4100 0
-4096 -4098 -4100 0
10 63 -4101 0
10 -63 -4101 0
-10 63 -4101 0
-10 -63 4101 0
3840 4101 -4102 0
3840 -4101 -4102 0
-3840 4101 -4102 0
-3840 -4101 4102 0
3840 4101 -4103 0
3840 -4101 4103 0
-3840 4101 4103 0
-3840 -4101 -4103 0
3835 4103 -4104 0
3835 -4103 -4104 0
-3835 4103 -4104 0
-3835 -4103 4104 0
3835 4103 -4105 0
3835 -4103 4105 0
-3835 4103 4105 0
-3835 -4103 -4105 0
4102 4104 -4106 0
4102 -4104 4106 0
-4102 4104 4106 0
-4102 -4104 -4106 0
11 63 -4107 0
11 -63 -4107 0
-11 63 -4107 0
-11 -63 4107 0
3846 4107 -4108 0
3846 -4107 -4108 0
-3846 4107 -4108 0
-3846 -4107 4108 0
3846 4107 -4109 0
3846 -4107 4109 0
-3846 4107 4109 0
-3846 -4107 -4109 0
3841 4109 -4110 0
3841 -4109 -4110 0
-3841 4109 -4110 0
-3841 -4109 4110 0
3841 4109 -4111 0
3841 -4109 4111 0
-3841 4109 4111 0
-3841 -4109 -4111 0
4108 4110 -4112 0
4108 -4110 4112 0
-4108 4110 4112 0
-4108 -4110 -4112 0
12 63 -4113 0
12 -63 -4113 0
-12 63 -4113 0
-12 -63 4113 0
3852 4113 -4114 0
3852 -4113 -4114 0
-3852 4113 -4114 0
-3852 -4113 4114 0
3852 4113 -4115 0
3852 -4113 4115 0
-3852 4113 4115 0
-3852 -4113 -4115 0
3847 4115 -4116 0
3847 -4115 -4116 0
-3847 4115 -4116 0
-3847 -4115 4116 0
3847 4115 -4117 0
3847 -4115 4117 0
-3847 4115 4117 0
-3847 -4115 -4117 0
4114 4116 -4118 0
4114 -4116 4118 0
-4114 4116 4118 0
-4114 -4116 -4118 0
13 63 -4119 0
13 -63 -4119 0
-13 63 -4119 0
-13 -63 4119 0
3858 4119 -4120 0
3858 -4119 -4120 0
-3858 4119 -4120 0
-3858 -4119 4120 0
3858 4119 -4121 0
3858 -4119 4121 0
-3858 4119 4121 0
-3858 -4119 -4121 0
3853 4121 -4122 0
3853 -4121 -4122 0
-3853 4121 -4122 0
-3853 -4121 4122 0
3853 4121 -4123 0
3853 -4121 4123 0
-3853 4121 4123 0
-3853 -4121 -4123 0
4120 4122 -4124 0
4120 -4122 4124 0
-4120 4122 4124 0
-4120 -4122 -4124 0
14 63 -4125 0
14 -63 -4125 0
-14 63 -4125 0
-14 -63 4125 0
3864 4125 -4126 0
3864 -4125 -4126 0
-3864 4125 -4126 0
-3864 -4125 4126 0
3864 4125 -4127 0
3864 -4125 4127 0
-3864 4125 4127 0
-3864 -4125 -4127 0
3859 4127 -4128 0
3859 -4127 -4128 0
-3859 4127 -4128 0
-3859 -4127 4128 0
3859 4127 -4129 0
3859 -4127 4129 0
-3859 4127 4129 0
-3859 -4127 -4129 0
4126 4128 -4130 0
4126 -4128 4130 0
-4126 4128 4130 0
-4126 -4128 -4130 0
15 63 -4131 0
15 -63 -4131 0
-15 63 -4131 0
-15 -63 4131 0
3870 4131 -4132 0
3870 -4131 -4132 0
-3870 4131 -4132 0
-3870 -4131 4132 0
3870 4131 -4133 0
3870 -4131 4133 0
-3870 4131 4133 0
-3870 -4131 -4133 0
3865 4133 -4134 0
3865 -4133 -4134 0
-3865 4133 -4134 0
-3865 -4133 4134 0
3865 4133 -4135 0
3865 -4133 4135 0
-3865 4133 4135 0
-3865 -4133 -4135 0
4132 4134 -4136 0
4132 -4134 4136 0
-4132 4134 4136 0
-4132 -4134 -4136 0
16 63 -4137 0
16 -63 -4137 0
-16 63 -4137 0
-16 -63 4137 0
3876 4137 -4138 0
3876 -4137 -4138 0
-3876 4137 -4138 0
-3876 -4137 4138 0
3876 4137 -4139 0
3876 -4137 4139 0
-3876 4137 4139 0
-3876 -4137 -4139 0
3871 4139 -4140 0
3871 -4139 -4140 0
-3871 4139 -4140 0
-3871 -4139 4140 0
3871 4139 -4141 0
3871 -4139 4141 0
-3871 4139 4141 0
-3871 -4139 -4141 0
4138 4140 -4142 0
4138 -4140 4142 0
-4138 4140 4142 0
-4138 -4140 -4142 0
17 63 -4143 0
17 -63 -4143 0
-17 63 -4143 0
-17 -63 4143 0
3882 4143 -4144 0
3882 -4143 -4144 0
-3882 4143 -4144 0
-3882 -4143 4144 0
3882 4143 -4145 0
3882 -4143 4145 0
-3882 4143 4145 0
-3882 -4143 -4145 0
3877 4145 -4146 0
3877 -4145 -4146 0
-3877 4145 -4146 0
-3877 -4145 4146 0
3877 4145 -4147 0
3877 -4145 4147 0
-3877 4145 4147 0
-3877 -4145 -4147 0
4144 4146 -4148 0
4144 -4146 4148 0
-4144 4146 4148 0
-4144 -4146 -4148 0
18 63 -4149 0
18 -63 -4149 0
-18 63 -4149 0
-18 -63 4149 0
3888 4149 -4150 0
3888 -4149 -4150 0
-3888 4149 -4150 0
-3888 -4149 4150 0
3888 4149 -4151 0
3888 -4149 4151 0
-3888 4149 4151 0
-3888 -4149 -4151 0
3883 4151 -4152 0
3883 -4151 -4152 0
-3883 4151 -4152 0
-3883 -4151 4152 0
3883 4151 -4153 0
3883 -4151 4153 0
-3883 4151 4153 0
-3883 -4151 -4153 0
4150 4152 -4154 0
4150 -4152 4154 0
-4150 4152 4154 0
-4150 -4152 -4154 0
19 63 -4155 0
19 -63 -4155 0
-19 63 -4155 0
-19 -63 4155 0
3894 4155 -4156 0
3894 -4155 -4156 0
-3894 4155 -4156 0
-3894 -4155 4156 0
3894 4155 -4157 0
3894 -4155 4157 0
-3894 4155 4157 0
-3894 -4155 -4157 0
3889 4157 -4158 0
3889 -4157 -4158 0
-3889 4157 -4158 0
-3889 -4157 4158 0
3889 4157 -4159 0
3889 -4157 4159 0
-3889 4157 4159 0
-3889 -4157 -4159 0
4156 4158 -4160 0
4156 -4158 4160 0
-4156 4158 4160 0
-4156 -4158 -4160 0
20 63 -4161 0
20 -63 -4161 0
-20 63 -4161 0
-20 -63 4161 0
3900 4161 -4162 0
3900 -4161 -4162 0
-3900 4161 -4162 0
-3900 -4161 4162 0
3900 4161 -4163 0
3900 -4161 4163 0
-3900 4161 4163 0
-3900 -4161 -4163 0
3895 4163 -4164 0
3895 -4163 -4164 0
-3895 4163 -4164 0
-3895 -4163 4164 0
3895 4163 -4165 0
3895 -4163 4165 0
-3895 4163 4165 0
-3895 -4163 -4165 0
4162 4164 -4166 0
4162 -4164 4166 0
-4162 4164 4166 0
-4162 -4164 -4166 0
21 63 -4167 0
21 -63 -4167 0
-21 63 -4167 0
-21 -63 4167 0
3906 4167 -4168 0
3906 -4167 -4168 0
-3906 4167 -4168 0
-3906 -4167 4168 0
3906 4167 -4169 0
3906 -4167 4169 0
-3906 4167 4169 0
-3906 -4167 -4169 0
3901 4169 -4170 0
3901 -4169 -4170 0
-3901 4169 -4170 0
-3901 -4169 4170 0
3901 4169 -4171 0
3901 -4169 4171 0
-3901 4169 4171 0
-3901 -4169 -4171 0
4168 4170 -4172 0
4168 -4170 4172 0
-4168 4170 4172 0
-4168 -4170 -4172 0
22 63 -4173 0
22 -63 -4173 0
-22 63 -4173 0
-22 -63 4173 0
3912 4173 -4174 0
3912 -4173 -4174 0
-3912 4173 -4174 0
-3912 -4173 4174 0
3912 4173 -4175 0
3912 -4173 4175 0
-3912 4173 4175 0
-3912 -4173 -4175 0
3907 4175 -4176 0
3907 -4175 -4176 0
-3907 4175 -4176 0
-3907 -4175 4176 0
3907 4175 -4177 0
3907 -4175 4177 0
-3907 4175 4177 0
-3907 -4175 -4177 0
4174 4176 -4178 0
4174 -4176 4178 0
-4174 4176 4178 0
-4174 -4176 -4178 0
23 63 -4179 0
23 -63 -4179 0
-23 63 -4179 0
-23 -63 4179 0
3918 4179 -4180 0
3918 -4179 -4180 0
-3918 4179 -4180 0
-3918 -4179 4180 0
3918 4179 -4181 0
3918 -4179 4181 0
-3918 4179 4181 0
-3918 -4179 -4181 0
3913 4181 -4182 0
3913 -4181 -4182 0
-3913 4181 -4182 0
-3913 -4181 4182 0
3913 4181 -4183 0
3913 -4181 4183 0
-3913 4181 4183 0
-3913 -4181 -4183 0
4180 4182 -4184 0
4180 -4182 4184 0
-4180 4182 4184 0
-4180 -4182 -4184 0
24 63 -4185 0
24 -63 -4185 0
-24 63 -4185 0
-24 -63 4185 0
3924 4185 -4186 0
3924 -4185 -4186 0
-3924 4185 -4186 0
-3924 -4185 4186 0
3924 4185 -4187 0
3924 -4185 4187 0
-3924 4185 4187 0
-3924 -4185 -4187 0
3919 4187 -4188 0
3919 -4187 -4188 0
-3919 4187 -4188 0
-3919 -4187 4188 0
3919 4187 -4189 0
3919 -4187 4189 0
-3919 4187 4189 0
-3919 -4187 -4189 0
4186 4188 -4190 0
4186 -4188 4190 0
-4186 4188 4190 0
-4186 -4188 -4190 0
25 63 -4191 0
25 -63 -4191 0
-25 63 -4191 0
-25 -63 4191 0
3930 4191 -4192 0
3930 -4191 -4192 0
-3930 4191 -4192 0
-3930 -4191 4192 0
3930 4191 -4193 0
3930 -4191 4193 0
-3930 4191 4193 0
-3930 -4191 -4193 0
3925 4193 -4194 0
3925 -4193 -4194 0
-3925 4193 -4194 0
-3925 -4193 4194 0
3925 4193 -4195 0
3925 -4193 4195 0
-3925 4193 4195 0
-3925 -4193 -4195 0
4192 4194 -4196 0
4192 -4194 4196 0
-4192 4194 4196 0
-4192 -4194 -4196 0
26 63 -4197 0
26 -63 -4197 0
-26 63 -4197 0
-26 -63 4197 0
3936 4197 -4198 0
3936 -4197 -4198 0
-3936 4197 -4198 0
-3936 -4197 4198 0
3936 4197 -4199 0
3936 -4197 4199 0
-3936 4197 4199 0
-3936 -4197 -4199 0
3931 4199 -4200 0
3931 -4199 -4200 0
-3931 4199 -4200 0
-3931 -4199 4200 0
3931 4199 -4201 0
3931 -4199 4201 0
-3931 4199 4201 0
-3931 -4199 -4201 0
4198 4200 -4202 0
4198 -4200 4202 0
-4198 4200 4202 0
-4198 -4200 -4202 0
27 63 -4203 0
27 -63 -4203 0
-27 63 -4203 0
-27 -63 4203 0
3942 4203 -4204 0
3942 -4203 -4204 0
-3942 4203 -4204 0
-3942 -4203 4204 0
3942 4203 -4205 0
3942 -4203 4205 0
-3942 4203 4205 0
-3942 -4203 -4205 0
3937 4205 -4206 0
3937 -4205 -4206 0
-3937 4205 -4206 0
-3937 -4205 4206 0
3937 4205 -4207 0
3937 -4205 4207 0
-3937 4205 4207 0
-3937 -4205 -4207 0
4204 4206 -4208 0
4204 -4206 4208 0
-4204 4206 4208 0
-4204 -4206 -4208 0
28 63 -4209 0
28 -63 -4209 0
-28 63 -4209 0
-28 -63 4209 0
3948 4209 -4210 0
3948 -4209 -4210 0
-3948 4209 -4210 0
-3948 -4209 4210 0
3948 4209 -4211 0
3948 -4209 4211 0
-3948 4209 4211 0
-3948 -4209 -4211 0
3943 4211 -4212 0
3943 -4211 -4212 0
-3943 4211 -4212 0
-3943 -4211 4212 0
3943 4211 -4213 0
3943 -4211 4213 0
-3943 4211 4213 0
-3943 -4211 -4213 0
4210 4212 -4214 0
4210 -4212 4214 0
-4210 4212 4214 0
-4210 -4212 -4214 0
29 63 -4215 0
29 -63 -4215 0
-29 63 -4215 0
-29 -63 4215 0
3954 4215 -4216 0
3954 -4215 -4216 0
-3954 4215 -4216 0
-3954 -4215 4216 0
3954 4215 -4217 0
3954 -4215 4217 0
-3954 4215 4217 0
-3954 -4215 -4217 0
3949 4217 -4218 0
3949 -4217 -4218 0
-3949 4217 -4218 0
-3949 -4217 4218 0
3949 4217 -4219 0
3949 -4217 4219 0
-3949 4217 4219 0
-3949 -4217 -4219 0
4216 4218 -4220 0
4216 -4218 4220 0
-4216 4218 4220 0
-4216 -4218 -4220 0
30 63 -4221 0
30 -63 -4221 0
-30 63 -4221 0
-30 -63 4221 0
3960 4221 -4222 0
3960 -4221 -4222 0
-3960 4221 -4222 0
-3960 -4221 4222 0
3960 4221 -4223 0
3960 -4221 4223 0
-3960 4221 4223 0
-3960 -4221 -4223 0
3955 4223 -4224 0
3955 -4223 -4224 0
-3955 4223 -4224 0
-3955 -4223 4224 0
3955 4223 -4225 0
3955 -4223 4225 0
-3955 4223 4225 0
-3955 -4223 -4225 0
4222 4224 -4226 0
4222 -4224 4226 0
-4222 4224 4226 0
-4222 -4224 -4226 0
31 63 -4227 0
31 -63 -4227 0
-31 63 -4227 0
-31 -63 4227 0
3966 4227 -4228 0
3966 -4227 -4228 0
-3966 4227 -4228 0
-3966 -4227 4228 0
3966 4227 -4229 0
3966 -4227 4229 0
-3966 4227 4229 0
-3966 -4227 -4229 0
3961 4229 -4230 0
3961 -4229 -4230 0
-3961 4229 -4230 0
-3961 -4229 4230 0
3961 4229 -4231 0
3961 -4229 4231 0
-3961 4229 4231 0
-3961 -4229 -4231 0
4228 4230 -4232 0
4228 -4230 4232 0
-4228 4230 4232 0
-4228 -4230 -4232 0
32 63 -4233 0
32 -63 -4233 0
-32 63 -4233 0
-32 -63 4233 0
3972 4233 -4234 0
3972 -4233 -4234 0
-3972 4233 -4234 0
-3972 -4233 4234 0
3972 4233 -4235 0
3972 -4233 4235 0
-3972 4233 4235 0
-3972 -4233 -4235 0
3967 4235 -4236 0
3967 -4235 -4236 0
-3967 4235 -4236 0
-3967 -4235 4236 0
3967 4235 -4237 0
3967 -4235 4237 0
-3967 4235 4237 0
-3967 -4235 -4237 0
4234 4236 -4238 0
4234 -4236 4238 0
-4234 4236 4238 0
-4234 -4236 -4238 0
33 63 -4239 0
33 -63 -4239 0
-33 63 -4239 0
-33 -63 4239 0
3978 4239 -4240 0
3978 -4239 -4240 0
-3978 4239 -4240 0
-3978 -4239 4240 0
3978 4239 -4241 0
3978 -4239 4241 0
-3978 4239 4241 0
-3978 -4239 -4241 0
3973 4241 -4242 0
3973 -4241 -4242 0
-3973 4241 -4242 0
-3973 -4241 4242 0
3973 4241 -4243 0
3973 -4241 4243 0
-3973 4241 4243 0
-3973 -4241 -4243 0
4240 4242 -4244 0
4240 -4242 4244 0
-4240 4242 4244 0
-4240 -4242 -4244 0
34 63 -4245 0
34 -63 -4245 0
-34 63 -4245 0
-34 -63 4245 0
3984 4245 -4246 0
3984 -4245 -4246 0
-3984 4245 -4246 0
-3984 -4245 4246 0
3984 4245 -4247 0
3984 -4245 4247 0
-3984 4245 4247 0
-3984 -4245 -4247 0
3979 4247 -4248 0
3979 -4247 -4248 0
-3979 4247 -4248 0
-3979 -4247 4248 0
3979 4247 -4249 0
3979 -4247 4249 0
-3979 4247 4249 0
-3979 -4247 -4249 0
4246 4248 -4250 0
4246 -4248 4250 0
-4246 4248 4250 0
-4246 -4248 -4250 0
35 63 -4251 0
35 -63 -4251 0
-35 63 -4251 0
-35 -63 4251 0
3990 4251 -4252 0
3990 -4251 -4252 0
-3990 4251 -4252 0
-3990 -4251 4252 0
3990 4251 -4253 0
3990 -4251 4253 0
-3990 4251 4253 0
-3990 -4251 -4253 0
3985 4253 -4254 0
3985 -4253 -4254 0
-3985 4253 -4254 0
-3985 -4253 4254 0
3985 4253 -4255 0
3985 -4253 4255 0
-3985 4253 4255 0
-3985 -4253 -4255 0
4252 4254 -4256 0
4252 -4254 4256 0
-4252 4254 4256 0
-4252 -4254 -4256 0
36 63 -4257 0
36 -63 -4257 0
-36 63 -4257 0
-36 -63 4257 0
3996 4257 -4258 0
3996 -4257 -4258 0
-3996 4257 -4258 0
-3996 -4257 4258 0
3996 4257 -4259 0
3996 -4257 4259 0
-3996 4257 4259 0
-3996 -4257 -4259 0
3991 4259 -4260 0
3991 -4259 -4260 0
-3991 4259 -4260 0
-3991 -4259 4260 0
3991 4259 -4261 0
3991 -4259 4261 0
-3991 4259 4261 0
-3991 -4259 -4261 0
4258 4260 -4262 0
4258 -4260 4262 0
-4258 4260 4262 0
-4258 -4260 -4262 0
37 63 -4263 0
37 -63 -4263 0
-37 63 -4263 0
-37 -63 4263 0
4002 4263 -4264 0
4002 -4263 -4264 0
-4002 4263 -4264 0
-4002 -4263 4264 0
4002 4263 -4265 0
4002 -4263 4265 0
-4002 4263 4265 0
-4002 -4263 -4265 0
3997 4265 -4266 0
3997 -4265 -4266 0
-3997 4265 -4266 0
-3997 -4265 4266 0
3997 4265 -4267 0
3997 -4265 4267 0
-3997 4265 4267 0
-3997 -4265 -4267 0
4264 4266 -4268 0
4264 -4266 4268 0
-4264 4266 4268 0
-4264 -4266 -4268 0
38 63 -4269 0
38 -63 -4269 0
-38 63 -4269 0
-38 -63 4269 0
4008 4269 -4270 0
4008 -4269 -4270 0
-4008 4269 -4270 0
-4008 -4269 4270 0
4008 4269 -4271 0
4008 -4269 4271 0
-4008 4269 4271 0
-4008 -4269 -4271 0
4003 4271 -4272 0
4003 -4271 -4272 0
-4003 4271 -4272 0
-4003 -4271 4272 0
4003 4271 -4273 0
4003 -4271 4273 0
-4003 4271 4273 0
-4003 -4271 -4273 0
4270 4272 -4274 0
4270 -4272 4274 0
-4270 4272 4274 0
-4270 -4272 -4274 0
39 63 -4275 0
39 -63 -4275 0
-39 63 -4275 0
-39 -63 4275 0
4014 4275 -4276 0
4014 -4275 -4276 0
-4014 4275 -4276 0
-4014 -4275 4276 0
4014 4275 -4277 0
4014 -4275 4277 0
-4014 4275 4277 0
-4014 -4275 -4277 0
4009 4277 -4278 0
4009 -4277 -4278 0
-4009 4277 -4278 0
-4009 -4277 4278 0
4009 4277 -4279 0
4009 -4277 4279 0
-4009 4277 4279 0
-4009 -4277 -4279 0
4276 4278 -4280 0
4276 -4278 4280 0
-4276 4278 4280 0
-4276 -4278 -4280 0
40 63 -4281 0
40 -63 -4281 0
-40 63 -4281 0
-40 -63 4281 0
4020 4281 -4282 0
4020 -4281 -4282 0
-4020 4281 -4282 0
-4020 -4281 4282 0
4020 4281 -4283 0
4020 -4281 4283 0
-4020 4281 4283 0
-4020 -4281 -4283 0
4015 4283 -4284 0
4015 -4283 -4284 0
-4015 4283 -4284 0
-4015 -4283 4284 0
4015 4283 -4285 0
4015 -4283 4285 0
-4015 4283 4285 0
-4015 -4283 -4285 0
4282 4284 -4286 0
4282 -4284 4286 0
-4282 4284 4286 0
-4282 -4284 -4286 0
41 63 -4287 0
41 -63 -4287 0
-41 63 -4287 0
-41 -63 4287 0
4026 4287 -4288 0
4026 -4287 -4288 0
-4026 4287 -4288 0
-4026 -4287 4288 0
4026 4287 -4289 0
4026 -4287 4289 0
-4026 4287 4289 0
-4026 -4287 -4289 0
4021 4289 -4290 0
4021 -4289 -4290 0
-4021 4289 -4290 0
-4021 -4289 4290 0
4021 4289 -4291 0
4021 -4289 4291 0
-4021 4289 4291 0
-4021 -4289 -4291 0
4288 4290 -4292 0
4288 -4290 4292 0
-4288 4290 4292 0
-4288 -4290 -4292 0
42 63 -4293 0
42 -63 -4293 0
-42 63 -4293 0
-42 -63 4293 0
4032 4293 -4294 0
4032 -4293 -4294 0
-4032 4293 -4294 0
-4032 -4293 4294 0
4032 4293 -4295 0
4032 -4293 4295 0
-4032 4293 4295 0
-4032 -4293 -4295 0
4027 4295 -4296 0
4027 -4295 -4296 0
-4027 4295 -4296 0
-4027 -4295 4296 0
4027 4295 -4297 0
4027 -4295 4297 0
-4027 4295 4297 0
-4027 -4295 -4297 0
4294 4296 -4298 0
4294 -4296 4298 0
-4294 4296 4298 0
-4294 -4296 -4298 0
43 63 -4299 0
43 -63 -4299 0
-43 63 -4299 0
-43 -63 4299 0
4038 4299 -4300 0
4038 -4299 -4300 0
-4038 4299 -4300 0
-4038 -4299 4300 0
4038 4299 -4301 0
4038 -4299 4301 0
-4038 4299 4301 0
-4038 -4299 -4301 0
4033 4301 -4302 0
4033 -4301 -4302 0
-4033 4301 -4302 0
-4033 -4301 4302 0
4033 4301 -4303 0
4033 -4301 4303 0
-4033 4301 4303 0
-4033 -4301 -4303 0
4300 4302 -4304 0
4300 -4302 4304 0
-4300 4302 4304 0
-4300 -4302 -4304 0
44 63 -4305 0
44 -63 -4305 0
-44 63 -4305 0
-44 -63 4305 0
4044 4305 -4306 0
4044 -4305 -4306 0
-4044 4305 -4306 0
-4044 -4305 4306 0
4044 4305 -4307 0
4044 -4305 4307 0
-4044 4305 4307 0
-4044 -4305 -4307 0
4039 4307 -4308 0
4039 -4307 -4308 0
-4039 4307 -4308 0
-4039 -4307 4308 0
4039 4307 -4309 0
4039 -4307 4309 0
-4039 4307 4309 0
-4039 -4307 -4309 0
4306 4308 -4310 0
4306 -4308 4310 0
-4306 4308 4310 0
-4306 -4308 -4310 0
45 63 -4311 0
45 -63 -4311 0
-45 63 -4311 0
-45 -63 4311 0
4046 4311 -4312 0
4046 -4311 -4312 0
-4046 4311 -4312 0
-4046 -4311 4312 0
4046 4311 -4313 0
4046 -4311 4313 0
-4046 4311 4313 0
-4046 -4311 -4313 0
4045 4313 -4314 0
4045 -4313 -4314 0
-4045 4313 -4314 0
-4045 -4313 4314 0
4045 4313 -4315 0
4045 -4313 4315 0
-4045 4313 4315 0
-4045 -4313 -4315 0
4312 4314 -4316 0
4312 -4314 4316 0
-4312 4314 4316 0
-4312 -4314 -4316 0
46 63 -4317 0
46 -63 -4317 0
-46 63 -4317 0
-46 -63 4317 0
1 64 -4318 0
1 -64 -4318 0
-1 64 -4318 0
-1 -64 4318 0
4057 4318 -4319 0
4057 -4318 -4319 0
-4057 4318 -4319 0
-4057 -4318 4319 0
4057 4318 -4320 0
4057 -4318 4320 0
-4057 4318 4320 0
-4057 -4318 -4320 0
4052 4320 -4321 0
4052 -4320 -4321 0
-4052 4320 -4321 0
-4052 -4320 4321 0
4052 4320 -4322 0
4052 -4320 4322 0
-4052 4320 4322 0
-4052 -4320 -4322 0
4319 4321 -4323 0
4319 -4321 4323 0
-4319 4321 4323 0
-4319 -4321 -4323 0
2 64 -4324 0
2 -64 -4324 0
-2 64 -4324 0
-2 -64 4324 0
4063 4324 -4325 0
4063 -4324 -4325 0
-4063 4324 -4325 0
-4063 -4324 4325 0
4063 4324 -4326 0
4063 -4324 4326 0
-4063 4324 4326 0
-4063 -4324 -4326 0
4058 4326 -4327 0
4058 -4326 -4327 0
-4058 4326 -4327 0
-4058 -4326 4327 0
4058 4326 -4328 0
4058 -4326 4328 0
-4058 4326 4328 0
-4058 -4326 -4328 0
4325 4327 -4329 0
4325 -4327 4329 0
-4325 4327 4329 0
-4325 -4327 -4329 0
3 64 -4330 0
3 -64 -4330 0
-3 64 -4330 0
-3 -64 4330 0
4069 4330 -4331 0
4069 -4330 -4331 0
-4069 4330 -4331 0
-4069 -4330 4331 0
4069 4330 -4332 0
4069 -4330 4332 0
-4069 4330 4332 0
-4069 -4330 -4332 0
4064 4332 -4333 0
4064 -4332 -4333 0
-4064 4332 -4333 0
-4064 -4332 4333 0
4064 4332 -4334 0
4064 -4332 4334 0
-4064 4332 4334 0
-4064 -4332 -4334 0
4331 4333 -4335 0
4331 -4333 4335 0
-4331 4333 4335 0
-4331 -4333 -4335 0
4 64 -4336 0
4 -64 -4336 0
-4 64 -4336 0
-4 -64 4336 0
4075 4336 -4337 0
4075 -4336 -4337 0
-4075 4336 -4337 0
-4075 -4336 4337 0
4075 4336 -4338 0
4075 -4336 4338 0
-4075 4336 4338 0
-4075 -4336 -4338 0
4070 4338 -4339 0
4070 -4338 -4339 0
-4070 4338 -4339 0
-4070 -4338 4339 0
4070 4338 -4340 0
4070 -4338 4340 0
-4070 4338 4340 0
-4070 -4338 -4340 0
4337 4339 -4341 0
4337 -4339 4341 0
-4337 4339 4341 0
-4337 -4339 -4341 0
5 64 -4342 0
5 -64 -4342 0
-5 64 -4342 0
-5 -64 4342 0
4081 4342 -4343 0
4081 -4342 -4343 0
-4081 4342 -4343 0
-4081 -4342 4343 0
4081 4342 -4344 0
4081 -4342 4344 0
-4081 4342 4344 0
-4081 -4342 -4344 0
4076 4344 -4345 0
4076 -4344 -4345 0
-4076 4344 -4345 0
-4076 -4344 4345 0
4076 4344 -4346 0
4076 -4344 4346 0
-4076 4344 4346 0
-4076 -4344 -4346 0
4343 4345 -4347 0
4343 -4345 4347 0
-4343 4345 4347 0
-4343 -4345 -4347 0
6 64 -4348 0
6 -64 -4348 0
-6 64 -4348 0
-6 -64 4348 0
4087 4348 -4349 0
4087 -4348 -4349 0
-4087 4348 -4349 0
-4087 -4348 4349 0
4087 4348 -4350 0
4087 -4348 4350 0
-4087 4348 4350 0
-4087 -4348 -4350 0
4082 4350 -4351 0
4082 -4350 -4351 0
-4082 4350 -4351 0
-4082 -4350 4351 0
4082 4350 -4352 0
4082 -4350 4352 0
-4082 4350 4352 0
-4082 -4350 -4352 0
4349 4351 -4353 0
4349 -4351 4353 0
-4349 4351 4353 0
-4349 -4351 -4353 0
7 64 -4354 0
7 -64 -4354 0
-7 64 -4354 0
-7 -64 4354 0
4093 4354 -4355 0
4093 -4354 -4355 0
-4093 4354 -4355 0
-4093 -4354 4355 0
4093 4354 -4356 0
4093 -4354 4356 0
-4093 4354 4356 0
-4093 -4354 -4356 0
4088 4356 -4357 0
4088 -4356 -4357 0
-4088 4356 -4357 0
-4088 -4356 4357 0
4088 4356 -4358 0
4088 -4356 4358 0
-4088 4356 4358 0
-4088 -4356 -4358 0
4355 4357 -4359 0
4355 -4357 4359 0
-4355 4357 4359 0
-4355 -4357 -4359 0
8 64 -4360 0
8 -64 -4360 0
-8 64 -4360 0
-8 -64 4360 0
4099 4360 -4361 0
4099 -4360 -4361 0
-4099 4360 -4361 0
-4099 -4360 4361 0
4099 4360 -4362 0
4099 -4360 4362 0
-4099 4360 4362 0
-4099 -4360 -4362 0
4094 4362 -4363 0
4094 -4362 -4363 0
-4094 4362 -4363 0
-4094 -4362 4363 0
4094 4362 -4364 0
4094 -4362 4364 0
-4094 4362 4364 0
-4094 -4362 -4364 0
4361 4363 -4365 0
4361 -4363 4365 0
-4361 4363 4365 0
-4361 -4363 -4365 0
9 64 -4366 0
9 -64 -4366 0
-9 64 -4366 0
-9 -64 4366 0
4105 4366 -4367 0
4105 -4366 -4367 0
-4105 4366 -4367 0
-4105 -4366 4367 0
4105 4366 -4368 0
4105 -4366 4368 0
-4105 4366 4368 0
-4105 -4366 -4368 0
4100 4368 -4369 0
4100 -4368 -4369 0
-4100 4368 -4369 0
-4100 -4368 4369 0
4100 4368 -4370 0
4100 -4368 4370 0
-4100 4368 4370 0
-4100 -4368 -4370 0
4367 4369 -4371 0
4367 -4369 4371 0
-4367 4369 4371 0
-4367 -4369 -4371 0
10 64 -4372 0
10 -64 -4372 0
-10 64 -4372 0
-10 -64 4372 0
4111 4372 -4373 0
4111 -4372 -4373 0
-4111 4372 -4373 0
-4111 -4372 4373 0
4111 4372 -4374 0
4111 -4372 4374 0
-4111 4372 4374 0
-4111 -4372 -4374 0
4106 4374 -4375 0
4106 -4374 -4375 0
-4106 4374 -4375 0
-4106 -4374 4375 0
4106 4374 -4376 0
4106 -4374 4376 0
-4106 4374 4376 0
-4106 -4374 -4376 0
4373 4375 -4377 0
4373 -4375 4377 0
-4373 4375 4377 0
-4373 -4375 -4377 0
11 64 -4378 0
11 -64 -4378 0
-11 64 -4378 0
-11 -64 4378 0
4117 4378 -4379 0
4117 -4378 -4379 0
-4117 4378 -4379 0
-4117 -4378 4379 0
4117 4378 -4380 0
4117 -4378 4380 0
-4117 4378 4380 0
-4117 -4378 -4380 0
4112 4380 -4381 0
4112 -4380 -4381 0
-4112 4380 -4381 0
-4112 -4380 4381 0
4112 4380 -4382 0
4112 -4380 4382 0
-4112 4380 4382 0
-4112 -4380 -4382 0
4379 4381 -4383 0
4379 -4381 4383 0
-4379 4381 4383 0
-4379 -4381 -4383 0
12 64 -4384 0
12 -64 -4384 0
-12 64 -4384 0
-12 -64 4384 0
4123 4384 -4385 0
4123 -4384 -4385 0
-4123 4384 -4385 0
-4123 -4384 4385 0
4123 4384 -4386 0
4123 -4384 4386 0
-4123 4384 4386 0
-4123 -4384 -4386 0
4118 4386 -4387 0
4118 -4386 -4387 0
-4118 4386 -4387 0
-4118 -4386 4387 0
4118 4386 -4388 0
4118 -4386 4388 0
-4118 4386 4388 0
-4118 -4386 -4388 0
4385 4387 -4389 0
4385 -4387 4389 0
-4385 4387 4389 0
-4385 -4387 -4389 0
13 64 -4390 0
13 -64 -4390 0
-13 64 -4390 0
-13 -64 4390 0
4129 4390 -4391 0
4129 -4390 -4391 0
-4129 4390 -4391 0
-4129 -4390 4391 0
4129 4390 -4392 0
4129 -4390 4392 0
-4129 4390 4392 0
-4129 -4390 -4392 0
4124 4392 -4393 0
4124 -4392 -4393 0
-4124 4392 -4393 0
-4124 -4392 4393 0
4124 4392 -4394 0
4124 -4392 4394 0
-4124 4392 4394 0
-4124 -4392 -4394 0
4391 4393 -4395 0
4391 -4393 4395 0
-4391 4393 4395 0
-4391 -4393 -4395 0
14 64 -4396 0
14 -64 -4396 0
-14 64 -4396 0
-14 -64 4396 0
4135 4396 -4397 0
4135 -4396 -4397 0
-4135 4396 -4397 0
-4135 -4396 4397 0
4135 4396 -4398 0
4135 -4396 4398 0
-4135 4396 4398 0
-4135 -4396 -4398 0
4130 4398 -4399 0
4130 -4398 -4399 0
-4130 4398 -4399 0
-4130 -4398 4399 0
4130 4398 -4400 0
4130 -4398 4400 0
-4130 4398 4400 0
-4130 -4398 -4400 0
4397 4399 -4401 0
4397 -4399 4401 0
-4397 4399 4401 0
-4397 -4399 -4401 0
15 64 -4402 0
15 -64 -4402 0
-15 64 -4402 0
-15 -64 4402 0
4141 4402 -4403 0
4141 -4402 -4403 0
-4141 4402 -4403 0
-4141 -4402 4403 0
4141 4402 -4404 0
4141 -4402 4404 0
-4141 4402 4404 0
-4141 -4402 -4404 0
4136 4404 -4405 0
4136 -4404 -4405 0
-4136 4404 -4405 0
-4136 -4404 4405 0
4136 4404 -4406 0
4136 -4404 4406 0
-4136 4404 4406 0
-4136 -4404 -4406 0
4403 4405 -4407 0
4403 -4405 4407 0
-4403 4405 4407 0
-4403 -4405 -4407 0
16 64 -4408 0
16 -64 -4408 0
-16 64 -4408 0
-16 -64 4408 0
4147 4408 -4409 0
4147 -4408 -4409 0
-4147 4408 -4409 0
-4147 -4408 4409 0
4147 4408 -4410 0
4147 -4408 4410 0
-4147 4408 4410 0
-4147 -4408 -4410 0
4142 4410 -4411 0
4142 -4410 -4411 0
-4142 4410 -4411 0
-4142 -4410 4411 0
4142 4410 -4412 0
4142 -4410 4412 0
-4142 4410 4412 0
-4142 -4410 -4412 0
4409 4411 -4413 0
4409 -4411 4413 0
-4409 4411 4413 0
-4409 -4411 -4413 0
17 64 -4414 0
17 -64 -4414 0
-17 64 -4414 0
-17 -64 4414 0
4153 4414 -4415 0
4153 -4414 -4415 0
-4153 4414 -4415 0
-4153 -4414 4415 0
4153 4414 -4416 0
4153 -4414 4416 0
-4153 4414 4416 0
-4153 -4414 -4416 0
4148 4416 -4417 0
4148 -4416 -4417 0
-4148 4416 -4417 0
-4148 -4416 4417 0
4148 4416 -4418 0
4148 -4416 4418 0
-4148 4416 4418 0
-4148 -4416 -4418 0
4415 4417 -4419 0
4415 -4417 4419 0
-4415 4417 4419 0
-4415 -4417 -4419 0
18 64 -4420 0
18 -64 -4420 0
-18 64 -4420 0
-18 -64 4420 0
4159 4420 -4421 0
4159 -4420 -4421 0
-4159 4420 -4421 0
-4159 -4420 4421 0
4159 4420 -4422 0
4159 -4420 4422 0
-4159 4420 4422 0
-4159 -4420 -4422 0
4154 4422 -4423 0
4154 -4422 -4423 0
-4154 4422 -4423 0
-4154 -4422 4423 0
4154 4422 -4424 0
4154 -4422 4424 0
-4154 4422 4424 0
-4154 -4422 -4424 0
4421 4423 -4425 0
4421 -4423 4425 0
-4421 4423 4425 0
-4421 -4423 -4425 0
19 64 -4426 0
19 -64 -4426 0
-19 64 -4426 0
-19 -64 4426 0
4165 4426 -4427 0
4165 -4426 -4427 0
-4165 4426 -4427 0
-4165 -4426 4427 0
4165 4426 -4428 0
4165 -4426 4428 0
-4165 4426 4428 0
-4165 -4426 -4428 0
4160 4428 -4429 0
4160 -4428 -4429 0
-4160 4428 -4429 0
-4160 -4428 4429 0
4160 4428 -4430 0
4160 -4428 4430 0
-4160 4428 4430 0
-4160 -4428 -4430 0
4427 4429 -4431 0
4427 -4429 4431 0
-4427 4429 4431 0
-4427 -4429 -4431 0
20 64 -4432 0
20 -64 -4432 0
-20 64 -4432 0
-20 -64 4432 0
4171 4432 -4433 0
4171 -4432 -4433 0
-4171 4432 -4433 0
-4171 -4432 4433 0
4171 4432 -4434 0
4171 -4432 4434 0
-4171 4432 4434 0
-4171 -4432 -4434 0
4166 4434 -4435 0
4166 -4434 -4435 0
-4166 4434 -4435 0
-4166 -4434 4435 0
4166 4434 -4436 0
4166 -4434 4436 0
-4166 4434 4436 0
-4166 -4434 -4436 0
4433 4435 -4437 0
4433 -4435 4437 0
-4433 4435 4437 0
-4433 -4435 -4437 0
21 64 -4438 0
21 -64 -4438 0
-21 64 -4438 0
-21 -64 4438 0
4177 4438 -4439 0
4177 -4438 -4439 0
-4177 4438 -4439 0
-4177 -4438 4439 0
4177 4438 -4440 0
4177 -4438 4440 0
-4177 4438 4440 0
-4177 -4438 -4440 0
4172 4440 -4441 0
4172 -4440 -4441 0
-4172 4440 -4441 0
-4172 -4440 4441 0
4172 4440 -4442 0
4172 -4440 4442 0
-4172 4440 4442 0
-4172 -4440 -4442 0
4439 4441 -4443 0
4439 -4441 4443 0
-4439 4441 4443 0
-4439 -4441 -4443 0
22 64 -4444 0
22 -64 -4444 0
-22 64 -4444 0
-22 -64 4444 0
4183 4444 -4445 0
4183 -4444 -4445 0
-4183 4444 -4445 0
-4183 -4444 4445 0
4183 4444 -4446 0
4183 -4444 4446 0
-4183 4444 4446 0
-4183 -4444 -4446 0
4178 4446 -4447 0
4178 -4446 -4447 0
-4178 4446 -4447 0
-4178 -4446 4447 0
4178 4446 -4448 0
4178 -4446 4448 0
-4178 4446 4448 0
-4178 -4446 -4448 0
4445 4447 -4449 0
4445 -4447 4449 0
-4445 4447 4449 0
-4445 -4447 -4449 0
23 64 -4450 0
23 -64 -4450 0
-23 64 -4450 0
-23 -64 4450 0
4189 4450 -4451 0
4189 -4450 -4451 0
-4189 4450 -4451 0
-4189 -4450 4451 0
4189 4450 -4452 0
4189 -4450 4452 0
-4189 4450 4452 0
-4189 -4450 -4452 0
4184 4452 -4453 0
4184 -4452 -4453 0
-4184 4452 -4453 0
-4184 -4452 4453 0
4184 4452 -4454 0
4184 -4452 4454 0
-4184 4452 4454 0
-4184 -4452 -4454 0
4451 4453 -4455 0
4451 -4453 4455 0
-4451 4453 4455 0
-4451 -4453 -4455 0
24 64 -4456 0
24 -64 -4456 0
-24 64 -4456 0
-24 -64 4456 0
4195 4456 -4457 0
4195 -4456 -4457 0
-4195 4456 -4457 0
-4195 -4456 4457 0
4195 4456 -4458 0
4195 -4456 4458 0
-4195 4456 4458 0
-4195 -4456 -4458 0
4190 4458 -4459 0
4190 -4458 -4459 0
-4190 4458 -4459 0
-4190 -4458 4459 0
4190 4458 -4460 0
4190 -4458 4460 0
-4190 4458 4460 0
-4190 -4458 -4460 0
4457 4459 -4461 0
4457 -4459 4461 0
-4457 4459 4461 0
-4457 -4459 -4461 0
25 64 -4462 0
25 -64 -4462 0
-25 64 -4462 0
-25 -64 4462 0
4201 4462 -4463 0
4201 -4462 -4463 0
-4201 4462 -4463 0
-4201 -4462 4463 0
4201 4462 -4464 0
4201 -4462 4464 0
-4201 4462 4464 0
-4201 -4462 -4464 0
4196 4464 -4465 0
4196 -4464 -4465 0
-4196 4464 -4465 0
-4196 -4464 4465 0
4196 4464 -4466 0
4196 -4464 4466 0
-4196 4464 4466 0
-4196 -4464 -4466 0
4463 4465 -4467 0
4463 -4465 4467 0
-4463 4465 4467 0
-4463 -4465 -4467 0
26 64 -4468 0
26 -64 -4468 0
-26 64 -4468 0
-26 -64 4468 0
4207 4468 -4469 0
4207 -4468 -4469 0
-4207 4468 -4469 0
-4207 -4468 4469 0
4207 4468 -4470 0
4207 -4468 4470 0
-4207 4468 4470 0
-4207 -4468 -4470 0
4202 4470 -4471 0
4202 -4470 -4471 0
-4202 4470 -4471 0
-4202 -4470 4471 0
4202 4470 -4472 0
4202 -4470 4472 0
-4202 4470 4472 0
-4202 -4470 -4472 0
4469 4471 -4473 0
4469 -4471 4473 0
-4469 4471 4473 0
-4469 -4471 -4473 0
27 64 -4474 0
27 -64 -4474 0
-27 64 -4474 0
-27 -64 4474 0
4213 4474 -4475 0
4213 -4474 -4475 0
-4213 4474 -4475 0
-4213 -4474 4475 0
4213 4474 -4476 0
4213 -4474 4476 0
-4213 4474 4476 0
-4213 -4474 -4476 0
4208 4476 -4477 0
4208 -4476 -4477 0
-4208 4476 -4477 0
-4208 -4476 4477 0
4208 4476 -4478 0
4208 -4476 4478 0
-4208 4476 4478 0
-4208 -4476 -4478 0
4475 4477 -4479 0
4475 -4477 4479 0
-4475 4477 4479 0
-4475 -4477 -4479 0
28 64 -4480 0
28 -64 -4480 0
-28 64 -4480 0
-28 -64 4480 0
4219 4480 -4481 0
4219 -4480 -4481 0
-4219 4480 -4481 0
-4219 -4480 4481 0
4219 4480 -4482 0
4219 -4480 4482 0
-4219 4480 4482 0
-4219 -4480 -4482 0
4214 4482 -4483 0
4214 -4482 -4483 0
-4214 4482 -4483 0
-4214 -4482 4483 0
4214 4482 -4484 0
4214 -4482 4484 0
-4214 4482 4484 0
-4214 -4482 -4484 0
4481 4483 -4485 0
4481 -4483 4485 0
-4481 4483 4485 0
-4481 -4483 -4485 0
29 64 -4486 0
29 -64 -4486 0
-29 64 -4486 0
-29 -64 4486 0
4225 4486 -4487 0
4225 -4486 -4487 0
-4225 4486 -4487 0
-4225 -4486 4487 0
4225 4486 -4488 0
4225 -4486 4488 0
-4225 4486 4488 0
-4225 -4486 -4488 0
4220 4488 -4489 0
4220 -4488 -4489 0
-4220 4488 -4489 0
-4220 -4488 4489 0
4220 4488 -4490 0
4220 -4488 4490 0
-4220 4488 4490 0
-4220 -4488 -4490 0
4487 4489 -4491 0
4487 -4489 4491 0
-4487 4489 4491 0
-4487 -4489 -4491 0
30 64 -4492 0
30 -64 -4492 0
-30 64 -4492 0
-30 -64 4492 0
4231 4492 -4493 0
4231 -4492 -4493 0
-4231 4492 -4493 0
-4231 -4492 4493 0
4231 4492 -4494 0
4231 -4492 4494 0
-4231 4492 4494 0
-4231 -4492 -4494 0
4226 4494 -4495 0
4226 -4494 -4495 0
-4226 4494 -4495 0
-4226 -4494 4495 0
4226 4494 -4496 0
4226 -4494 4496 0
-4226 4494 4496 0
-4226 -4494 -4496 0
4493 4495 -4497 0
4493 -4495 4497 0
-4493 4495 4497 0
-4493 -4495 -4497 0
31 64 -4498 0
31 -64 -4498 0
-31 64 -4498 0
-31 -64 4498 0
4237 4498 -4499 0
4237 -4498 -4499 0
-4237 4498 -4499 0
-4237 -4498 4499 0
4237 4498 -4500 0
4237 -4498 4500 0
-4237 4498 4500 0
-4237 -4498 -4500 0
4232 4500 -4501 0
4232 -4500 -4501 0
-4232 4500 -4501 0
-4232 -4500 4501 0
4232 4500 -4502 0
4232 -4500 4502 0
-4232 4500 4502 0
-4232 -4500 -4502 0
4499 4501 -4503 0
4499 -4501 4503 0
-4499 4501 4503 0
-4499 -4501 -4503 0
32 64 -4504 0
32 -64 -4504 0
-32 64 -4504 0
-32 -64 4504 0
4243 4504 -4505 0
4243 -4504 -4505 0
-4243 4504 -4505 0
-4243 -4504 4505 0
4243 4504 -4506 0
4243 -4504 4506 0
-4243 4504 4506 0
-4243 -4504 -4506 0
4238 4506 -4507 0
4238 -4506 -4507 0
-4238 4506 -4507 0
-4238 -4506 4507 0
4238 4506 -4508 0
4238 -4506 4508 0
-4238 4506 4508 0
-4238 -4506 -4508 0
4505 4507 -4509 0
4505 -4507 4509 0
-4505 4507 4509 0
-4505 -4507 -4509 0
33 64 -4510 0
33 -64 -4510 0
-33 64 -4510 0
-33 -64 4510 0
4249 4510 -4511 0
4249 -4510 -4511 0
-4249 4510 -4511 0
-4249 -4510 4511 0
4249 4510 -4512 0
4249 -4510 4512 0
-4249 4510 4512 0
-4249 -4510 -4512 0
4244 4512 -4513 0
4244 -4512 -4513 0
-4244 4512 -4513 0
-4244 -4512 4513 0
4244 4512 -4514 0
4244 -4512 4514 0
-4244 4512 4514 0
-4244 -4512 -4514 0
4511 4513 -4515 0
4511 -4513 4515 0
-4511 4513 4515 0
-4511 -4513 -4515 0
34 64 -4516 0
34 -64 -4516 0
-34 64 -4516 0
-34 -64 4516 0
4255 4516 -4517 0
4255 -4516 -4517 0
-4255 4516 -4517 0
-4255 -4516 4517 0
4255 4516 -4518 0
4255 -4516 4518 0
-4255 4516 4518 0
-4255 -4516 -4518 0
4250 4518 -4519 0
4250 -4518 -4519 0
-4250 4518 -4519 0
-4250 -4518 4519 0
4250 4518 -4520 0
4250 -4518 4520 0
-4250 4518 4520 0
-4250 -4518 -4520 0
4517 4519 -4521 0
4517 -4519 4521 0
-4517 4519 4521 0
-4517 -4519 -4521 0
35 64 -4522 0
35 -64 -4522 0
-35 64 -4522 0
-35 -64 4522 0
4261 4522 -4523 0
4261 -4522 -4523 0
-4261 4522 -4523 0
-4261 -4522 4523 0
4261 4522 -4524 0
4261 -4522 4524 0
-4261 4522 4524 0
-4261 -4522 -4524 0
4256 4524 -4525 0
4256 -4524 -4525 0
-4256 4524 -4525 0
-4256 -4524 4525 0
4256 4524 -4526 0
4256 -4524 4526 0
-4256 4524 4526 0
-4256 -4524 -4526 0
4523 4525 -4527 0
4523 -4525 4527 0
-4523 4525 4527 0
-4523 -4525 -4527 0
36 64 -4528 0
36 -64 -4528 0
-36 64 -4528 0
-36 -64 4528 0
4267 4528 -4529 0
4267 -4528 -4529 0
-4267 4528 -4529 0
-4267 -4528 4529 0
4267 4528 -4530 0
4267 -4528 4530 0
-4267 4528 4530 0
-4267 -4528 -4530 0
4262 4530 -4531 0
4262 -4530 -4531 0
-4262 4530 -4531 0
-4262 -4530 4531 0
4262 4530 -4532 0
4262 -4530 4532 0
-4262 4530 4532 0
-4262 -4530 -4532 0
4529 4531 -4533 0
4529 -4531 4533 0
-4529 4531 4533 0
-4529 -4531 -4533 0
37 64 -4534 0
37 -64 -4534 0
-37 64 -4534 0
-37 -64 4534 0
4273 4534 -4535 0
4273 -4534 -4535 0
-4273 4534 -4535 0
-4273 -4534 4535 0
4273 4534 -4536 0
4273 -4534 4536 0
-4273 4534 4536 0
-4273 -4534 -4536 0
4268 4536 -4537 0
4268 -4536 -4537 0
-4268 4536 -4537 0
-4268 -4536 4537 0
4268 4536 -4538 0
4268 -4536 4538 0
-4268 4536 4538 0
-4268 -4536 -4538 0
4535 4537 -4539 0
4535 -4537 4539 0
-4535 4537 4539 0
-4535 -4537 -4539 0
38 64 -4540 0
38 -64 -4540 0
-38 64 -4540 0
-38 -64 4540 0
4279 4540 -4541 0
4279 -4540 -4541 0
-4279 4540 -4541 0
-4279 -4540 4541 0
4279 4540 -4542 0
4279 -4540 4542 0
-4279 4540 4542 0
-4279 -4540 -4542 0
4274 4542 -4543 0
4274 -4542 -4543 0
-4274 4542 -4543 0
-4274 -4542 4543 0
4274 4542 -4544 0
4274 -4542 4544 0
-4274 4542 4544 0
-4274 -4542 -4544 0
4541 4543 -4545 0
4541 -4543 4545 0
-4541 4543 4545 0
-4541 -4543 -4545 0
39 64 -4546 0
39 -64 -4546 0
-39 64 -4546 0
-39 -64 4546 0
4285 4546 -4547 0
4285 -4546 -4547 0
-4285 4546 -4547 0
-4285 -4546 4547 0
4285 4546 -4548 0
4285 -4546 4548 0
-4285 4546 4548 0
-4285 -4546 -4548 0
4280 4548 -4549 0
4280 -4548 -4549 0
-4280 4548 -4549 0
-4280 -4548 4549 0
4280 4548 -4550 0
4280 -4548 4550 0
-4280 4548 4550 0
-4280 -4548 -4550 0
4547 4549 -4551 0
4547 -4549 4551 0
-4547 4549 4551 0
-4547 -4549 -4551 0
40 64 -4552 0
40 -64 -4552 0
-40 64 -4552 0
-40 -64 4552 0
4291 4552 -4553 0
4291 -4552 -4553 0
-4291 4552 -4553 0
-4291 -4552 4553 0
4291 4552 -4554 0
4291 -4552 4554 0
-4291 4552 4554 0
-4291 -4552 -4554 0
4286 4554 -4555 0
4286 -4554 -4555 0
-4286 4554 -4555 0
-4286 -4554 4555 0
4286 4554 -4556 0
4286 -4554 4556 0
-4286 4554 4556 0
-4286 -4554 -4556 0
4553 4555 -4557 0
4553 -4555 4557 0
-4553 4555 4557 0
-4553 -4555 -4557 0
41 64 -4558 0
41 -64 -4558 0
-41 64 -4558 0
-41 -64 4558 0
4297 4558 -4559 0
4297 -4558 -4559 0
-4297 4558 -4559 0
-4297 -4558 4559 0
4297 4558 -4560 0
4297 -4558 4560 0
-4297 4558 4560 0
-4297 -4558 -4560 0
4292 4560 -4561 0
4292 -4560 -4561 0
-4292 4560 -4561 0
-4292 -4560 4561 0
4292 4560 -4562 0
4292 -4560 4562 0
-4292 4560 4562 0
-4292 -4560 -4562 0
4559 4561 -4563 0
4559 -4561 4563 0
-4559 4561 4563 0
-4559 -4561 -4563 0
42 64 -4564 0
42 -64 -4564 0
-42 64 -4564 0
-42 -64 4564 0
4303 4564 -4565 0
4303 -4564 -4565 0
-4303 4564 -4565 0
-4303 -4564 4565 0
4303 4564 -4566 0
4303 -4564 4566 0
-4303 4564 4566 0
-4303 -4564 -4566 0
4298 4566 -4567 0
4298 -4566 -4567 0
-4298 4566 -4567 0
-4298 -4566 4567 0
4298 4566 -4568 0
4298 -4566 4568 0
-4298 4566 4568 0
-4298 -4566 -4568 0
4565 4567 -4569 0
4565 -4567 4569 0
-4565 4567 4569 0
-4565 -4567 -4569 0
43 64 -4570 0
43 -64 -4570 0
-43 64 -4570 0
-43 -64 4570 0
4309 4570 -4571 0
4309 -4570 -4571 0
-4309 4570 -4571 0
-4309 -4570 4571 0
4309 4570 -4572 0
4309 -4570 4572 0
-4309 4570 4572 0
-4309 -4570 -4572 0
4304 4572 -4573 0
4304 -4572 -4573 0
-4304 4572 -4573 0
-4304 -4572 4573 0
4304 4572 -4574 0
4304 -4572 4574 0
-4304 4572 4574 0
-4304 -4572 -4574 0
4571 4573 -4575 0
4571 -4573 4575 0
-4571 4573 4575 0
-4571 -4573 -4575 0
44 64 -4576 0
44 -64 -4576 0
-44 64 -4576 0
-44 -64 4576 0
4315 4576 -4577 0
4315 -4576 -4577 0
-4315 4576 -4577 0
-4315 -4576 4577 0
4315 4576 -4578 0
4315 -4576 4578 0
-4315 4576 4578 0
-4315 -4576 -4578 0
4310 4578 -4579 0
4310 -4578 -4579 0
-4310 4578 -4579 0
-4310 -4578 4579 0
4310 4578 -4580 0
4310 -4578 4580 0
-4310 4578 4580 0
-4310 -4578 -4580 0
4577 4579 -4581 0
4577 -4579 4581 0
-4577 4579 4581 0
-4577 -4579 -4581 0
45 64 -4582 0
45 -64 -4582 0
-45 64 -4582 0
-45 -64 4582 0
4317 4582 -4583 0
4317 -4582 -4583 0
-4317 4582 -4583 0
-4317 -4582 4583 0
4317 4582 -4584 0
4317 -4582 4584 0
-4317 4582 4584 0
-4317 -4582 -4584 0
4316 4584 -4585 0
4316 -4584 -4585 0
-4316 4584 -4585 0
-4316 -4584 4585 0
4316 4584 -4586 0
4316 -4584 4586 0
-4316 4584 4586 0
-4316 -4584 -4586 0
4583 4585 -4587 0
4583 -4585 4587 0
-4583 4585 4587 0
-4583 -4585 -4587 0
46 64 -4588 0
46 -64 -4588 0
-46 64 -4588 0
-46 -64 4588 0
1 65 -4589 0
1 -65 -4589 0
-1 65 -4589 0
-1 -65 4589 0
4328 4589 -4590 0
4328 -4589 -4590 0
-4328 4589 -4590 0
-4328 -4589 4590 0
4328 4589 -4591 0
4328 -4589 4591 0
-4328 4589 4591 0
-4328 -4589 -4591 0
4323 4591 -4592 0
4323 -4591 -4592 0
-4323 4591 -4592 0
-4323 -4591 4592 0
4323 4591 -4593 0
4323 -4591 4593 0
-4323 4591 4593 0
-4323 -4591 -4593 0
4590 4592 -4594 0
4590 -4592 4594 0
-4590 4592 4594 0
-4590 -4592 -4594 0
2 65 -4595 0
2 -65 -4595 0
-2 65 -4595 0
-2 -65 4595 0
4334 4595 -4596 0
4334 -4595 -4596 0
-4334 4595 -4596 0
-4334 -4595 4596 0
4334 4595 -4597 0
4334 -4595 4597 0
-4334 4595 4597 0
-4334 -4595 -4597 0
4329 4597 -4598 0
4329 -4597 -4598 0
-4329 4597 -4598 0
-4329 -4597 4598 0
4329 4597 -4599 0
4329 -4597 4599 0
-4329 4597 4599 0
-4329 -4597 -4599 0
4596 4598 -4600 0
4596 -4598 4600 0
-4596 4598 4600 0
-4596 -4598 -4600 0
3 65 -4601 0
3 -65 -4601 0
-3 65 -4601 0
-3 -65 4601 0
4340 4601 -4602 0
4340 -4601 -4602 0
-4340 4601 -4602 0
-4340 -4601 4602 0
4340 4601 -4603 0
4340 -4601 4603 0
-4340 4601 4603 0
-4340 -4601 -4603 0
4335 4603 -4604 0
4335 -4603 -4604 0
-4335 4603 -4604 0
-4335 -4603 4604 0
4335 4603 -4605 0
4335 -4603 4605 0
-4335 4603 4605 0
-4335 -4603 -4605 0
4602 4604 -4606 0
4602 -4604 4606 0
-4602 4604 4606 0
-4602 -4604 -4606 0
4 65 -4607 0
4 -65 -4607 0
-4 65 -4607 0
-4 -65 4607 0
4346 4607 -4608 0
4346 -4607 -4608 0
-4346 4607 -4608 0
-4346 -4607 4608 0
4346 4607 -4609 0
4346 -4607 4609 0
-4346 4607 4609 0
-4346 -4607 -4609 0
4341 4609 -4610 0
4341 -4609 -4610 0
-4341 4609 -4610 0
-4341 -4609 4610 0
4341 4609 -4611 0
4341 -4609 4611 0
-4341 4609 4611 0
-4341 -4609 -4611 0
4608 4610 -4612 0
4608 -4610 4612 0
-4608 4610 4612 0
-4608 -4610 -4612 0
5 65 -4613 0
5 -65 -4613 0
-5 65 -4613 0
-5 -65 4613 0
4352 4613 -4614 0
4352 -4613 -4614 0
-4352 4613 -4614 0
-4352 -4613 4614 0
4352 4613 -4615 0
4352 -4613 4615 0
-4352 4613 4615 0
-4352 -4613 -4615 0
4347 4615 -4616 0
4347 -4615 -4616 0
-4347 4615 -4616 0
-4347 -4615 4616 0
4347 4615 -4617 0
4347 -4615 4617 0
-4347 4615 4617 0
-4347 -4615 -4617 0
4614 4616 -4618 0
4614 -4616 4618 0
-4614 4616 4618 0
-4614 -4616 -4618 0
6 65 -4619 0
6 -65 -4619 0
-6 65 -4619 0
-6 -65 4619 0
4358 4619 -4620 0
4358 -4619 -4620 0
-4358 4619 -4620 0
-4358 -4619 4620 0
4358 4619 -4621 0
4358 -4619 4621 0
-4358 4619 4621 0
-4358 -4619 -4621 0
4353 4621 -4622 0
4353 -4621 -4622 0
-4353 4621 -4622 0
-4353 -4621 4622 0
4353 4621 -4623 0
4353 -4621 4623 0
-4353 4621 4623 0
-4353 -4621 -4623 0
4620 4622 -4624 0
4620 -4622 4624 0
-4620 4622 4624 0
-4620 -4622 -4624 0
7 65 -4625 0
7 -65 -4625 0
-7 65 -4625 0
-7 -65 4625 0
4364 4625 -4626 0
4364 -4625 -4626 0
-4364 4625 -4626 0
-4364 -4625 4626 0
4364 4625 -4627 0
4364 -4625 4627 0
-4364 4625 4627 0
-4364 -4625 -4627 0
4359 4627 -4628 0
4359 -4627 -4628 0
-4359 4627 -4628 0
-4359 -4627 4628 0
4359 4627 -4629 0
4359 -4627 4629 0
-4359 4627 4629 0
-4359 -4627 -4629 0
4626 4628 -4630 0
4626 -4628 4630 0
-4626 4628 4630 0
-4626 -4628 -4630 0
8 65 -4631 0
8 -65 -4631 0
-8 65 -4631 0
-8 -65 4631 0
4370 4631 -4632 0
4370 -4631 -4632 0
-4370 4631 -4632 0
-4370 -4631 4632 0
4370 4631 -4633 0
4370 -4631 4633 0
-4370 4631 4633 0
-4370 -4631 -4633 0
4365 4633 -4634 0
4365 -4633 -4634 0
-4365 4633 -4634 0
-4365 -4633 4634 0
4365 4633 -4635 0
4365 -4633 4635 0
-4365 4633 4635 0
-4365 -4633 -4635 0
4632 4634 -4636 0
4632 -4634 4636 0
-4632 4634 4636 0
-4632 -4634 -4636 0
9 65 -4637 0
9 -65 -4637 0
-9 65 -4637 0
-9 -65 4637 0
4376 4637 -4638 0
4376 -4637 -4638 0
-4376 4637 -4638 0
-4376 -4637 4638 0
4376 4637 -4639 0
4376 -4637 4639 0
-4376 4637 4639 0
-4376 -4637 -4639 0
4371 4639 -4640 0
4371 -4639 -4640 0
-4371 4639 -4640 0
-4371 -4639 4640 0
4371 4639 -4641 0
4371 -4639 4641 0
-4371 4639 4641 0
-4371 -4639 -4641 0
4638 4640 -4642 0
4638 -4640 4642 0
-4638 4640 4642 0
-4638 -4640 -4642 0
10 65 -4643 0
10 -65 -4643 0
-10 65 -4643 0
-10 -65 4643 0
4382 4643 -4644 0
4382 -4643 -4644 0
-4382 4643 -4644 0
-4382 -4643 4644 0
4382 4643 -4645 0
4382 -4643 4645 0
-4382 4643 4645 0
-4382 -4643 -4645 0
4377 4645 -4646 0
4377 -4645 -4646 0
-4377 4645 -4646 0
-4377 -4645 4646 0
4377 4645 -4647 0
4377 -4645 4647 0
-4377 4645 4647 0
-4377 -4645 -4647 0
4644 4646 -4648 0
4644 -4646 4648 0
-4644 4646 4648 0
-4644 -4646 -4648 0
11 65 -4649 0
11 -65 -4649 0
-11 65 -4649 0
-11 -65 4649 0
4388 4649 -4650 0
4388 -4649 -4650 0
-4388 4649 -4650 0
-4388 -4649 4650 0
4388 4649 -4651 0
4388 -4649 4651 0
-4388 4649 4651 0
-4388 -4649 -4651 0
4383 4651 -4652 0
4383 -4651 -4652 0
-4383 4651 -4652 0
-4383 -4651 4652 0
4383 4651 -4653 0
4383 -4651 4653 0
-4383 4651 4653 0
-4383 -4651 -4653 0
4650 4652 -4654 0
4650 -4652 4654 0
-4650 4652 4654 0
-4650 -4652 -4654 0
12 65 -4655 0
12 -65 -4655 0
-12 65 -4655 0
-12 -65 4655 0
4394 4655 -4656 0
4394 -4655 -4656 0
-4394 4655 -4656 0
-4394 -4655 4656 0
4394 4655 -4657 0
4394 -4655 4657 0
-4394 4655 4657 0
-4394 -4655 -4657 0
4389 4657 -4658 0
4389 -4657 -4658 0
-4389 4657 -4658 0
-4389 -4657 4658 0
4389 4657 -4659 0
4389 -4657 4659 0
-4389 4657 4659 0
-4389 -4657 -4659 0
4656 4658 -4660 0
4656 -4658 4660 0
-4656 4658 4660 0
-4656 -4658 -4660 0
13 65 -4661 0
13 -65 -4661 0
-13 65 -4661 0
-13 -65 4661 0
4400 4661 -4662 0
4400 -4661 -4662 0
-4400 4661 -4662 0
-4400 -4661 4662 0
4400 4661 -4663 0
4400 -4661 4663 0
-4400 4661 4663 0
-4400 -4661 -4663 0
4395 4663 -4664 0
4395 -4663 -4664 0
-4395 4663 -4664 0
-4395 -4663 4664 0
4395 4663 -4665 0
4395 -4663 4665 0
-4395 4663 4665 0
-4395 -4663 -4665 0
4662 4664 -4666 0
4662 -4664 4666 0
-4662 4664 4666 0
-4662 -4664 -4666 0
14 65 -4667 0
14 -65 -4667 0
-14 65 -4667 0
-14 -65 4667 0
4406 4667 -4668 0
4406 -4667 -4668 0
-4406 4667 -4668 0
-4406 -4667 4668 0
4406 4667 -4669 0
4406 -4667 4669 0
-4406 4667 4669 0
-4406 -4667 -4669 0
4401 4669 -4670 0
4401 -4669 -4670 0
-4401 4669 -4670 0
-4401 -4669 4670 0
4401 4669 -4671 0
4401 -4669 4671 0
-4401 4669 4671 0
-4401 -4669 -4671 0
4668 4670 -4672 0
4668 -4670 4672 0
-4668 4670 4672 0
-4668 -4670 -4672 0
15 65 -4673 0
15 -65 -4673 0
-15 65 -4673 0
-15 -65 4673 0
4412 4673 -4674 0
4412 -4673 -4674 0
-4412 4673 -4674 0
-4412 -4673 4674 0
4412 4673 -4675 0
4412 -4673 4675 0
-4412 4673 4675 0
-4412 -4673 -4675 0
4407 4675 -4676 0
4407 -4675 -4676 0
-4407 4675 -4676 0
-4407 -4675 4676 0
4407 4675 -4677 0
4407 -4675 4677 0
-4407 4675 4677 0
-4407 -4675 -4677 0
4674 4676 -4678 0
4674 -4676 4678 0
-4674 4676 4678 0
-4674 -4676 -4678 0
16 65 -4679 0
16 -65 -4679 0
-16 65 -4679 0
-16 -65 4679 0
4418 4679 -4680 0
4418 -4679 -4680 0
-4418 4679 -4680 0
-4418 -4679 4680 0
4418 4679 -4681 0
4418 -4679 4681 0
-4418 4679 4681 0
-4418 -4679 -4681 0
4413 4681 -4682 0
4413 -4681 -4682 0
-4413 4681 -4682 0
-4413 -4681 4682 0
4413 4681 -4683 0
4413 -4681 4683 0
-4413 4681 4683 0
-4413 -4681 -4683 0
4680 4682 -4684 0
4680 -4682 4684 0
-4680 4682 4684 0
-4680 -4682 -4684 0
17 65 -4685 0
17 -65 -4685 0
-17 65 -4685 0
-17 -65 4685 0
4424 4685 -4686 0
4424 -4685 -4686 0
-4424 4685 -4686 0
-4424 -4685 4686 0
4424 4685 -4687 0
4424 -4685 4687 0
-4424 4685 4687 0
-4424 -4685 -4687 0
4419 4687 -4688 0
4419 -4687 -4688 0
-4419 4687 -4688 0
-4419 -4687 4688 0
4419 4687 -4689 0
4419 -4687 4689 0
-4419 4687 4689 0
-4419 -4687 -4689 0
4686 4688 -4690 0
4686 -4688 4690 0
-4686 4688 4690 0
-4686 -4688 -4690 0
18 65 -4691 0
18 -65 -4691 0
-18 65 -4691 0
-18 -65 4691 0
4430 4691 -4692 0
4430 -4691 -4692 0
-4430 4691 -4692 0
-4430 -4691 4692 0
4430 4691 -4693 0
4430 -4691 4693 0
-4430 4691 4693 0
-4430 -4691 -4693 0
4425 4693 -4694 0
4425 -4693 -4694 0
-4425 4693 -4694 0
-4425 -4693 4694 0
4425 4693 -4695 0
4425 -4693 4695 0
-4425 4693 4695 0
-4425 -4693 -4695 0
4692 4694 -4696 0
4692 -4694 4696 0
-4692 4694 4696 0
-4692 -4694 -4696 0
19 65 -4697 0
19 -65 -4697 0
-19 65 -4697 0
-19 -65 4697 0
4436 4697 -4698 0
4436 -4697 -4698 0
-4436 4697 -4698 0
-4436 -4697 4698 0
4436 4697 -4699 0
4436 -4697 4699 0
-4436 4697 4699 0
-4436 -4697 -4699 0
4431 4699 -4700 0
4431 -4699 -4700 0
-4431 4699 -4700 0
-4431 -4699 4700 0
4431 4699 -4701 0
4431 -4699 4701 0
-4431 4699 4701 0
-4431 -4699 -4701 0
4698 4700 -4702 0
4698 -4700 4702 0
-4698 4700 4702 0
-4698 -4700 -4702 0
20 65 -4703 0
20 -65 -4703 0
-20 65 -4703 0
-20 -65 4703 0
4442 4703 -4704 0
4442 -4703 -4704 0
-4442 4703 -4704 0
-4442 -4703 4704 0
4442 4703 -4705 0
4442 -4703 4705 0
-4442 4703 4705 0
-4442 -4703 -4705 0
4437 4705 -4706 0
4437 -4705 -4706 0
-4437 4705 -4706 0
-4437 -4705 4706 0
4437 4705 -4707 0
4437 -4705 4707 0
-4437 4705 4707 0
-4437 -4705 -4707 0
4704 4706 -4708 0
4704 -4706 4708 0
-4704 4706 4708 0
-4704 -4706 -4708 0
21 65 -4709 0
21 -65 -4709 0
-21 65 -4709 0
-21 -65 4709 0
4448 4709 -4710 0
4448 -4709 -4710 0
-4448 4709 -4710 0
-4448 -4709 4710 0
4448 4709 -4711 0
4448 -4709 4711 0
-4448 4709 4711 0
-4448 -4709 -4711 0
4443 4711 -4712 0
4443 -4711 -4712 0
-4443 4711 -4712 0
-4443 -4711 4712 0
4443 4711 -4713 0
4443 -4711 4713 0
-4443 4711 4713 0
-4443 -4711 -4713 0
4710 4712 -4714 0
4710 -4712 4714 0
-4710 4712 4714 0
-4710 -4712 -4714 0
22 65 -4715 0
22 -65 -4715 0
-22 65 -4715 0
-22 -65 4715 0
4454 4715 -4716 0
4454 -4715 -4716 0
-4454 4715 -4716 0
-4454 -4715 4716 0
4454 4715 -4717 0
4454 -4715 4717 0
-4454 4715 4717 0
-4454 -4715 -4717 0
4449 4717 -4718 0
4449 -4717 -4718 0
-4449 4717 -4718 0
-4449 -4717 4718 0
4449 4717 -4719 0
4449 -4717 4719 0
-4449 4717 4719 0
-4449 -4717 -4719 0
4716 4718 -4720 0
4716 -4718 4720 0
-4716 4718 4720 0
-4716 -4718 -4720 0
23 65 -4721 0
23 -65 -4721 0
-23 65 -4721 0
-23 -65 4721 0
4460 4721 -4722 0
4460 -4721 -4722 0
-4460 4721 -4722 0
-4460 -4721 4722 0
4460 4721 -4723 0
4460 -4721 4723 0
-4460 4721 4723 0
-4460 -4721 -4723 0
4455 4723 -4724 0
4455 -4723 -4724 0
-4455 4723 -4724 0
-4455 -4723 4724 0
4455 4723 -4725 0
4455 -4723 4725 0
-4455 4723 4725 0
-4455 -4723 -4725 0
4722 4724 -4726 0
4722 -4724 4726 0
-4722 4724 4726 0
-4722 -4724 -4726 0
24 65 -4727 0
24 -65 -4727 0
-24 65 -4727 0
-24 -65 4727 0
4466 4727 -4728 0
4466 -4727 -4728 0
-4466 4727 -4728 0
-4466 -4727 4728 0
4466 4727 -4729 0
4466 -4727 4729 0
-4466 4727 4729 0
-4466 -4727 -4729 0
4461 4729 -4730 0
4461 -4729 -4730 0
-4461 4729 -4730 0
-4461 -4729 4730 0
4461 4729 -4731 0
4461 -4729 4731 0
-4461 4729 4731 0
-4461 -4729 -4731 0
4728 4730 -4732 0
4728 -4730 4732 0
-4728 4730 4732 0
-4728 -4730 -4732 0
25 65 -4733 0
25 -65 -4733 0
-25 65 -4733 0
-25 -65 4733 0
4472 4733 -4734 0
4472 -4733 -4734 0
-4472 4733 -4734 0
-4472 -4733 4734 0
4472 4733 -4735 0
4472 -4733 4735 0
-4472 4733 4735 0
-4472 -4733 -4735 0
4467 4735 -4736 0
4467 -4735 -4736 0
-4467 4735 -4736 0
-4467 -4735 4736 0
4467 4735 -4737 0
4467 -4735 4737 0
-4467 4735 4737 0
-4467 -4735 -4737 0
4734 4736 -4738 0
4734 -4736 4738 0
-4734 4736 4738 0
-4734 -4736 -4738 0
26 65 -4739 0
26 -65 -4739 0
-26 65 -4739 0
-26 -65 4739 0
4478 4739 -4740 0
4478 -4739 -4740 0
-4478 4739 -4740 0
-4478 -4739 4740 0
4478 4739 -4741 0
4478 -4739 4741 0
-4478 4739 4741 0
-4478 -4739 -4741 0
4473 4741 -4742 0
4473 -4741 -4742 0
-4473 4741 -4742 0
-4473 -4741 4742 0
4473 4741 -4743 0
4473 -4741 4743 0
-4473 4741 4743 0
-4473 -4741 -4743 0
4740 4742 -4744 0
4740 -4742 4744 0
-4740 4742 4744 0
-4740 -4742 -4744 0
27 65 -4745 0
27 -65 -4745 0
-27 65 -4745 0
-27 -65 4745 0
4484 4745 -4746 0
4484 -4745 -4746 0
-4484 4745 -4746 0
-4484 -4745 4746 0
4484 4745 -4747 0
4484 -4745 4747 0
-4484 4745 4747 0
-4484 -4745 -4747 0
4479 4747 -4748 0
4479 -4747 -4748 0
-4479 4747 -4748 0
-4479 -4747 4748 0
4479 4747 -4749 0
4479 -4747 4749 0
-4479 4747 4749 0
-4479 -4747 -4749 0
4746 4748 -4750 0
4746 -4748 4750 0
-4746 4748 4750 0
-4746 -4748 -4750 0
28 65 -4751 0
28 -65 -4751 0
-28 65 -4751 0
-28 -65 4751 0
4490 4751 -4752 0
4490 -4751 -4752 0
-4490 4751 -4752 0
-4490 -4751 4752 0
4490 4751 -4753 0
4490 -4751 4753 0
-4490 4751 4753 0
-4490 -4751 -4753 0
4485 4753 -4754 0
4485 -4753 -4754 0
-4485 4753 -4754 0
-4485 -4753 4754 0
4485 4753 -4755 0
4485 -4753 4755 0
-4485 4753 4755 0
-4485 -4753 -4755 0
4752 4754 -4756 0
4752 -4754 4756 0
-4752 4754 4756 0
-4752 -4754 -4756 0
29 65 -4757 0
29 -65 -4757 0
-29 65 -4757 0
-29 -65 4757 0
4496 4757 -4758 0
4496 -4757 -4758 0
-4496 4757 -4758 0
-4496 -4757 4758 0
4496 4757 -4759 0
4496 -4757 4759 0
-4496 4757 4759 0
-4496 -4757 -4759 0
4491 4759 -4760 0
4491 -4759 -4760 0
-4491 4759 -4760 0
-4491 -4759 4760 0
4491 4759 -4761 0
4491 -4759 4761 0
-4491 4759 4761 0
-4491 -4759 -4761 0
4758 4760 -4762 0
4758 -4760 4762 0
-4758 4760 4762 0
-4758 -4760 -4762 0
30 65 -4763 0
30 -65 -4763 0
-30 65 -4763 0
-30 -65 4763 0
4502 4763 -4764 0
4502 -4763 -4764 0
-4502 4763 -4764 0
-4502 -4763 4764 0
4502 4763 -4765 0
4502 -4763 4765 0
-4502 4763 4765 0
-4502 -4763 -4765 0
4497 4765 -4766 0
4497 -4765 -4766 0
-4497 4765 -4766 0
-4497 -4765 4766 0
4497 4765 -4767 0
4497 -4765 4767 0
-4497 4765 4767 0
-4497 -4765 -4767 0
4764 4766 -4768 0
4764 -4766 4768 0
-4764 4766 4768 0
-4764 -4766 -4768 0
31 65 -4769 0
31 -65 -4769 0
-31 65 -4769 0
-31 -65 4769 0
4508 4769 -4770 0
4508 -4769 -4770 0
-4508 4769 -4770 0
-4508 -4769 4770 0
4508 4769 -4771 0
4508 -4769 4771 0
-4508 4769 4771 0
-4508 -4769 -4771 0
4503 4771 -4772 0
4503 -4771 -4772 0
-4503 4771 -4772 0
-4503 -4771 4772 0
4503 4771 -4773 0
4503 -4771 4773 0
-4503 4771 4773 0
-4503 -4771 -4773 0
4770 4772 -4774 0
4770 -4772 4774 0
-4770 4772 4774 0
-4770 -4772 -4774 0
32 65 -4775 0
32 -65 -4775 0
-32 65 -4775 0
-32 -65 4775 0
4514 4775 -4776 0
4514 -4775 -4776 0
-4514 4775 -4776 0
-4514 -4775 4776 0
4514 4775 -4777 0
4514 -4775 4777 0
-4514 4775 4777 0
-4514 -4775 -4777 0
4509 4777 -4778 0
4509 -4777 -4778 0
-4509 4777 -4778 0
-4509 -4777 4778 0
4509 4777 -4779 0
4509 -4777 4779 0
-4509 4777 4779 0
-4509 -4777 -4779 0
4776 4778 -4780 0
4776 -4778 4780 0
-4776 4778 4780 0
-4776 -4778 -4780 0
33 65 -4781 0
33 -65 -4781 0
-33 65 -4781 0
-33 -65 4781 0
4520 4781 -4782 0
4520 -4781 -4782 0
-4520 4781 -4782 0
-4520 -4781 4782 0
4520 4781 -4783 0
4520 -4781 4783 0
-4520 4781 4783 0
-4520 -4781 -4783 0
4515 4783 -4784 0
4515 -4783 -4784 0
-4515 4783 -4784 0
-4515 -4783 4784 0
4515 4783 -4785 0
4515 -4783 4785 0
-4515 4783 4785 0
-4515 -4783 -4785 0
4782 4784 -4786 0
4782 -4784 4786 0
-4782 4784 4786 0
-4782 -4784 -4786 0
34 65 -4787 0
34 -65 -4787 0
-34 65 -4787 0
-34 -65 4787 0
4526 4787 -4788 0
4526 -4787 -4788 0
-4526 4787 -4788 0
-4526 -4787 4788 0
4526 4787 -4789 0
4526 -4787 4789 0
-4526 4787 4789 0
-4526 -4787 -4789 0
4521 4789 -4790 0
4521 -4789 -4790 0
-4521 4789 -4790 0
-4521 -4789 4790 0
4521 4789 -4791 0
4521 -4789 4791 0
-4521 4789 4791 0
-4521 -4789 -4791 0
4788 4790 -4792 0
4788 -4790 4792 0
-4788 4790 4792 0
-4788 -4790 -4792 0
35 65 -4793 0
35 -65 -4793 0
-35 65 -4793 0
-35 -65 4793 0
4532 4793 -4794 0
4532 -4793 -4794 0
-4532 4793 -4794 0
-4532 -4793 4794 0
4532 4793 -4795 0
4532 -4793 4795 0
-4532 4793 4795 0
-4532 -4793 -4795 0
4527 4795 -4796 0
4527 -4795 -4796 0
-4527 4795 -4796 0
-4527 -4795 4796 0
4527 4795 -4797 0
4527 -4795 4797 0
-4527 4795 4797 0
-4527 -4795 -4797 0
4794 4796 -4798 0
4794 -4796 4798 0
-4794 4796 4798 0
-4794 -4796 -4798 0
36 65 -4799 0
36 -65 -4799 0
-36 65 -4799 0
-36 -65 4799 0
4538 4799 -4800 0
4538 -4799 -4800 0
-4538 4799 -4800 0
-4538 -4799 4800 0
4538 4799 -4801 0
4538 -4799 4801 0
-4538 4799 4801 0
-4538 -4799 -4801 0
4533 4801 -4802 0
4533 -4801 -4802 0
-4533 4801 -4802 0
-4533 -4801 4802 0
4533 4801 -4803 0
4533 -4801 4803 0
-4533 4801 4803 0
-4533 -4801 -4803 0
4800 4802 -4804 0
4800 -4802 4804 0
-4800 4802 4804 0
-4800 -4802 -4804 0
37 65 -4805 0
37 -65 -4805 0
-37 65 -4805 0
-37 -65 4805 0
4544 4805 -4806 0
4544 -4805 -4806 0
-4544 4805 -4806 0
-4544 -4805 4806 0
4544 4805 -4807 0
4544 -4805 4807 0
-4544 4805 4807 0
-4544 -4805 -4807 0
4539 4807 -4808 0
4539 -4807 -4808 0
-4539 4807 -4808 0
-4539 -4807 4808 0
4539 4807 -4809 0
4539 -4807 4809 0
-4539 4807 4809 0
-4539 -4807 -4809 0
4806 4808 -4810 0
4806 -4808 4810 0
-4806 4808 4810 0
-4806 -4808 -4810 0
38 65 -4811 0
38 -65 -4811 0
-38 65 -4811 0
-38 -65 4811 0
4550 4811 -4812 0
4550 -4811 -4812 0
-4550 4811 -4812 0
-4550 -4811 4812 0
4550 4811 -4813 0
4550 -4811 4813 0
-4550 4811 4813 0
-4550 -4811 -4813 0
4545 4813 -4814 0
4545 -4813 -4814 0
-4545 4813 -4814 0
-4545 -4813 4814 0
4545 4813 -4815 0
4545 -4813 4815 0
-4545 4813 4815 0
-4545 -4813 -4815 0
4812 4814 -4816 0
4812 -4814 4816 0
-4812 4814 4816 0
-4812 -4814 -4816 0
39 65 -4817 0
39 -65 -4817 0
-39 65 -4817 0
-39 -65 4817 0
4556 4817 -4818 0
4556 -4817 -4818 0
-4556 4817 -4818 0
-4556 -4817 4818 0
4556 4817 -4819 0
4556 -4817 4819 0
-4556 4817 4819 0
-4556 -4817 -4819 0
4551 4819 -4820 0
4551 -4819 -4820 0
-4551 4819 -4820 0
-4551 -4819 4820 0
4551 4819 -4821 0
4551 -4819 4821 0
-4551 4819 4821 0
-4551 -4819 -4821 0
4818 4820 -4822 0
4818 -4820 4822 0
-4818 4820 4822 0
-4818 -4820 -4822 0
40 65 -4823 0
40 -65 -4823 0
-40 65 -4823 0
-40 -65 4823 0
4562 4823 -4824 0
4562 -4823 -4824 0
-4562 4823 -4824 0
-4562 -4823 4824 0
4562 4823 -4825 0
4562 -4823 4825 0
-4562 4823 4825 0
-4562 -4823 -4825 0
4557 4825 -4826 0
4557 -4825 -4826 0
-4557 4825 -4826 0
-4557 -4825 4826 0
4557 4825 -4827 0
4557 -4825 4827 0
-4557 4825 4827 0
-4557 -4825 -4827 0
4824 4826 -4828 0
4824 -4826 4828 0
-4824 4826 4828 0
-4824 -4826 -4828 0
41 65 -4829 0
41 -65 -4829 0
-41 65 -4829 0
-41 -65 4829 0
4568 4829 -4830 0
4568 -4829 -4830 0
-4568 4829 -4830 0
-4568 -4829 4830 0
4568 4829 -4831 0
4568 -4829 4831 0
-4568 4829 4831 0
-4568 -4829 -4831 0
4563 4831 -4832 0
4563 -4831 -4832 0
-4563 4831 -4832 0
-4563 -4831 4832 0
4563 4831 -4833 0
4563 -4831 4833 0
-4563 4831 4833 0
-4563 -4831 -4833 0
4830 4832 -4834 0
4830 -4832 4834 0
-4830 4832 4834 0
-4830 -4832 -4834 0
42 65 -4835 0
42 -65 -4835 0
-42 65 -4835 0
-42 -65 4835 0
4574 4835 -4836 0
4574 -4835 -4836 0
-4574 4835 -4836 0
-4574 -4835 4836 0
4574 4835 -4837 0
4574 -4835 4837 0
-4574 4835 4837 0
-4574 -4835 -4837 0
4569 4837 -4838 0
4569 -4837 -4838 0
-4569 4837 -4838 0
-4569 -4837 4838 0
4569 4837 -4839 0
4569 -4837 4839 0
-4569 4837 4839 0
-4569 -4837 -4839 0
4836 4838 -4840 0
4836 -4838 4840 0
-4836 4838 4840 0
-4836 -4838 -4840 0
43 65 -4841 0
43 -65 -4841 0
-43 65 -4841 0
-43 -65 4841 0
4580 4841 -4842 0
4580 -4841 -4842 0
-4580 4841 -4842 0
-4580 -4841 4842 0
4580 4841 -4843 0
4580 -4841 4843 0
-4580 4841 4843 0
-4580 -4841 -4843 0
4575 4843 -4844 0
4575 -4843 -4844 0
-4575 4843 -4844 0
-4575 -4843 4844 0
4575 4843 -4845 0
4575 -4843 4845 0
-4575 4843 4845 0
-4575 -4843 -4845 0
4842 4844 -4846 0
4842 -4844 4846 0
-4842 4844 4846 0
-4842 -4844 -4846 0
44 65 -4847 0
44 -65 -4847 0
-44 65 -4847 0
-44 -65 4847 0
4586 4847 -4848 0
4586 -4847 -4848 0
-4586 4847 -4848 0
-4586 -4847 4848 0
4586 4847 -4849 0
4586 -4847 4849 0
-4586 4847 4849 0
-4586 -4847 -4849 0
4581 4849 -4850 0
4581 -4849 -4850 0
-4581 4849 -4850 0
-4581 -4849 4850 0
4581 4849 -4851 0
4581 -4849 4851 0
-4581 4849 4851 0
-4581 -4849 -4851 0
4848 4850 -4852 0
4848 -4850 4852 0
-4848 4850 4852 0
-4848 -4850 -4852 0
45 65 -4853 0
45 -65 -4853 0
-45 65 -4853 0
-45 -65 4853 0
4588 4853 -4854 0
4588 -4853 -4854 0
-4588 4853 -4854 0
-4588 -4853 4854 0
4588 4853 -4855 0
4588 -4853 4855 0
-4588 4853 4855 0
-4588 -4853 -4855 0
4587 4855 -4856 0
4587 -4855 -4856 0
-4587 4855 -4856 0
-4587 -4855 4856 0
4587 4855 -4857 0
4587 -4855 4857 0
-4587 4855 4857 0
-4587 -4855 -4857 0
4854 4856 -4858 0
4854 -4856 4858 0
-4854 4856 4858 0
-4854 -4856 -4858 0
46 65 -4859 0
46 -65 -4859 0
-46 65 -4859 0
-46 -65 4859 0
1 66 -4860 0
1 -66 -4860 0
-1 66 -4860 0
-1 -66 4860 0
4599 4860 -4861 0
4599 -4860 -4861 0
-4599 4860 -4861 0
-4599 -4860 4861 0
4599 4860 -4862 0
4599 -4860 4862 0
-4599 4860 4862 0
-4599 -4860 -4862 0
4594 4862 -4863 0
4594 -4862 -4863 0
-4594 4862 -4863 0
-4594 -4862 4863 0
4594 4862 -4864 0
4594 -4862 4864 0
-4594 4862 4864 0
-4594 -4862 -4864 0
4861 4863 -4865 0
4861 -4863 4865 0
-4861 4863 4865 0
-4861 -4863 -4865 0
2 66 -4866 0
2 -66 -4866 0
-2 66 -4866 0
-2 -66 4866 0
4605 4866 -4867 0
4605 -4866 -4867 0
-4605 4866 -4867 0
-4605 -4866 4867 0
4605 4866 -4868 0
4605 -4866 4868 0
-4605 4866 4868 0
-4605 -4866 -4868 0
4600 4868 -4869 0
4600 -4868 -4869 0
-4600 4868 -4869 0
-4600 -4868 4869 0
4600 4868 -4870 0
4600 -4868 4870 0
-4600 4868 4870 0
-4600 -4868 -4870 0
4867 4869 -4871 0
4867 -4869 4871 0
-4867 4869 4871 0
-4867 -4869 -4871 0
3 66 -4872 0
3 -66 -4872 0
-3 66 -4872 0
-3 -66 4872 0
4611 4872 -4873 0
4611 -4872 -4873 0
-4611 4872 -4873 0
-4611 -4872 4873 0
4611 4872 -4874 0
4611 -4872 4874 0
-4611 4872 4874 0
-4611 -4872 -4874 0
4606 4874 -4875 0
4606 -4874 -4875 0
-4606 4874 -4875 0
-4606 -4874 4875 0
4606 4874 -4876 0
4606 -4874 4876 0
-4606 4874 4876 0
-4606 -4874 -4876 0
4873 4875 -4877 0
4873 -4875 4877 0
-4873 4875 4877 0
-4873 -4875 -4877 0
4 66 -4878 0
4 -66 -4878 0
-4 66 -4878 0
-4 -66 4878 0
4617 4878 -4879 0
4617 -4878 -4879 0
-4617 4878 -4879 0
-4617 -4878 4879 0
4617 4878 -4880 0
4617 -4878 4880 0
-4617 4878 4880 0
-4617 -4878 -4880 0
4612 4880 -4881 0
4612 -4880 -4881 0
-4612 4880 -4881 0
-4612 -4880 4881 0
4612 4880 -4882 0
4612 -4880 4882 0
-4612 4880 4882 0
-4612 -4880 -4882 0
4879 4881 -4883 0
4879 -4881 4883 0
-4879 4881 4883 0
-4879 -4881 -4883 0
5 66 -4884 0
5 -66 -4884 0
-5 66 -4884 0
-5 -66 4884 0
4623 4884 -4885 0
4623 -4884 -4885 0
-4623 4884 -4885 0
-4623 -4884 4885 0
4623 4884 -4886 0
4623 -4884 4886 0
-4623 4884 4886 0
-4623 -4884 -4886 0
4618 4886 -4887 0
4618 -4886 -4887 0
-4618 4886 -4887 0
-4618 -4886 4887 0
4618 4886 -4888 0
4618 -4886 4888 0
-4618 4886 4888 0
-4618 -4886 -4888 0
4885 4887 -4889 0
4885 -4887 4889 0
-4885 4887 4889 0
-4885 -4887 -4889 0
6 66 -4890 0
6 -66 -4890 0
-6 66 -4890 0
-6 -66 4890 0
4629 4890 -4891 0
4629 -4890 -4891 0
-4629 4890 -4891 0
-4629 -4890 4891 0
4629 4890 -4892 0
4629 -4890 4892 0
-4629 4890 4892 0
-4629 -4890 -4892 0
4624 4892 -4893 0
4624 -4892 -4893 0
-4624 4892 -4893 0
-4624 -4892 4893 0
4624 4892 -4894 0
4624 -4892 4894 0
-4624 4892 4894 0
-4624 -4892 -4894 0
4891 4893 -4895 0
4891 -4893 4895 0
-4891 4893 4895 0
-4891 -4893 -4895 0
7 66 -4896 0
7 -66 -4896 0
-7 66 -4896 0
-7 -66 4896 0
4635 4896 -4897 0
4635 -4896 -4897 0
-4635 4896 -4897 0
-4635 -4896 4897 0
4635 4896 -4898 0
4635 -4896 4898 0
-4635 4896 4898 0
-4635 -4896 -4898 0
4630 4898 -4899 0
4630 -4898 -4899 0
-4630 4898 -4899 0
-4630 -4898 4899 0
4630 4898 -4900 0
4630 -4898 4900 0
-4630 4898 4900 0
-4630 -4898 -4900 0
4897 4899 -4901 0
4897 -4899 4901 0
-4897 4899 4901 0
-4897 -4899 -4901 0
8 66 -4902 0
8 -66 -4902 0
-8 66 -4902 0
-8 -66 4902 0
4641 4902 -4903 0
4641 -4902 -4903 0
-4641 4902 -4903 0
-4641 -4902 4903 0
4641 4902 -4904 0
4641 -4902 4904 0
-4641 4902 4904 0
-4641 -4902 -4904 0
4636 4904 -4905 0
4636 -4904 -4905 0
-4636 4904 -4905 0
-4636 -4904 4905 0
4636 4904 -4906 0
4636 -4904 4906 0
-4636 4904 4906 0
-4636 -4904 -4906 0
4903 4905 -4907 0
4903 -4905 4907 0
-4903 4905 4907 0
-4903 -4905 -4907 0
9 66 -4908 0
9 -66 -4908 0
-9 66 -4908 0
-9 -66 4908 0
4647 4908 -4909 0
4647 -4908 -4909 0
-4647 4908 -4909 0
-4647 -4908 4909 0
4647 4908 -4910 0
4647 -4908 4910 0
-4647 4908 4910 0
-4647 -4908 -4910 0
4642 4910 -4911 0
4642 -4910 -4911 0
-4642 4910 -4911 0
-4642 -4910 4911 0
4642 4910 -4912 0
4642 -4910 4912 0
-4642 4910 4912 0
-4642 -4910 -4912 0
4909 4911 -4913 0
4909 -4911 4913 0
-4909 4911 4913 0
-4909 -4911 -4913 0
10 66 -4914 0
10 -66 -4914 0
-10 66 -4914 0
-10 -66 4914 0
4653 4914 -4915 0
4653 -4914 -4915 0
-4653 4914 -4915 0
-4653 -4914 4915 0
4653 4914 -4916 0
4653 -4914 4916 0
-4653 4914 4916 0
-4653 -4914 -4916 0
4648 4916 -4917 0
4648 -4916 -4917 0
-4648 4916 -4917 0
-4648 -4916 4917 0
4648 4916 -4918 0
4648 -4916 4918 0
-4648 4916 4918 0
-4648 -4916 -4918 0
4915 4917 -4919 0
4915 -4917 4919 0
-4915 4917 4919 0
-4915 -4917 -4919 0
11 66 -4920 0
11 -66 -4920 0
-11 66 -4920 0
-11 -66 4920 0
4659 4920 -4921 0
4659 -4920 -4921 0
-4659 4920 -4921 0
-4659 -4920 4921 0
4659 4920 -4922 0
4659 -4920 4922 0
-4659 4920 4922 0
-4659 -4920 -4922 0
4654 4922 -4923 0
4654 -4922 -4923 0
-4654 4922 -4923 0
-4654 -4922 4923 0
4654 4922 -4924 0
4654 -4922 4924 0
-4654 4922 4924 0
-4654 -4922 -4924 0
4921 4923 -4925 0
4921 -4923 4925 0
-4921 4923 4925 0
-4921 -4923 -4925 0
12 66 -4926 0
12 -66 -4926 0
-12 66 -4926 0
-12 -66 4926 0
4665 4926 -4927 0
4665 -4926 -4927 0
-4665 4926 -4927 0
-4665 -4926 4927 0
4665 4926 -4928 0
4665 -4926 4928 0
-4665 4926 4928 0
-4665 -4926 -4928 0
4660 4928 -4929 0
4660 -4928 -4929 0
-4660 4928 -4929 0
-4660 -4928 4929 0
4660 4928 -4930 0
4660 -4928 4930 0
-4660 4928 4930 0
-4660 -4928 -4930 0
4927 4929 -4931 0
4927 -4929 4931 0
-4927 4929 4931 0
-4927 -4929 -4931 0
13 66 -4932 0
13 -66 -4932 0
-13 66 -4932 0
-13 -66 4932 0
4671 4932 -4933 0
4671 -4932 -4933 0
-4671 4932 -4933 0
-4671 -4932 4933 0
4671 4932 -4934 0
4671 -4932 4934 0
-4671 4932 4934 0
-4671 -4932 -4934 0
4666 4934 -4935 0
4666 -4934 -4935 0
-4666 4934 -4935 0
-4666 -4934 4935 0
4666 4934 -4936 0
4666 -4934 4936 0
-4666 4934 4936 0
-4666 -4934 -4936 0
4933 4935 -4937 0
4933 -4935 4937 0
-4933 4935 4937 0
-4933 -4935 -4937 0
14 66 -4938 0
14 -66 -4938 0
-14 66 -4938 0
-14 -66 4938 0
4677 4938 -4939 0
4677 -4938 -4939 0
-4677 4938 -4939 0
-4677 -4938 4939 0
4677 4938 -4940 0
4677 -4938 4940 0
-4677 4938 4940 0
-4677 -4938 -4940 0
4672 4940 -4941 0
4672 -4940 -4941 0
-4672 4940 -4941 0
-4672 -4940 4941 0
4672 4940 -4942 0
4672 -4940 4942 0
-4672 4940 4942 0
-4672 -4940 -4942 0
4939 4941 -4943 0
4939 -4941 4943 0
-4939 4941 4943 0
-4939 -4941 -4943 0
15 66 -4944 0
15 -66 -4944 0
-15 66 -4944 0
-15 -66 4944 0
4683 4944 -4945 0
4683 -4944 -4945 0
-4683 4944 -4945 0
-4683 -4944 4945 0
4683 4944 -4946 0
4683 -4944 4946 0
-4683 4944 4946 0
-4683 -4944 -4946 0
4678 4946 -4947 0
4678 -4946 -4947 0
-4678 4946 -4947 0
-4678 -4946 4947 0
4678 4946 -4948 0
4678 -4946 4948 0
-4678 4946 4948 0
-4678 -4946 -4948 0
4945 4947 -4949 0
4945 -4947 4949 0
-4945 4947 4949 0
-4945 -4947 -4949 0
16 66 -4950 0
16 -66 -4950 0
-16 66 -4950 0
-16 -66 4950 0
4689 4950 -4951 0
4689 -4950 -4951 0
-4689 4950 -4951 0
-4689 -4950 4951 0
4689 4950 -4952 0
4689 -4950 4952 0
-4689 4950 4952 0
-4689 -4950 -4952 0
4684 4952 -4953 0
4684 -4952 -4953 0
-4684 4952 -4953 0
-4684 -4952 4953 0
4684 4952 -4954 0
4684 -4952 4954 0
-4684 4952 4954 0
-4684 -4952 -4954 0
4951 4953 -4955 0
4951 -4953 4955 0
-4951 4953 4955 0
-4951 -4953 -4955 0
17 66 -4956 0
17 -66 -4956 0
-17 66 -4956 0
-17 -66 4956 0
4695 4956 -4957 0
4695 -4956 -4957 0
-4695 4956 -4957 0
-4695 -4956 4957 0
4695 4956 -4958 0
4695 -4956 4958 0
-4695 4956 4958 0
-4695 -4956 -4958 0
4690 4958 -4959 0
4690 -4958 -4959 0
-4690 4958 -4959 0
-4690 -4958 4959 0
4690 4958 -4960 0
4690 -4958 4960 0
-4690 4958 4960 0
-4690 -4958 -4960 0
4957 4959 -4961 0
4957 -4959 4961 0
-4957 4959 4961 0
-4957 -4959 -4961 0
18 66 -4962 0
18 -66 -4962 0
-18 66 -4962 0
-18 -66 4962 0
4701 4962 -4963 0
4701 -4962 -4963 0
-4701 4962 -4963 0
-4701 -4962 4963 0
4701 4962 -4964 0
4701 -4962 4964 0
-4701 4962 4964 0
-4701 -4962 -4964 0
4696 4964 -4965 0
4696 -4964 -4965 0
-4696 4964 -4965 0
-4696 -4964 4965 0
4696 4964 -4966 0
4696 -4964 4966 0
-4696 4964 4966 0
-4696 -4964 -4966 0
4963 4965 -4967 0
4963 -4965 4967 0
-4963 4965 4967 0
-4963 -4965 -4967 0
19 66 -4968 0
19 -66 -4968 0
-19 66 -4968 0
-19 -66 4968 0
4707 4968 -4969 0
4707 -4968 -4969 0
-4707 4968 -4969 0
-4707 -4968 4969 0
4707 4968 -4970 0
4707 -4968 4970 0
-4707 4968 4970 0
-4707 -4968 -4970 0
4702 4970 -4971 0
4702 -4970 -4971 0
-4702 4970 -4971 0
-4702 -4970 4971 0
4702 4970 -4972 0
4702 -4970 4972 0
-4702 4970 4972 0
-4702 -4970 -4972 0
4969 4971 -4973 0
4969 -4971 4973 0
-4969 4971 4973 0
-4969 -4971 -4973 0
20 66 -4974 0
20 -66 -4974 0
-20 66 -4974 0
-20 -66 4974 0
4713 4974 -4975 0
4713 -4974 -4975 0
-4713 4974 -4975 0
-4713 -4974 4975 0
4713 4974 -4976 0
4713 -4974 4976 0
-4713 4974 4976 0
-4713 -4974 -4976 0
4708 4976 -4977 0
4708 -4976 -4977 0
-4708 4976 -4977 0
-4708 -4976 4977 0
4708 4976 -4978 0
4708 -4976 4978 0
-4708 4976 4978 0
-4708 -4976 -4978 0
4975 4977 -4979 0
4975 -4977 4979 0
-4975 4977 4979 0
-4975 -4977 -4979 0
21 66 -4980 0
21 -66 -4980 0
-21 66 -4980 0
-21 -66 4980 0
4719 4980 -4981 0
4719 -4980 -4981 0
-4719 4980 -4981 0
-4719 -4980 4981 0
4719 4980 -4982 0
4719 -4980 4982 0
-4719 4980 4982 0
-4719 -4980 -4982 0
4714 4982 -4983 0
4714 -4982 -4983 0
-4714 4982 -4983 0
-4714 -4982 4983 0
4714 4982 -4984 0
4714 -4982 4984 0
-4714 4982 4984 0
-4714 -4982 -4984 0
4981 4983 -4985 0
4981 -4983 4985 0
-4981 4983 4985 0
-4981 -4983 -4985 0
22 66 -4986 0
22 -66 -4986 0
-22 66 -4986 0
-22 -66 4986 0
4725 4986 -4987 0
4725 -4986 -4987 0
-4725 4986 -4987 0
-4725 -4986 4987 0
4725 4986 -4988 0
4725 -4986 4988 0
-4725 4986 4988 0
-4725 -4986 -4988 0
4720 4988 -4989 0
4720 -4988 -4989 0
-4720 4988 -4989 0
-4720 -4988 4989 0
4720 4988 -4990 0
4720 -4988 4990 0
-4720 4988 4990 0
-4720 -4988 -4990 0
4987 4989 -4991 0
4987 -4989 4991 0
-4987 4989 4991 0
-4987 -4989 -4991 0
23 66 -4992 0
23 -66 -4992 0
-23 66 -4992 0
-23 -66 4992 0
4731 4992 -4993 0
4731 -4992 -4993 0
-4731 4992 -4993 0
-4731 -4992 4993 0
4731 4992 -4994 0
4731 -4992 4994 0
-4731 4992 4994 0
-4731 -4992 -4994 0
4726 4994 -4995 0
4726 -4994 -4995 0
-4726 4994 -4995 0
-4726 -4994 4995 0
4726 4994 -4996 0
4726 -4994 4996 0
-4726 4994 4996 0
-4726 -4994 -4996 0
4993 4995 -4997 0
4993 -4995 4997 0
-4993 4995 4997 0
-4993 -4995 -4997 0
24 66 -4998 0
24 -66 -4998 0
-24 66 -4998 0
-24 -66 4998 0
4737 4998 -4999 0
4737 -4998 -4999 0
-4737 4998 -4999 0
-4737 -4998 4999 0
4737 4998 -5000 0
4737 -4998 5000 0
-4737 4998 5000 0
-4737 -4998 -5000 0
4732 5000 -5001 0
4732 -5000 -5001 0
-4732 5000 -5001 0
-4732 -5000 5001 0
4732 5000 -5002 0
4732 -5000 5002 0
-4732 5000 5002 0
-4732 -5000 -5002 0
4999 5001 -5003 0
4999 -5001 5003 0
-4999 5001 5003 0
-4999 -5001 -5003 0
25 66 -5004 0
25 -66 -5004 0
-25 66 -5004 0
-25 -66 5004 0
4743 5004 -5005 0
4743 -5004 -5005 0
-4743 5004 -5005 0
-4743 -5004 5005 0
4743 5004 -5006 0
4743 -5004 5006 0
-4743 5004 5006 0
-4743 -5004 -5006 0
4738 5006 -5007 0
4738 -5006 -5007 0
-4738 5006 -5007 0
-4738 -5006 5007 0
4738 5006 -5008 0
4738 -5006 5008 0
-4738 5006 5008 0
-4738 -5006 -5008 0
5005 5007 -5009 0
5005 -5007 5009 0
-5005 5007 5009 0
-5005 -5007 -5009 0
26 66 -5010 0
26 -66 -5010 0
-26 66 -5010 0
-26 -66 5010 0
4749 5010 -5011 0
4749 -5010 -5011 0
-4749 5010 -5011 0
-4749 -5010 5011 0
4749 5010 -5012 0
4749 -5010 5012 0
-4749 5010 5012 0
-4749 -5010 -5012 0
4744 5012 -5013 0
4744 -5012 -5013 0
-4744 5012 -5013 0
-4744 -5012 5013 0
4744 5012 -5014 0
4744 -5012 5014 0
-4744 5012 5014 0
-4744 -5012 -5014 0
5011 5013 -5015 0
5011 -5013 5015 0
-5011 5013 5015 0
-5011 -5013 -5015 0
27 66 -5016 0
27 -66 -5016 0
-27 66 -5016 0
-27 -66 5016 0
4755 5016 -5017 0
4755 -5016 -5017 0
-4755 5016 -5017 0
-4755 -5016 5017 0
4755 5016 -5018 0
4755 -5016 5018 0
-4755 5016 5018 0
-4755 -5016 -5018 0
4750 5018 -5019 0
4750 -5018 -5019 0
-4750 5018 -5019 0
-4750 -5018 5019 0
4750 5018 -5020 0
4750 -5018 5020 0
-4750 5018 5020 0
-4750 -5018 -5020 0
5017 5019 -5021 0
5017 -5019 5021 0
-5017 5019 5021 0
-5017 -5019 -5021 0
28 66 -5022 0
28 -66 -5022 0
-28 66 -5022 0
-28 -66 5022 0
4761 5022 -5023 0
4761 -5022 -5023 0
-4761 5022 -5023 0
-4761 -5022 5023 0
4761 5022 -5024 0
4761 -5022 5024 0
-4761 5022 5024 0
-4761 -5022 -5024 0
4756 5024 -5025 0
4756 -5024 -5025 0
-4756 5024 -5025 0
-4756 -5024 5025 0
4756 5024 -5026 0
4756 -5024 5026 0
-4756 5024 5026 0
-4756 -5024 -5026 0
5023 5025 -5027 0
5023 -5025 5027 0
-5023 5025 5027 0
-5023 -5025 -5027 0
29 66 -5028 0
29 -66 -5028 0
-29 66 -5028 0
-29 -66 5028 0
4767 5028 -5029 0
4767 -5028 -5029 0
-4767 5028 -5029 0
-4767 -5028 5029 0
4767 5028 -5030 0
4767 -5028 5030 0
-4767 5028 5030 0
-4767 -5028 -5030 0
4762 5030 -5031 0
4762 -5030 -5031 0
-4762 5030 -5031 0
-4762 -5030 5031 0
4762 5030 -5032 0
4762 -5030 5032 0
-4762 5030 5032 0
-4762 -5030 -5032 0
5029 5031 -5033 0
5029 -5031 5033 0
-5029 5031 5033 0
-5029 -5031 -5033 0
30 66 -5034 0
30 -66 -5034 0
-30 66 -5034 0
-30 -66 5034 0
4773 5034 -5035 0
4773 -5034 -5035 0
-4773 5034 -5035 0
-4773 -5034 5035 0
4773 5034 -5036 0
4773 -5034 5036 0
-4773 5034 5036 0
-4773 -5034 -5036 0
4768 5036 -5037 0
4768 -5036 -5037 0
-4768 5036 -5037 0
-4768 -5036 5037 0
4768 5036 -5038 0
4768 -5036 5038 0
-4768 5036 5038 0
-4768 -5036 -5038 0
5035 5037 -5039 0
5035 -5037 5039 0
-5035 5037 5039 0
-5035 -5037 -5039 0
31 66 -5040 0
31 -66 -5040 0
-31 66 -5040 0
-31 -66 5040 0
4779 5040 -5041 0
4779 -5040 -5041 0
-4779 5040 -5041 0
-4779 -5040 5041 0
4779 5040 -5042 0
4779 -5040 5042 0
-4779 5040 5042 0
-4779 -5040 -5042 0
4774 5042 -5043 0
4774 -5042 -5043 0
-4774 5042 -5043 0
-4774 -5042 5043 0
4774 5042 -5044 0
4774 -5042 5044 0
-4774 5042 5044 0
-4774 -5042 -5044 0
5041 5043 -5045 0
5041 -5043 5045 0
-5041 5043 5045 0
-5041 -5043 -5045 0
32 66 -5046 0
32 -66 -5046 0
-32 66 -5046 0
-32 -66 5046 0
4785 5046 -5047 0
4785 -5046 -5047 0
-4785 5046 -5047 0
-4785 -5046 5047 0
4785 5046 -5048 0
4785 -5046 5048 0
-4785 5046 5048 0
-4785 -5046 -5048 0
4780 5048 -5049 0
4780 -5048 -5049 0
-4780 5048 -5049 0
-4780 -5048 5049 0
4780 5048 -5050 0
4780 -5048 5050 0
-4780 5048 5050 0
-4780 -5048 -5050 0
5047 5049 -5051 0
5047 -5049 5051 0
-5047 5049 5051 0
-5047 -5049 -5051 0
33 66 -5052 0
33 -66 -5052 0
-33 66 -5052 0
-33 -66 5052 0
4791 5052 -5053 0
4791 -5052 -5053 0
-4791 5052 -5053 0
-4791 -5052 5053 0
4791 5052 -5054 0
4791 -5052 5054 0
-4791 5052 5054 0
-4791 -5052 -5054 0
4786 5054 -5055 0
4786 -5054 -5055 0
-4786 5054 -5055 0
-4786 -5054 5055 0
4786 5054 -5056 0
4786 -5054 5056 0
-4786 5054 5056 0
-4786 -5054 -5056 0
5053 5055 -5057 0
5053 -5055 5057 0
-5053 5055 5057 0
-5053 -5055 -5057 0
34 66 -5058 0
34 -66 -5058 0
-34 66 -5058 0
-34 -66 5058 0
4797 5058 -5059 0
4797 -5058 -5059 0
-4797 5058 -5059 0
-4797 -5058 5059 0
4797 5058 -5060 0
4797 -5058 5060 0
-4797 5058 5060 0
-4797 -5058 -5060 0
4792 5060 -5061 0
4792 -5060 -5061 0
-4792 5060 -5061 0
-4792 -5060 5061 0
4792 5060 -5062 0
4792 -5060 5062 0
-4792 5060 5062 0
-4792 -5060 -5062 0
5059 5061 -5063 0
5059 -5061 5063 0
-5059 5061 5063 0
-5059 -5061 -5063 0
35 66 -5064 0
35 -66 -5064 0
-35 66 -5064 0
-35 -66 5064 0
4803 5064 -5065 0
4803 -5064 -5065 0
-4803 5064 -5065 0
-4803 -5064 5065 0
4803 5064 -5066 0
4803 -5064 5066 0
-4803 5064 5066 0
-4803 -5064 -5066 0
4798 5066 -5067 0
4798 -5066 -5067 0
-4798 5066 -5067 0
-4798 -5066 5067 0
4798 5066 -5068 0
4798 -5066 5068 0
-4798 5066 5068 0
-4798 -5066 -5068 0
5065 5067 -5069 0
5065 -5067 5069 0
-5065 5067 5069 0
-5065 -5067 -5069 0
36 66 -5070 0
36 -66 -5070 0
-36 66 -5070 0
-36 -66 5070 0
4809 5070 -5071 0
4809 -5070 -5071 0
-4809 5070 -5071 0
-4809 -5070 5071 0
4809 5070 -5072 0
4809 -5070 5072 0
-4809 5070 5072 0
-4809 -5070 -5072 0
4804 5072 -5073 0
4804 -5072 -5073 0
-4804 5072 -5073 0
-4804 -5072 5073 0
4804 5072 -5074 0
4804 -5072 5074 0
-4804 5072 5074 0
-4804 -5072 -5074 0
5071 5073 -5075 0
5071 -5073 5075 0
-5071 5073 5075 0
-5071 -5073 -5075 0
37 66 -5076 0
37 -66 -5076 0
-37 66 -5076 0
-37 -66 5076 0
4815 5076 -5077 0
4815 -5076 -5077 0
-4815 5076 -5077 0
-4815 -5076 5077 0
4815 5076 -5078 0
4815 -5076 5078 0
-4815 5076 5078 0
-4815 -5076 -5078 0
4810 5078 -5079 0
4810 -5078 -5079 0
-4810 5078 -5079 0
-4810 -5078 5079 0
4810 5078 -5080 0
4810 -5078 5080 0
-4810 5078 5080 0
-4810 -5078 -5080 0
5077 5079 -5081 0
5077 -5079 5081 0
-5077 5079 5081 0
-5077 -5079 -5081 0
38 66 -5082 0
38 -66 -5082 0
-38 66 -5082 0
-38 -66 5082 0
4821 5082 -5083 0
4821 -5082 -5083 0
-4821 5082 -5083 0
-4821 -5082 5083 0
4821 5082 -5084 0
4821 -5082 5084 0
-4821 5082 5084 0
-4821 -5082 -5084 0
4816 5084 -5085 0
4816 -5084 -5085 0
-4816 5084 -5085 0
-4816 -5084 5085 0
4816 5084 -5086 0
4816 -5084 5086 0
-4816 5084 5086 0
-4816 -5084 -5086 0
5083 5085 -5087 0
5083 -5085 5087 0
-5083 5085 5087 0
-5083 -5085 -5087 0
39 66 -5088 0
39 -66 -5088 0
-39 66 -5088 0
-39 -66 5088 0
4827 5088 -5089 0
4827 -5088 -5089 0
-4827 5088 -5089 0
-4827 -5088 5089 0
4827 5088 -5090 0
4827 -5088 5090 0
-4827 5088 5090 0
-4827 -5088 -5090 0
4822 5090 -5091 0
4822 -5090 -5091 0
-4822 5090 -5091 0
-4822 -5090 5091 0
4822 5090 -5092 0
4822 -5090 5092 0
-4822 5090 5092 0
-4822 -5090 -5092 0
5089 5091 -5093 0
5089 -5091 5093 0
-5089 5091 5093 0
-5089 -5091 -5093 0
40 66 -5094 0
40 -66 -5094 0
-40 66 -5094 0
-40 -66 5094 0
4833 5094 -5095 0
4833 -5094 -5095 0
-4833 5094 -5095 0
-4833 -5094 5095 0
4833 5094 -5096 0
4833 -5094 5096 0
-4833 5094 5096 0
-4833 -5094 -5096 0
4828 5096 -5097 0
4828 -5096 -5097 0
-4828 5096 -5097 0
-4828 -5096 5097 0
4828 5096 -5098 0
4828 -5096 5098 0
-4828 5096 5098 0
-4828 -5096 -5098 0
5095 5097 -5099 0
5095 -5097 5099 0
-5095 5097 5099 0
-5095 -5097 -5099 0
41 66 -5100 0
41 -66 -5100 0
-41 66 -5100 0
-41 -66 5100 0
4839 5100 -5101 0
4839 -5100 -5101 0
-4839 5100 -5101 0
-4839 -5100 5101 0
4839 5100 -5102 0
4839 -5100 5102 0
-4839 5100 5102 0
-4839 -5100 -5102 0
4834 5102 -5103 0
4834 -5102 -5103 0
-4834 5102 -5103 0
-4834 -5102 5103 0
4834 5102 -5104 0
4834 -5102 5104 0
-4834 5102 5104 0
-4834 -5102 -5104 0
5101 5103 -5105 0
5101 -5103 5105 0
-5101 5103 5105 0
-5101 -5103 -5105 0
42 66 -5106 0
42 -66 -5106 0
-42 66 -5106 0
-42 -66 5106 0
4845 5106 -5107 0
4845 -5106 -5107 0
-4845 5106 -5107 0
-4845 -5106 5107 0
4845 5106 -5108 0
4845 -5106 5108 0
-4845 5106 5108 0
-4845 -5106 -5108 0
4840 5108 -5109 0
4840 -5108 -5109 0
-4840 5108 -5109 0
-4840 -5108 5109 0
4840 5108 -5110 0
4840 -5108 5110 0
-4840 5108 5110 0
-4840 -5108 -5110 0
5107 5109 -5111 0
5107 -5109 5111 0
-5107 5109 5111 0
-5107 -5109 -5111 0
43 66 -5112 0
43 -66 -5112 0
-43 66 -5112 0
-43 -66 5112 0
4851 5112 -5113 0
4851 -5112 -5113 0
-4851 5112 -5113 0
-4851 -5112 5113 0
4851 5112 -5114 0
4851 -5112 5114 0
-4851 5112 5114 0
-4851 -5112 -5114 0
4846 5114 -5115 0
4846 -5114 -5115 0
-4846 5114 -5115 0
-4846 -5114 5115 0
4846 5114 -5116 0
4846 -5114 5116 0
-4846 5114 5116 0
-4846 -5114 -5116 0
5113 5115 -5117 0
5113 -5115 5117 0
-5113 5115 5117 0
-5113 -5115 -5117 0
44 66 -5118 0
44 -66 -5118 0
-44 66 -5118 0
-44 -66 5118 0
4857 5118 -5119 0
4857 -5118 -5119 0
-4857 5118 -5119 0
-4857 -5118 5119 0
4857 5118 -5120 0
4857 -5118 5120 0
-4857 5118 5120 0
-4857 -5118 -5120 0
4852 5120 -5121 0
4852 -5120 -5121 0
-4852 5120 -5121 0
-4852 -5120 5121 0
4852 5120 -5122 0
4852 -5120 5122 0
-4852 5120 5122 0
-4852 -5120 -5122 0
5119 5121 -5123 0
5119 -5121 5123 0
-5119 5121 5123 0
-5119 -5121 -5123 0
45 66 -5124 0
45 -66 -5124 0
-45 66 -5124 0
-45 -66 5124 0
4859 5124 -5125 0
4859 -5124 -5125 0
-4859 5124 -5125 0
-4859 -5124 5125 0
4859 5124 -5126 0
4859 -5124 5126 0
-4859 5124 5126 0
-4859 -5124 -5126 0
4858 5126 -5127 0
4858 -5126 -5127 0
-4858 5126 -5127 0
-4858 -5126 5127 0
4858 5126 -5128 0
4858 -5126 5128 0
-4858 5126 5128 0
-4858 -5126 -5128 0
5125 5127 -5129 0
5125 -5127 5129 0
-5125 5127 5129 0
-5125 -5127 -5129 0
46 66 -5130 0
46 -66 -5130 0
-46 66 -5130 0
-46 -66 5130 0
1 67 -5131 0
1 -67 -5131 0
-1 67 -5131 0
-1 -67 5131 0
4870 5131 -5132 0
4870 -5131 -5132 0
-4870 5131 -5132 0
-4870 -5131 5132 0
4870 5131 -5133 0
4870 -5131 5133 0
-4870 5131 5133 0
-4870 -5131 -5133 0
4865 5133 -5134 0
4865 -5133 -5134 0
-4865 5133 -5134 0
-4865 -5133 5134 0
4865 5133 -5135 0
4865 -5133 5135 0
-4865 5133 5135 0
-4865 -5133 -5135 0
5132 5134 -5136 0
5132 -5134 5136 0
-5132 5134 5136 0
-5132 -5134 -5136 0
2 67 -5137 0
2 -67 -5137 0
-2 67 -5137 0
-2 -67 5137 0
4876 5137 -5138 0
4876 -5137 -5138 0
-4876 5137 -5138 0
-4876 -5137 5138 0
4876 5137 -5139 0
4876 -5137 5139 0
-4876 5137 5139 0
-4876 -5137 -5139 0
4871 5139 -5140 0
4871 -5139 -5140 0
-4871 5139 -5140 0
-4871 -5139 5140 0
4871 5139 -5141 0
4871 -5139 5141 0
-4871 5139 5141 0
-4871 -5139 -5141 0
5138 5140 -5142 0
5138 -5140 5142 0
-5138 5140 5142 0
-5138 -5140 -5142 0
3 67 -5143 0
3 -67 -5143 0
-3 67 -5143 0
-3 -67 5143 0
4882 5143 -5144 0
4882 -5143 -5144 0
-4882 5143 -5144 0
-4882 -5143 5144 0
4882 5143 -5145 0
4882 -5143 5145 0
-4882 5143 5145 0
-4882 -5143 -5145 0
4877 5145 -5146 0
4877 -5145 -5146 0
-4877 5145 -5146 0
-4877 -5145 5146 0
4877 5145 -5147 0
4877 -5145 5147 0
-4877 5145 5147 0
-4877 -5145 -5147 0
5144 5146 -5148 0
5144 -5146 5148 0
-5144 5146 5148 0
-5144 -5146 -5148 0
4 67 -5149 0
4 -67 -5149 0
-4 67 -5149 0
-4 -67 5149 0
4888 5149 -5150 0
4888 -5149 -5150 0
-4888 5149 -5150 0
-4888 -5149 5150 0
4888 5149 -5151 0
4888 -5149 5151 0
-4888 5149 5151 0
-4888 -5149 -5151 0
4883 5151 -5152 0
4883 -5151 -5152 0
-4883 5151 -5152 0
-4883 -5151 5152 0
4883 5151 -5153 0
4883 -5151 5153 0
-4883 5151 5153 0
-4883 -5151 -5153 0
5150 5152 -5154 0
5150 -5152 5154 0
-5150 5152 5154 0
-5150 -5152 -5154 0
5 67 -5155 0
5 -67 -5155 0
-5 67 -5155 0
-5 -67 5155 0
4894 5155 -5156 0
4894 -5155 -5156 0
-4894 5155 -5156 0
-4894 -5155 5156 0
4894 5155 -5157 0
4894 -5155 5157 0
-4894 5155 5157 0
-4894 -5155 -5157 0
4889 5157 -5158 0
4889 -5157 -5158 0
-4889 5157 -5158 0
-4889 -5157 5158 0
4889 5157 -5159 0
4889 -5157 5159 0
-4889 5157 5159 0
-4889 -5157 -5159 0
5156 5158 -5160 0
5156 -5158 5160 0
-5156 5158 5160 0
-5156 -5158 -5160 0
6 67 -5161 0
6 -67 -5161 0
-6 67 -5161 0
-6 -67 5161 0
4900 5161 -5162 0
4900 -5161 -5162 0
-4900 5161 -5162 0
-4900 -5161 5162 0
4900 5161 -5163 0
4900 -5161 5163 0
-4900 5161 5163 0
-4900 -5161 -5163 0
4895 5163 -5164 0
4895 -5163 -5164 0
-4895 5163 -5164 0
-4895 -5163 5164 0
4895 5163 -5165 0
4895 -5163 5165 0
-4895 5163 5165 0
-4895 -5163 -5165 0
5162 5164 -5166 0
5162 -5164 5166 0
-5162 5164 5166 0
-5162 -5164 -5166 0
7 67 -5167 0
7 -67 -5167 0
-7 67 -5167 0
-7 -67 5167 0
4906 5167 -5168 0
4906 -5167 -5168 0
-4906 5167 -5168 0
-4906 -5167 5168 0
4906 5167 -5169 0
4906 -5167 5169 0
-4906 5167 5169 0
-4906 -5167 -5169 0
4901 5169 -5170 0
4901 -5169 -5170 0
-4901 5169 -5170 0
-4901 -5169 5170 0
4901 5169 -5171 0
4901 -5169 5171 0
-4901 5169 5171 0
-4901 -5169 -5171 0
5168 5170 -5172 0
5168 -5170 5172 0
-5168 5170 5172 0
-5168 -5170 -5172 0
8 67 -5173 0
8 -67 -5173 0
-8 67 -5173 0
-8 -67 5173 0
4912 5173 -5174 0
4912 -5173 -5174 0
-4912 5173 -5174 0
-4912 -5173 5174 0
4912 5173 -5175 0
4912 -5173 5175 0
-4912 5173 5175 0
-4912 -5173 -5175 0
4907 5175 -5176 0
4907 -5175 -5176 0
-4907 5175 -5176 0
-4907 -5175 5176 0
4907 5175 -5177 0
4907 -5175 5177 0
-4907 5175 5177 0
-4907 -5175 -5177 0
5174 5176 -5178 0
5174 -5176 5178 0
-5174 5176 5178 0
-5174 -5176 -5178 0
9 67 -5179 0
9 -67 -5179 0
-9 67 -5179 0
-9 -67 5179 0
4918 5179 -5180 0
4918 -5179 -5180 0
-4918 5179 -5180 0
-4918 -5179 5180 0
4918 5179 -5181 0
4918 -5179 5181 0
-4918 5179 5181 0
-4918 -5179 -5181 0
4913 5181 -5182 0
4913 -5181 -5182 0
-4913 5181 -5182 0
-4913 -5181 5182 0
4913 5181 -5183 0
4913 -5181 5183 0
-4913 5181 5183 0
-4913 -5181 -5183 0
5180 5182 -5184 0
5180 -5182 5184 0
-5180 5182 5184 0
-5180 -5182 -5184 0
10 67 -5185 0
10 -67 -5185 0
-10 67 -5185 0
-10 -67 5185 0
4924 5185 -5186 0
4924 -5185 -5186 0
-4924 5185 -5186 0
-4924 -5185 5186 0
4924 5185 -5187 0
4924 -5185 5187 0
-4924 5185 5187 0
-4924 -5185 -5187 0
4919 5187 -5188 0
4919 -5187 -5188 0
-4919 5187 -5188 0
-4919 -5187 5188 0
4919 5187 -5189 0
4919 -5187 5189 0
-4919 5187 5189 0
-4919 -5187 -5189 0
5186 5188 -5190 0
5186 -5188 5190 0
-5186 5188 5190 0
-5186 -5188 -5190 0
11 67 -5191 0
11 -67 -5191 0
-11 67 -5191 0
-11 -67 5191 0
4930 5191 -5192 0
4930 -5191 -5192 0
-4930 5191 -5192 0
-4930 -5191 5192 0
4930 5191 -5193 0
4930 -5191 5193 0
-4930 5191 5193 0
-4930 -5191 -5193 0
4925 5193 -5194 0
4925 -5193 -5194 0
-4925 5193 -5194 0
-4925 -5193 5194 0
4925 5193 -5195 0
4925 -5193 5195 0
-4925 5193 5195 0
-4925 -5193 -5195 0
5192 5194 -5196 0
5192 -5194 5196 0
-5192 5194 5196 0
-5192 -5194 -5196 0
12 67 -5197 0
12 -67 -5197 0
-12 67 -5197 0
-12 -67 5197 0
4936 5197 -5198 0
4936 -5197 -5198 0
-4936 5197 -5198 0
-4936 -5197 5198 0
4936 5197 -5199 0
4936 -5197 5199 0
-4936 5197 5199 0
-4936 -5197 -5199 0
4931 5199 -5200 0
4931 -5199 -5200 0
-4931 5199 -5200 0
-4931 -5199 5200 0
4931 5199 -5201 0
4931 -5199 5201 0
-4931 5199 5201 0
-4931 -5199 -5201 0
5198 5200 -5202 0
5198 -5200 5202 0
-5198 5200 5202 0
-5198 -5200 -5202 0
13 67 -5203 0
13 -67 -5203 0
-13 67 -5203 0
-13 -67 5203 0
4942 5203 -5204 0
4942 -5203 -5204 0
-4942 5203 -5204 0
-4942 -5203 5204 0
4942 5203 -5205 0
4942 -5203 5205 0
-4942 5203 5205 0
-4942 -5203 -5205 0
4937 5205 -5206 0
4937 -5205 -5206 0
-4937 5205 -5206 0
-4937 -5205 5206 0
4937 5205 -5207 0
4937 -5205 5207 0
-4937 5205 5207 0
-4937 -5205 -5207 0
5204 5206 -5208 0
5204 -5206 5208 0
-5204 5206 5208 0
-5204 -5206 -5208 0
14 67 -5209 0
14 -67 -5209 0
-14 67 -5209 0
-14 -67 5209 0
4948 5209 -5210 0
4948 -5209 -5210 0
-4948 5209 -5210 0
-4948 -5209 5210 0
4948 5209 -5211 0
4948 -5209 5211 0
-4948 5209 5211 0
-4948 -5209 -5211 0
4943 5211 -5212 0
4943 -5211 -5212 0
-4943 5211 -5212 0
-4943 -5211 5212 0
4943 5211 -5213 0
4943 -5211 5213 0
-4943 5211 5213 0
-4943 -5211 -5213 0
5210 5212 -5214 0
5210 -5212 5214 0
-5210 5212 5214 0
-5210 -5212 -5214 0
15 67 -5215 0
15 -67 -5215 0
-15 67 -5215 0
-15 -67 5215 0
4954 5215 -5216 0
4954 -5215 -5216 0
-4954 5215 -5216 0
-4954 -5215 5216 0
4954 5215 -5217 0
4954 -5215 5217 0
-4954 5215 5217 0
-4954 -5215 -5217 0
4949 5217 -5218 0
4949 -5217 -5218 0
-4949 5217 -5218 0
-4949 -5217 5218 0
4949 5217 -5219 0
4949 -5217 5219 0
-4949 5217 5219 0
-4949 -5217 -5219 0
5216 5218 -5220 0
5216 -5218 5220 0
-5216 5218 5220 0
-5216 -5218 -5220 0
16 67 -5221 0
16 -67 -5221 0
-16 67 -5221 0
-16 -67 5221 0
4960 5221 -5222 0
4960 -5221 -5222 0
-4960 5221 -5222 0
-4960 -5221 5222 0
4960 5221 -5223 0
4960 -5221 5223 0
-4960 5221 5223 0
-4960 -5221 -5223 0
4955 5223 -5224 0
4955 -5223 -5224 0
-4955 5223 -5224 0
-4955 -5223 5224 0
4955 5223 -5225 0
4955 -5223 5225 0
-4955 5223 5225 0
-4955 -5223 -5225 0
5222 5224 -5226 0
5222 -5224 5226 0
-5222 5224 5226 0
-5222 -5224 -5226 0
17 67 -5227 0
17 -67 -5227 0
-17 67 -5227 0
-17 -67 5227 0
4966 5227 -5228 0
4966 -5227 -5228 0
-4966 5227 -5228 0
-4966 -5227 5228 0
4966 5227 -5229 0
4966 -5227 5229 0
-4966 5227 5229 0
-4966 -5227 -5229 0
4961 5229 -5230 0
4961 -5229 -5230 0
-4961 5229 -5230 0
-4961 -5229 5230 0
4961 5229 -5231 0
4961 -5229 5231 0
-4961 5229 5231 0
-4961 -5229 -5231 0
5228 5230 -5232 0
5228 -5230 5232 0
-5228 5230 5232 0
-5228 -5230 -5232 0
18 67 -5233 0
18 -67 -5233 0
-18 67 -5233 0
-18 -67 5233 0
4972 5233 -5234 0
4972 -5233 -5234 0
-4972 5233 -5234 0
-4972 -5233 5234 0
4972 5233 -5235 0
4972 -5233 5235 0
-4972 5233 5235 0
-4972 -5233 -5235 0
4967 5235 -5236 0
4967 -5235 -5236 0
-4967 5235 -5236 0
-4967 -5235 5236 0
4967 5235 -5237 0
4967 -5235 5237 0
-4967 5235 5237 0
-4967 -5235 -5237 0
5234 5236 -5238 0
5234 -5236 5238 0
-5234 5236 5238 0
-5234 -5236 -5238 0
19 67 -5239 0
19 -67 -5239 0
-19 67 -5239 0
-19 -67 5239 0
4978 5239 -5240 0
4978 -5239 -5240 0
-4978 5239 -5240 0
-4978 -5239 5240 0
4978 5239 -5241 0
4978 -5239 5241 0
-4978 5239 5241 0
-4978 -5239 -5241 0
4973 5241 -5242 0
4973 -5241 -5242 0
-4973 5241 -5242 0
-4973 -5241 5242 0
4973 5241 -5243 0
4973 -5241 5243 0
-4973 5241 5243 0
-4973 -5241 -5243 0
5240 5242 -5244 0
5240 -5242 5244 0
-5240 5242 5244 0
-5240 -5242 -5244 0
20 67 -5245 0
20 -67 -5245 0
-20 67 -5245 0
-20 -67 5245 0
4984 5245 -5246 0
4984 -5245 -5246 0
-4984 5245 -5246 0
-4984 -5245 5246 0
4984 5245 -5247 0
4984 -5245 5247 0
-4984 5245 5247 0
-4984 -5245 -5247 0
4979 5247 -5248 0
4979 -5247 -5248 0
-4979 5247 -5248 0
-4979 -5247 5248 0
4979 5247 -5249 0
4979 -5247 5249 0
-4979 5247 5249 0
-4979 -5247 -5249 0
5246 5248 -5250 0
5246 -5248 5250 0
-5246 5248 5250 0
-5246 -5248 -5250 0
21 67 -5251 0
21 -67 -5251 0
-21 67 -5251 0
-21 -67 5251 0
4990 5251 -5252 0
4990 -5251 -5252 0
-4990 5251 -5252 0
-4990 -5251 5252 0
4990 5251 -5253 0
4990 -5251 5253 0
-4990 5251 5253 0
-4990 -5251 -5253 0
4985 5253 -5254 0
4985 -5253 -5254 0
-4985 5253 -5254 0
-4985 -5253 5254 0
4985 5253 -5255 0
4985 -5253 5255 0
-4985 5253 5255 0
-4985 -5253 -5255 0
5252 5254 -5256 0
5252 -5254 5256 0
-5252 5254 5256 0
-5252 -5254 -5256 0
22 67 -5257 0
22 -67 -5257 0
-22 67 -5257 0
-22 -67 5257 0
4996 5257 -5258 0
4996 -5257 -5258 0
-4996 5257 -5258 0
-4996 -5257 5258 0
4996 5257 -5259 0
4996 -5257 5259 0
-4996 5257 5259 0
-4996 -5257 -5259 0
4991 5259 -5260 0
4991 -5259 -5260 0
-4991 5259 -5260 0
-4991 -5259 5260 0
4991 5259 -5261 0
4991 -5259 5261 0
-4991 5259 5261 0
-4991 -5259 -5261 0
5258 5260 -5262 0
5258 -5260 5262 0
-5258 5260 5262 0
-5258 -5260 -5262 0
23 67 -5263 0
23 -67 -5263 0
-23 67 -5263 0
-23 -67 5263 0
5002 5263 -5264 0
5002 -5263 -5264 0
-5002 5263 -5264 0
-5002 -5263 5264 0
5002 5263 -5265 0
5002 -5263 5265 0
-5002 5263 5265 0
-5002 -5263 -5265 0
4997 5265 -5266 0
4997 -5265 -5266 0
-4997 5265 -5266 0
-4997 -5265 5266 0
4997 5265 -5267 0
4997 -5265 5267 0
-4997 5265 5267 0
-4997 -5265 -5267 0
5264 5266 -5268 0
5264 -5266 5268 0
-5264 5266 5268 0
-5264 -5266 -5268 0
24 67 -5269 0
24 -67 -5269 0
-24 67 -5269 0
-24 -67 5269 0
5008 5269 -5270 0
5008 -5269 -5270 0
-5008 5269 -5270 0
-5008 -5269 5270 0
5008 5269 -5271 0
5008 -5269 5271 0
-5008 5269 5271 0
-5008 -5269 -5271 0
5003 5271 -5272 0
5003 -5271 -5272 0
-5003 5271 -5272 0
-5003 -5271 5272 0
5003 5271 -5273 0
5003 -5271 5273 0
-5003 5271 5273 0
-5003 -5271 -5273 0
5270 5272 -5274 0
5270 -5272 5274 0
-5270 5272 5274 0
-5270 -5272 -5274 0
25 67 -5275 0
25 -67 -5275 0
-25 67 -5275 0
-25 -67 5275 0
5014 5275 -5276 0
5014 -5275 -5276 0
-5014 5275 -5276 0
-5014 -5275 5276 0
5014 5275 -5277 0
5014 -5275 5277 0
-5014 5275 5277 0
-5014 -5275 -5277 0
5009 5277 -5278 0
5009 -5277 -5278 0
-5009 5277 -5278 0
-5009 -5277 5278 0
5009 5277 -5279 0
5009 -5277 5279 0
-5009 5277 5279 0
-5009 -5277 -5279 0
5276 5278 -5280 0
5276 -5278 5280 0
-5276 5278 5280 0
-5276 -5278 -5280 0
26 67 -5281 0
26 -67 -5281 0
-26 67 -5281 0
-26 -67 5281 0
5020 5281 -5282 0
5020 -5281 -5282 0
-5020 5281 -5282 0
-5020 -5281 5282 0
5020 5281 -5283 0
5020 -5281 5283 0
-5020 5281 5283 0
-5020 -5281 -5283 0
5015 5283 -5284 0
5015 -5283 -5284 0
-5015 5283 -5284 0
-5015 -5283 5284 0
5015 5283 -5285 0
5015 -5283 5285 0
-5015 5283 5285 0
-5015 -5283 -5285 0
5282 5284 -5286 0
5282 -5284 5286 0
-5282 5284 5286 0
-5282 -5284 -5286 0
27 67 -5287 0
27 -67 -5287 0
-27 67 -5287 0
-27 -67 5287 0
5026 5287 -5288 0
5026 -5287 -5288 0
-5026 5287 -5288 0
-5026 -5287 5288 0
5026 5287 -5289 0
5026 -5287 5289 0
-5026 5287 5289 0
-5026 -5287 -5289 0
5021 5289 -5290 0
5021 -5289 -5290 0
-5021 5289 -5290 0
-5021 -5289 5290 0
5021 5289 -5291 0
5021 -5289 5291 0
-5021 5289 5291 0
-5021 -5289 -5291 0
5288 5290 -5292 0
5288 -5290 5292 0
-5288 5290 5292 0
-5288 -5290 -5292 0
28 67 -5293 0
28 -67 -5293 0
-28 67 -5293 0
-28 -67 5293 0
5032 5293 -5294 0
5032 -5293 -5294 0
-5032 5293 -5294 0
-5032 -5293 5294 0
5032 5293 -5295 0
5032 -5293 5295 0
-5032 5293 5295 0
-5032 -5293 -5295 0
5027 5295 -5296 0
5027 -5295 -5296 0
-5027 5295 -5296 0
-5027 -5295 5296 0
5027 5295 -5297 0
5027 -5295 5297 0
-5027 5295 5297 0
-5027 -5295 -5297 0
5294 5296 -5298 0
5294 -5296 5298 0
-5294 5296 5298 0
-5294 -5296 -5298 0
29 67 -5299 0
29 -67 -5299 0
-29 67 -5299 0
-29 -67 5299 0
5038 5299 -5300 0
5038 -5299 -5300 0
-5038 5299 -5300 0
-5038 -5299 5300 0
5038 5299 -5301 0
5038 -5299 5301 0
-5038 5299 5301 0
-5038 -5299 -5301 0
5033 5301 -5302 0
5033 -5301 -5302 0
-5033 5301 -5302 0
-5033 -5301 5302 0
5033 5301 -5303 0
5033 -5301 5303 0
-5033 5301 5303 0
-5033 -5301 -5303 0
5300 5302 -5304 0
5300 -5302 5304 0
-5300 5302 5304 0
-5300 -5302 -5304 0
30 67 -5305 0
30 -67 -5305 0
-30 67 -5305 0
-30 -67 5305 0
5044 5305 -5306 0
5044 -5305 -5306 0
-5044 5305 -5306 0
-5044 -5305 5306 0
5044 5305 -5307 0
5044 -5305 5307 0
-5044 5305 5307 0
-5044 -5305 -5307 0
5039 5307 -5308 0
5039 -5307 -5308 0
-5039 5307 -5308 0
-5039 -5307 5308 0
5039 5307 -5309 0
5039 -5307 5309 0
-5039 5307 5309 0
-5039 -5307 -5309 0
5306 5308 -5310 0
5306 -5308 5310 0
-5306 5308 5310 0
-5306 -5308 -5310 0
31 67 -5311 0
31 -67 -5311 0
-31 67 -5311 0
-31 -67 5311 0
5050 5311 -5312 0
5050 -5311 -5312 0
-5050 5311 -5312 0
-5050 -5311 5312 0
5050 5311 -5313 0
5050 -5311 5313 0
-5050 5311 5313 0
-5050 -5311 -5313 0
5045 5313 -5314 0
5045 -5313 -5314 0
-5045 5313 -5314 0
-5045 -5313 5314 0
5045 5313 -5315 0
5045 -5313 5315 0
-5045 5313 5315 0
-5045 -5313 -5315 0
5312 5314 -5316 0
5312 -5314 5316 0
-5312 5314 5316 0
-5312 -5314 -5316 0
32 67 -5317 0
32 -67 -5317 0
-32 67 -5317 0
-32 -67 5317 0
5056 5317 -5318 0
5056 -5317 -5318 0
-5056 5317 -5318 0
-5056 -5317 5318 0
5056 5317 -5319 0
5056 -5317 5319 0
-5056 5317 5319 0
-5056 -5317 -5319 0
5051 5319 -5320 0
5051 -5319 -5320 0
-5051 5319 -5320 0
-5051 -5319 5320 0
5051 5319 -5321 0
5051 -5319 5321 0
-5051 5319 5321 0
-5051 -5319 -5321 0
5318 5320 -5322 0
5318 -5320 5322 0
-5318 5320 5322 0
-5318 -5320 -5322 0
33 67 -5323 0
33 -67 -5323 0
-33 67 -5323 0
-33 -67 5323 0
5062 5323 -5324 0
5062 -5323 -5324 0
-5062 5323 -5324 0
-5062 -5323 5324 0
5062 5323 -5325 0
5062 -5323 5325 0
-5062 5323 5325 0
-5062 -5323 -5325 0
5057 5325 -5326 0
5057 -5325 -5326 0
-5057 5325 -5326 0
-5057 -5325 5326 0
5057 5325 -5327 0
5057 -5325 5327 0
-5057 5325 5327 0
-5057 -5325 -5327 0
5324 5326 -5328 0
5324 -5326 5328 0
-5324 5326 5328 0
-5324 -5326 -5328 0
34 67 -5329 0
34 -67 -5329 0
-34 67 -5329 0
-34 -67 5329 0
5068 5329 -5330 0
5068 -5329 -5330 0
-5068 5329 -5330 0
-5068 -5329 5330 0
5068 5329 -5331 0
5068 -5329 5331 0
-5068 5329 5331 0
-5068 -5329 -5331 0
5063 5331 -5332 0
5063 -5331 -5332 0
-5063 5331 -5332 0
-5063 -5331 5332 0
5063 5331 -5333 0
5063 -5331 5333 0
-5063 5331 5333 0
-5063 -5331 -5333 0
5330 5332 -5334 0
5330 -5332 5334 0
-5330 5332 5334 0
-5330 -5332 -5334 0
35 67 -5335 0
35 -67 -5335 0
-35 67 -5335 0
-35 -67 5335 0
5074 5335 -5336 0
5074 -5335 -5336 0
-5074 5335 -5336 0
-5074 -5335 5336 0
5074 5335 -5337 0
5074 -5335 5337 0
-5074 5335 5337 0
-5074 -5335 -5337 0
5069 5337 -5338 0
5069 -5337 -5338 0
-5069 5337 -5338 0
-5069 -5337 5338 0
5069 5337 -5339 0
5069 -5337 5339 0
-5069 5337 5339 0
-5069 -5337 -5339 0
5336 5338 -5340 0
5336 -5338 5340 0
-5336 5338 5340 0
-5336 -5338 -5340 0
36 67 -5341 0
36 -67 -5341 0
-36 67 -5341 0
-36 -67 5341 0
5080 5341 -5342 0
5080 -5341 -5342 0
-5080 5341 -5342 0
-5080 -5341 5342 0
5080 5341 -5343 0
5080 -5341 5343 0
-5080 5341 5343 0
-5080 -5341 -5343 0
5075 5343 -5344 0
5075 -5343 -5344 0
-5075 5343 -5344 0
-5075 -5343 5344 0
5075 5343 -5345 0
5075 -5343 5345 0
-5075 5343 5345 0
-5075 -5343 -5345 0
5342 5344 -5346 0
5342 -5344 5346 0
-5342 5344 5346 0
-5342 -5344 -5346 0
37 67 -5347 0
37 -67 -5347 0
-37 67 -5347 0
-37 -67 5347 0
5086 5347 -5348 0
5086 -5347 -5348 0
-5086 5347 -5348 0
-5086 -5347 5348 0
5086 5347 -5349 0
5086 -5347 5349 0
-5086 5347 5349 0
-5086 -5347 -5349 0
5081 5349 -5350 0
5081 -5349 -5350 0
-5081 5349 -5350 0
-5081 -5349 5350 0
5081 5349 -5351 0
5081 -5349 5351 0
-5081 5349 5351 0
-5081 -5349 -5351 0
5348 5350 -5352 0
5348 -5350 5352 0
-5348 5350 5352 0
-5348 -5350 -5352 0
38 67 -5353 0
38 -67 -5353 0
-38 67 -5353 0
-38 -67 5353 0
5092 5353 -5354 0
5092 -5353 -5354 0
-5092 5353 -5354 0
-5092 -5353 5354 0
5092 5353 -5355 0
5092 -5353 5355 0
-5092 5353 5355 0
-5092 -5353 -5355 0
5087 5355 -5356 0
5087 -5355 -5356 0
-5087 5355 -5356 0
-5087 -5355 5356 0
5087 5355 -5357 0
5087 -5355 5357 0
-5087 5355 5357 0
-5087 -5355 -5357 0
5354 5356 -5358 0
5354 -5356 5358 0
-5354 5356 5358 0
-5354 -5356 -5358 0
39 67 -5359 0
39 -67 -5359 0
-39 67 -5359 0
-39 -67 5359 0
5098 5359 -5360 0
5098 -5359 -5360 0
-5098 5359 -5360 0
-5098 -5359 5360 0
5098 5359 -5361 0
5098 -5359 5361 0
-5098 5359 5361 0
-5098 -5359 -5361 0
5093 5361 -5362 0
5093 -5361 -5362 0
-5093 5361 -5362 0
-5093 -5361 5362 0
5093 5361 -5363 0
5093 -5361 5363 0
-5093 5361 5363 0
-5093 -5361 -5363 0
5360 5362 -5364 0
5360 -5362 5364 0
-5360 5362 5364 0
-5360 -5362 -5364 0
40 67 -5365 0
40 -67 -5365 0
-40 67 -5365 0
-40 -67 5365 0
5104 5365 -5366 0
5104 -5365 -5366 0
-5104 5365 -5366 0
-5104 -5365 5366 0
5104 5365 -5367 0
5104 -5365 5367 0
-5104 5365 5367 0
-5104 -5365 -5367 0
5099 5367 -5368 0
5099 -5367 -5368 0
-5099 5367 -5368 0
-5099 -5367 5368 0
5099 5367 -5369 0
5099 -5367 5369 0
-5099 5367 5369 0
-5099 -5367 -5369 0
5366 5368 -5370 0
5366 -5368 5370 0
-5366 5368 5370 0
-5366 -5368 -5370 0
41 67 -5371 0
41 -67 -5371 0
-41 67 -5371 0
-41 -67 5371 0
5110 5371 -5372 0
5110 -5371 -5372 0
-5110 5371 -5372 0
-5110 -5371 5372 0
5110 5371 -5373 0
5110 -5371 5373 0
-5110 5371 5373 0
-5110 -5371 -5373 0
5105 5373 -5374 0
5105 -5373 -5374 0
-5105 5373 -5374 0
-5105 -5373 5374 0
5105 5373 -5375 0
5105 -5373 5375 0
-5105 5373 5375 0
-5105 -5373 -5375 0
5372 5374 -5376 0
5372 -5374 5376 0
-5372 5374 5376 0
-5372 -5374 -5376 0
42 67 -5377 0
42 -67 -5377 0
-42 67 -5377 0
-42 -67 5377 0
5116 5377 -5378 0
5116 -5377 -5378 0
-5116 5377 -5378 0
-5116 -5377 5378 0
5116 5377 -5379 0
5116 -5377 5379 0
-5116 5377 5379 0
-5116 -5377 -5379 0
5111 5379 -5380 0
5111 -5379 -5380 0
-5111 5379 -5380 0
-5111 -5379 5380 0
5111 5379 -5381 0
5111 -5379 5381 0
-5111 5379 5381 0
-5111 -5379 -5381 0
5378 5380 -5382 0
5378 -5380 5382 0
-5378 5380 5382 0
-5378 -5380 -5382 0
43 67 -5383 0
43 -67 -5383 0
-43 67 -5383 0
-43 -67 5383 0
5122 5383 -5384 0
5122 -5383 -5384 0
-5122 5383 -5384 0
-5122 -5383 5384 0
5122 5383 -5385 0
5122 -5383 5385 0
-5122 5383 5385 0
-5122 -5383 -5385 0
5117 5385 -5386 0
5117 -5385 -5386 0
-5117 5385 -5386 0
-5117 -5385 5386 0
5117 5385 -5387 0
5117 -5385 5387 0
-5117 5385 5387 0
-5117 -5385 -5387 0
5384 5386 -5388 0
5384 -5386 5388 0
-5384 5386 5388 0
-5384 -5386 -5388 0
44 67 -5389 0
44 -67 -5389 0
-44 67 -5389 0
-44 -67 5389 0
5128 5389 -5390 0
5128 -5389 -5390 0
-5128 5389 -5390 0
-5128 -5389 5390 0
5128 5389 -5391 0
5128 -5389 5391 0
-5128 5389 5391 0
-5128 -5389 -5391 0
5123 5391 -5392 0
5123 -5391 -5392 0
-5123 5391 -5392 0
-5123 -5391 5392 0
5123 5391 -5393 0
5123 -5391 5393 0
-5123 5391 5393 0
-5123 -5391 -5393 0
5390 5392 -5394 0
5390 -5392 5394 0
-5390 5392 5394 0
-5390 -5392 -5394 0
45 67 -5395 0
45 -67 -5395 0
-45 67 -5395 0
-45 -67 5395 0
5130 5395 -5396 0
5130 -5395 -5396 0
-5130 5395 -5396 0
-5130 -5395 5396 0
5130 5395 -5397 0
5130 -5395 5397 0
-5130 5395 5397 0
-5130 -5395 -5397 0
5129 5397 -5398 0
5129 -5397 -5398 0
-5129 5397 -5398 0
-5129 -5397 5398 0
5129 5397 -5399 0
5129 -5397 5399 0
-5129 5397 5399 0
-5129 -5397 -5399 0
5396 5398 -5400 0
5396 -5398 5400 0
-5396 5398 5400 0
-5396 -5398 -5400 0
46 67 -5401 0
46 -67 -5401 0
-46 67 -5401 0
-46 -67 5401 0
1 68 -5402 0
1 -68 -5402 0
-1 68 -5402 0
-1 -68 5402 0
5141 5402 -5403 0
5141 -5402 -5403 0
-5141 5402 -5403 0
-5141 -5402 5403 0
5141 5402 -5404 0
5141 -5402 5404 0
-5141 5402 5404 0
-5141 -5402 -5404 0
5136 5404 -5405 0
5136 -5404 -5405 0
-5136 5404 -5405 0
-5136 -5404 5405 0
5136 5404 -5406 0
5136 -5404 5406 0
-5136 5404 5406 0
-5136 -5404 -5406 0
5403 5405 -5407 0
5403 -5405 5407 0
-5403 5405 5407 0
-5403 -5405 -5407 0
2 68 -5408 0
2 -68 -5408 0
-2 68 -5408 0
-2 -68 5408 0
5147 5408 -5409 0
5147 -5408 -5409 0
-5147 5408 -5409 0
-5147 -5408 5409 0
5147 5408 -5410 0
5147 -5408 5410 0
-5147 5408 5410 0
-5147 -5408 -5410 0
5142 5410 -5411 0
5142 -5410 -5411 0
-5142 5410 -5411 0
-5142 -5410 5411 0
5142 5410 -5412 0
5142 -5410 5412 0
-5142 5410 5412 0
-5142 -5410 -5412 0
5409 5411 -5413 0
5409 -5411 5413 0
-5409 5411 5413 0
-5409 -5411 -5413 0
3 68 -5414 0
3 -68 -5414 0
-3 68 -5414 0
-3 -68 5414 0
5153 5414 -5415 0
5153 -5414 -5415 0
-5153 5414 -5415 0
-5153 -5414 5415 0
5153 5414 -5416 0
5153 -5414 5416 0
-5153 5414 5416 0
-5153 -5414 -5416 0
5148 5416 -5417 0
5148 -5416 -5417 0
-5148 5416 -5417 0
-5148 -5416 5417 0
5148 5416 -5418 0
5148 -5416 5418 0
-5148 5416 5418 0
-5148 -5416 -5418 0
5415 5417 -5419 0
5415 -5417 5419 0
-5415 5417 5419 0
-5415 -5417 -5419 0
4 68 -5420 0
4 -68 -5420 0
-4 68 -5420 0
-4 -68 5420 0
5159 5420 -5421 0
5159 -5420 -5421 0
-5159 5420 -5421 0
-5159 -5420 5421 0
5159 5420 -5422 0
5159 -5420 5422 0
-5159 5420 5422 0
-5159 -5420 -5422 0
5154 5422 -5423 0
5154 -5422 -5423 0
-5154 5422 -5423 0
-5154 -5422 5423 0
5154 5422 -5424 0
5154 -5422 5424 0
-5154 5422 5424 0
-5154 -5422 -5424 0
5421 5423 -5425 0
5421 -5423 5425 0
-5421 5423 5425 0
-5421 -5423 -5425 0
5 68 -5426 0
5 -68 -5426 0
-5 68 -5426 0
-5 -68 5426 0
5165 5426 -5427 0
5165 -5426 -5427 0
-5165 5426 -5427 0
-5165 -5426 5427 0
5165 5426 -5428 0
5165 -5426 5428 0
-5165 5426 5428 0
-5165 -5426 -5428 0
5160 5428 -5429 0
5160 -5428 -5429 0
-5160 5428 -5429 0
-5160 -5428 5429 0
5160 5428 -5430 0
5160 -5428 5430 0
-5160 5428 5430 0
-5160 -5428 -5430 0
5427 5429 -5431 0
5427 -5429 5431 0
-5427 5429 5431 0
-5427 -5429 -5431 0
6 68 -5432 0
6 -68 -5432 0
-6 68 -5432 0
-6 -68 5432 0
5171 5432 -5433 0
5171 -5432 -5433 0
-5171 5432 -5433 0
-5171 -5432 5433 0
5171 5432 -5434 0
5171 -5432 5434 0
-5171 5432 5434 0
-5171 -5432 -5434 0
5166 5434 -5435 0
5166 -5434 -5435 0
-5166 5434 -5435 0
-5166 -5434 5435 0
5166 5434 -5436 0
5166 -5434 5436 0
-5166 5434 5436 0
-5166 -5434 -5436 0
5433 5435 -5437 0
5433 -5435 5437 0
-5433 5435 5437 0
-5433 -5435 -5437 0
7 68 -5438 0
7 -68 -5438 0
-7 68 -5438 0
-7 -68 5438 0
5177 5438 -5439 0
5177 -5438 -5439 0
-5177 5438 -5439 0
-5177 -5438 5439 0
5177 5438 -5440 0
5177 -5438 5440 0
-5177 5438 5440 0
-5177 -5438 -5440 0
5172 5440 -5441 0
5172 -5440 -5441 0
-5172 5440 -5441 0
-5172 -5440 5441 0
5172 5440 -5442 0
5172 -5440 5442 0
-5172 5440 5442 0
-5172 -5440 -5442 0
5439 5441 -5443 0
5439 -5441 5443 0
-5439 5441 5443 0
-5439 -5441 -5443 0
8 68 -5444 0
8 -68 -5444 0
-8 68 -5444 0
-8 -68 5444 0
5183 5444 -5445 0
5183 -5444 -5445 0
-5183 5444 -5445 0
-5183 -5444 5445 0
5183 5444 -5446 0
5183 -5444 5446 0
-5183 5444 5446 0
-5183 -5444 -5446 0
5178 5446 -5447 0
5178 -5446 -5447 0
-5178 5446 -5447 0
-5178 -5446 5447 0
5178 5446 -5448 0
5178 -5446 5448 0
-5178 5446 5448 0
-5178 -5446 -5448 0
5445 5447 -5449 0
5445 -5447 5449 0
-5445 5447 5449 0
-5445 -5447 -5449 0
9 68 -5450 0
9 -68 -5450 0
-9 68 -5450 0
-9 -68 5450 0
5189 5450 -5451 0
5189 -5450 -5451 0
-5189 5450 -5451 0
-5189 -5450 5451 0
5189 5450 -5452 0
5189 -5450 5452 0
-5189 5450 5452 0
-5189 -5450 -5452 0
5184 5452 -5453 0
5184 -5452 -5453 0
-5184 5452 -5453 0
-5184 -5452 5453 0
5184 5452 -5454 0
5184 -5452 5454 0
-5184 5452 5454 0
-5184 -5452 -5454 0
5451 5453 -5455 0
5451 -5453 5455 0
-5451 5453 5455 0
-5451 -5453 -5455 0
10 68 -5456 0
10 -68 -5456 0
-10 68 -5456 0
-10 -68 5456 0
5195 5456 -5457 0
5195 -5456 -5457 0
-5195 5456 -5457 0
-5195 -5456 5457 0
5195 5456 -5458 0
5195 -5456 5458 0
-5195 5456 5458 0
-5195 -5456 -5458 0
5190 5458 -5459 0
5190 -5458 -5459 0
-5190 5458 -5459 0
-5190 -5458 5459 0
5190 5458 -5460 0
5190 -5458 5460 0
-5190 5458 5460 0
-5190 -5458 -5460 0
5457 5459 -5461 0
5457 -5459 5461 0
-5457 5459 5461 0
-5457 -5459 -5461 0
11 68 -5462 0
11 -68 -5462 0
-11 68 -5462 0
-11 -68 5462 0
5201 5462 -5463 0
5201 -5462 -5463 0
-5201 5462 -5463 0
-5201 -5462 5463 0
5201 5462 -5464 0
5201 -5462 5464 0
-5201 5462 5464 0
-5201 -5462 -5464 0
5196 5464 -5465 0
5196 -5464 -5465 0
-5196 5464 -5465 0
-5196 -5464 5465 0
5196 5464 -5466 0
5196 -5464 5466 0
-5196 5464 5466 0
-5196 -5464 -5466 0
5463 5465 -5467 0
5463 -5465 5467 0
-5463 5465 5467 0
-5463 -5465 -5467 0
12 68 -5468 0
12 -68 -5468 0
-12 68 -5468 0
-12 -68 5468 0
5207 5468 -5469 0
5207 -5468 -5469 0
-5207 5468 -5469 0
-5207 -5468 5469 0
5207 5468 -5470 0
5207 -5468 5470 0
-5207 5468 5470 0
-5207 -5468 -5470 0
5202 5470 -5471 0
5202 -5470 -5471 0
-5202 5470 -5471 0
-5202 -5470 5471 0
5202 5470 -5472 0
5202 -5470 5472 0
-5202 5470 5472 0
-5202 -5470 -5472 0
5469 5471 -5473 0
5469 -5471 5473 0
-5469 5471 5473 0
-5469 -5471 -5473 0
13 68 -5474 0
13 -68 -5474 0
-13 68 -5474 0
-13 -68 5474 0
5213 5474 -5475 0
5213 -5474 -5475 0
-5213 5474 -5475 0
-5213 -5474 5475 0
5213 5474 -5476 0
5213 -5474 5476 0
-5213 5474 5476 0
-5213 -5474 -5476 0
5208 5476 -5477 0
5208 -5476 -5477 0
-5208 5476 -5477 0
-5208 -5476 5477 0
5208 5476 -5478 0
5208 -5476 5478 0
-5208 5476 5478 0
-5208 -5476 -5478 0
5475 5477 -5479 0
5475 -5477 5479 0
-5475 5477 5479 0
-5475 -5477 -5479 0
14 68 -5480 0
14 -68 -5480 0
-14 68 -5480 0
-14 -68 5480 0
5219 5480 -5481 0
5219 -5480 -5481 0
-5219 5480 -5481 0
-5219 -5480 5481 0
5219 5480 -5482 0
5219 -5480 5482 0
-5219 5480 5482 0
-5219 -5480 -5482 0
5214 5482 -5483 0
5214 -5482 -5483 0
-5214 5482 -5483 0
-5214 -5482 5483 0
5214 5482 -5484 0
5214 -5482 5484 0
-5214 5482 5484 0
-5214 -5482 -5484 0
5481 5483 -5485 0
5481 -5483 5485 0
-5481 5483 5485 0
-5481 -5483 -5485 0
15 68 -5486 0
15 -68 -5486 0
-15 68 -5486 0
-15 -68 5486 0
5225 5486 -5487 0
5225 -5486 -5487 0
-5225 5486 -5487 0
-5225 -5486 5487 0
5225 5486 -5488 0
5225 -5486 5488 0
-5225 5486 5488 0
-5225 -5486 -5488 0
5220 5488 -5489 0
5220 -5488 -5489 0
-5220 5488 -5489 0
-5220 -5488 5489 0
5220 5488 -5490 0
5220 -5488 5490 0
-5220 5488 5490 0
-5220 -5488 -5490 0
5487 5489 -5491 0
5487 -5489 5491 0
-5487 5489 5491 0
-5487 -5489 -5491 0
16 68 -5492 0
16 -68 -5492 0
-16 68 -5492 0
-16 -68 5492 0
5231 5492 -5493 0
5231 -5492 -5493 0
-5231 5492 -5493 0
-5231 -5492 5493 0
5231 5492 -5494 0
5231 -5492 5494 0
-5231 5492 5494 0
-5231 -5492 -5494 0
5226 5494 -5495 0
5226 -5494 -5495 0
-5226 5494 -5495 0
-5226 -5494 5495 0
5226 5494 -5496 0
5226 -5494 5496 0
-5226 5494 5496 0
-5226 -5494 -5496 0
5493 5495 -5497 0
5493 -5495 5497 0
-5493 5495 5497 0
-5493 -5495 -5497 0
17 68 -5498 0
17 -68 -5498 0
-17 68 -5498 0
-17 -68 5498 0
5237 5498 -5499 0
5237 -5498 -5499 0
-5237 5498 -5499 0
-5237 -5498 5499 0
5237 5498 -5500 0
5237 -5498 5500 0
-5237 5498 5500 0
-5237 -5498 -5500 0
5232 5500 -5501 0
5232 -5500 -5501 0
-5232 5500 -5501 0
-5232 -5500 5501 0
5232 5500 -5502 0
5232 -5500 5502 0
-5232 5500 5502 0
-5232 -5500 -5502 0
5499 5501 -5503 0
5499 -5501 5503 0
-5499 5501 5503 0
-5499 -5501 -5503 0
18 68 -5504 0
18 -68 -5504 0
-18 68 -5504 0
-18 -68 5504 0
5243 5504 -5505 0
5243 -5504 -5505 0
-5243 5504 -5505 0
-5243 -5504 5505 0
5243 5504 -5506 0
5243 -5504 5506 0
-5243 5504 5506 0
-5243 -5504 -5506 0
5238 5506 -5507 0
5238 -5506 -5507 0
-5238 5506 -5507 0
-5238 -5506 5507 0
5238 5506 -5508 0
5238 -5506 5508 0
-5238 5506 5508 0
-5238 -5506 -5508 0
5505 5507 -5509 0
5505 -5507 5509 0
-5505 5507 5509 0
-5505 -5507 -5509 0
19 68 -5510 0
19 -68 -5510 0
-19 68 -5510 0
-19 -68 5510 0
5249 5510 -5511 0
5249 -5510 -5511 0
-5249 5510 -5511 0
-5249 -5510 5511 0
5249 5510 -5512 0
5249 -5510 5512 0
-5249 5510 5512 0
-5249 -5510 -5512 0
5244 5512 -5513 0
5244 -5512 -5513 0
-5244 5512 -5513 0
-5244 -5512 5513 0
5244 5512 -5514 0
5244 -5512 5514 0
-5244 5512 5514 0
-5244 -5512 -5514 0
5511 5513 -5515 0
5511 -5513 5515 0
-5511 5513 5515 0
-5511 -5513 -5515 0
20 68 -5516 0
20 -68 -5516 0
-20 68 -5516 0
-20 -68 5516 0
5255 5516 -5517 0
5255 -5516 -5517 0
-5255 5516 -5517 0
-5255 -5516 5517 0
5255 5516 -5518 0
5255 -5516 5518 0
-5255 5516 5518 0
-5255 -5516 -5518 0
5250 5518 -5519 0
5250 -5518 -5519 0
-5250 5518 -5519 0
-5250 -5518 5519 0
5250 5518 -5520 0
5250 -5518 5520 0
-5250 5518 5520 0
-5250 -5518 -5520 0
5517 5519 -5521 0
5517 -5519 5521 0
-5517 5519 5521 0
-5517 -5519 -5521 0
21 68 -5522 0
21 -68 -5522 0
-21 68 -5522 0
-21 -68 5522 0
5261 5522 -5523 0
5261 -5522 -5523 0
-5261 5522 -5523 0
-5261 -5522 5523 0
5261 5522 -5524 0
5261 -5522 5524 0
-5261 5522 5524 0
-5261 -5522 -5524 0
5256 5524 -5525 0
5256 -5524 -5525 0
-5256 5524 -5525 0
-5256 -5524 5525 0
5256 5524 -5526 0
5256 -5524 5526 0
-5256 5524 5526 0
-5256 -5524 -5526 0
5523 5525 -5527 0
5523 -5525 5527 0
-5523 5525 5527 0
-5523 -5525 -5527 0
22 68 -5528 0
22 -68 -5528 0
-22 68 -5528 0
-22 -68 5528 0
5267 5528 -5529 0
5267 -5528 -5529 0
-5267 5528 -5529 0
-5267 -5528 5529 0
5267 5528 -5530 0
5267 -5528 5530 0
-5267 5528 5530 0
-5267 -5528 -5530 0
5262 5530 -5531 0
5262 -5530 -5531 0
-5262 5530 -5531 0
-5262 -5530 5531 0
5262 5530 -5532 0
5262 -5530 5532 0
-5262 5530 5532 0
-5262 -5530 -5532 0
5529 5531 -5533 0
5529 -5531 5533 0
-5529 5531 5533 0
-5529 -5531 -5533 0
23 68 -5534 0
23 -68 -5534 0
-23 68 -5534 0
-23 -68 5534 0
5273 5534 -5535 0
5273 -5534 -5535 0
-5273 5534 -5535 0
-5273 -5534 5535 0
5273 5534 -5536 0
5273 -5534 5536 0
-5273 5534 5536 0
-5273 -5534 -5536 0
5268 5536 -5537 0
5268 -5536 -5537 0
-5268 5536 -5537 0
-5268 -5536 5537 0
5268 5536 -5538 0
5268 -5536 5538 0
-5268 5536 5538 0
-5268 -5536 -5538 0
5535 5537 -5539 0
5535 -5537 5539 0
-5535 5537 5539 0
-5535 -5537 -5539 0
24 68 -5540 0
24 -68 -5540 0
-24 68 -5540 0
-24 -68 5540 0
5279 5540 -5541 0
5279 -5540 -5541 0
-5279 5540 -5541 0
-5279 -5540 5541 0
5279 5540 -5542 0
5279 -5540 5542 0
-5279 5540 5542 0
-5279 -5540 -5542 0
5274 5542 -5543 0
5274 -5542 -5543 0
-5274 5542 -5543 0
-5274 -5542 5543 0
5274 5542 -5544 0
5274 -5542 5544 0
-5274 5542 5544 0
-5274 -5542 -5544 0
5541 5543 -5545 0
5541 -5543 5545 0
-5541 5543 5545 0
-5541 -5543 -5545 0
25 68 -5546 0
25 -68 -5546 0
-25 68 -5546 0
-25 -68 5546 0
5285 5546 -5547 0
5285 -5546 -5547 0
-5285 5546 -5547 0
-5285 -5546 5547 0
5285 5546 -5548 0
5285 -5546 5548 0
-5285 5546 5548 0
-5285 -5546 -5548 0
5280 5548 -5549 0
5280 -5548 -5549 0
-5280 5548 -5549 0
-5280 -5548 5549 0
5280 5548 -5550 0
5280 -5548 5550 0
-5280 5548 5550 0
-5280 -5548 -5550 0
5547 5549 -5551 0
5547 -5549 5551 0
-5547 5549 5551 0
-5547 -5549 -5551 0
26 68 -5552 0
26 -68 -5552 0
-26 68 -5552 0
-26 -68 5552 0
5291 5552 -5553 0
5291 -5552 -5553 0
-5291 5552 -5553 0
-5291 -5552 5553 0
5291 5552 -5554 0
5291 -5552 5554 0
-5291 5552 5554 0
-5291 -5552 -5554 0
5286 5554 -5555 0
5286 -5554 -5555 0
-5286 5554 -5555 0
-5286 -5554 5555 0
5286 5554 -5556 0
5286 -5554 5556 0
-5286 5554 5556 0
-5286 -5554 -5556 0
5553 5555 -5557 0
5553 -5555 5557 0
-5553 5555 5557 0
-5553 -5555 -5557 0
27 68 -5558 0
27 -68 -5558 0
-27 68 -5558 0
-27 -68 5558 0
5297 5558 -5559 0
5297 -5558 -5559 0
-5297 5558 -5559 0
-5297 -5558 5559 0
5297 5558 -5560 0
5297 -5558 5560 0
-5297 5558 5560 0
-5297 -5558 -5560 0
5292 5560 -5561 0
5292 -5560 -5561 0
-5292 5560 -5561 0
-5292 -5560 5561 0
5292 5560 -5562 0
5292 -5560 5562 0
-5292 5560 5562 0
-5292 -5560 -5562 0
5559 5561 -5563 0
5559 -5561 5563 0
-5559 5561 5563 0
-5559 -5561 -5563 0
28 68 -5564 0
28 -68 -5564 0
-28 68 -5564 0
-28 -68 5564 0
5303 5564 -5565 0
5303 -5564 -5565 0
-5303 5564 -5565 0
-5303 -5564 5565 0
5303 5564 -5566 0
5303 -5564 5566 0
-5303 5564 5566 0
-5303 -5564 -5566 0
5298 5566 -5567 0
5298 -5566 -5567 0
-5298 5566 -5567 0
-5298 -5566 5567 0
5298 5566 -5568 0
5298 -5566 5568 0
-5298 5566 5568 0
-5298 -5566 -5568 0
5565 5567 -5569 0
5565 -5567 5569 0
-5565 5567 5569 0
-5565 -5567 -5569 0
29 68 -5570 0
29 -68 -5570 0
-29 68 -5570 0
-29 -68 5570 0
5309 5570 -5571 0
5309 -5570 -5571 0
-5309 5570 -5571 0
-5309 -5570 5571 0
5309 5570 -5572 0
5309 -5570 5572 0
-5309 5570 5572 0
-5309 -5570 -5572 0
5304 5572 -5573 0
5304 -5572 -5573 0
-5304 5572 -5573 0
-5304 -5572 5573 0
5304 5572 -5574 0
5304 -5572 5574 0
-5304 5572 5574 0
-5304 -5572 -5574 0
5571 5573 -5575 0
5571 -5573 5575 0
-5571 5573 5575 0
-5571 -5573 -5575 0
30 68 -5576 0
30 -68 -5576 0
-30 68 -5576 0
-30 -68 5576 0
5315 5576 -5577 0
5315 -5576 -5577 0
-5315 5576 -5577 0
-5315 -5576 5577 0
5315 5576 -5578 0
5315 -5576 5578 0
-5315 5576 5578 0
-5315 -5576 -5578 0
5310 5578 -5579 0
5310 -5578 -5579 0
-5310 5578 -5579 0
-5310 -5578 5579 0
5310 5578 -5580 0
5310 -5578 5580 0
-5310 5578 5580 0
-5310 -5578 -5580 0
5577 5579 -5581 0
5577 -5579 5581 0
-5577 5579 5581 0
-5577 -5579 -5581 0
31 68 -5582 0
31 -68 -5582 0
-31 68 -5582 0
-31 -68 5582 0
5321 5582 -5583 0
5321 -5582 -5583 0
-5321 5582 -5583 0
-5321 -5582 5583 0
5321 5582 -5584 0
5321 -5582 5584 0
-5321 5582 5584 0
-5321 -5582 -5584 0
5316 5584 -5585 0
5316 -5584 -5585 0
-5316 5584 -5585 0
-5316 -5584 5585 0
5316 5584 -5586 0
5316 -5584 5586 0
-5316 5584 5586 0
-5316 -5584 -5586 0
5583 5585 -5587 0
5583 -5585 5587 0
-5583 5585 5587 0
-5583 -5585 -5587 0
32 68 -5588 0
32 -68 -5588 0
-32 68 -5588 0
-32 -68 5588 0
5327 5588 -5589 0
5327 -5588 -5589 0
-5327 5588 -5589 0
-5327 -5588 5589 0
5327 5588 -5590 0
5327 -5588 5590 0
-5327 5588 5590 0
-5327 -5588 -5590 0
5322 5590 -5591 0
5322 -5590 -5591 0
-5322 5590 -5591 0
-5322 -5590 5591 0
5322 5590 -5592 0
5322 -5590 5592 0
-5322 5590 5592 0
-5322 -5590 -5592 0
5589 5591 -5593 0
5589 -5591 5593 0
-5589 5591 5593 0
-5589 -5591 -5593 0
33 68 -5594 0
33 -68 -5594 0
-33 68 -5594 0
-33 -68 5594 0
5333 5594 -5595 0
5333 -5594 -5595 0
-5333 5594 -5595 0
-5333 -5594 5595 0
5333 5594 -5596 0
5333 -5594 5596 0
-5333 5594 5596 0
-5333 -5594 -5596 0
5328 5596 -5597 0
5328 -5596 -5597 0
-5328 5596 -5597 0
-5328 -5596 5597 0
5328 5596 -5598 0
5328 -5596 5598 0
-5328 5596 5598 0
-5328 -5596 -5598 0
5595 5597 -5599 0
5595 -5597 5599 0
-5595 5597 5599 0
-5595 -5597 -5599 0
34 68 -5600 0
34 -68 -5600 0
-34 68 -5600 0
-34 -68 5600 0
5339 5600 -5601 0
5339 -5600 -5601 0
-5339 5600 -5601 0
-5339 -5600 5601 0
5339 5600 -5602 0
5339 -5600 5602 0
-5339 5600 5602 0
-5339 -5600 -5602 0
5334 5602 -5603 0
5334 -5602 -5603 0
-5334 5602 -5603 0
-5334 -5602 5603 0
5334 5602 -5604 0
5334 -5602 5604 0
-5334 5602 5604 0
-5334 -5602 -5604 0
5601 5603 -5605 0
5601 -5603 5605 0
-5601 5603 5605 0
-5601 -5603 -5605 0
35 68 -5606 0
35 -68 -5606 0
-35 68 -5606 0
-35 -68 5606 0
5345 5606 -5607 0
5345 -5606 -5607 0
-5345 5606 -5607 0
-5345 -5606 5607 0
5345 5606 -5608 0
5345 -5606 5608 0
-5345 5606 5608 0
-5345 -5606 -5608 0
5340 5608 -5609 0
5340 -5608 -5609 0
-5340 5608 -5609 0
-5340 -5608 5609 0
5340 5608 -5610 0
5340 -5608 5610 0
-5340 5608 5610 0
-5340 -5608 -5610 0
5607 5609 -5611 0
5607 -5609 5611 0
-5607 5609 5611 0
-5607 -5609 -5611 0
36 68 -5612 0
36 -68 -5612 0
-36 68 -5612 0
-36 -68 5612 0
5351 5612 -5613 0
5351 -5612 -5613 0
-5351 5612 -5613 0
-5351 -5612 5613 0
5351 5612 -5614 0
5351 -5612 5614 0
-5351 5612 5614 0
-5351 -5612 -5614 0
5346 5614 -5615 0
5346 -5614 -5615 0
-5346 5614 -5615 0
-5346 -5614 5615 0
5346 5614 -5616 0
5346 -5614 5616 0
-5346 5614 5616 0
-5346 -5614 -5616 0
5613 5615 -5617 0
5613 -5615 5617 0
-5613 5615 5617 0
-5613 -5615 -5617 0
37 68 -5618 0
37 -68 -5618 0
-37 68 -5618 0
-37 -68 5618 0
5357 5618 -5619 0
5357 -5618 -5619 0
-5357 5618 -5619 0
-5357 -5618 5619 0
5357 5618 -5620 0
5357 -5618 5620 0
-5357 5618 5620 0
-5357 -5618 -5620 0
5352 5620 -5621 0
5352 -5620 -5621 0
-5352 5620 -5621 0
-5352 -5620 5621 0
5352 5620 -5622 0
5352 -5620 5622 0
-5352 5620 5622 0
-5352 -5620 -5622 0
5619 5621 -5623 0
5619 -5621 5623 0
-5619 5621 5623 0
-5619 -5621 -5623 0
38 68 -5624 0
38 -68 -5624 0
-38 68 -5624 0
-38 -68 5624 0
5363 5624 -5625 0
5363 -5624 -5625 0
-5363 5624 -5625 0
-5363 -5624 5625 0
5363 5624 -5626 0
5363 -5624 5626 0
-5363 5624 5626 0
-5363 -5624 -5626 0
5358 5626 -5627 0
5358 -5626 -5627 0
-5358 5626 -5627 0
-5358 -5626 5627 0
5358 5626 -5628 0
5358 -5626 5628 0
-5358 5626 5628 0
-5358 -5626 -5628 0
5625 5627 -5629 0
5625 -5627 5629 0
-5625 5627 5629 0
-5625 -5627 -5629 0
39 68 -5630 0
39 -68 -5630 0
-39 68 -5630 0
-39 -68 5630 0
5369 5630 -5631 0
5369 -5630 -5631 0
-5369 5630 -5631 0
-5369 -5630 5631 0
5369 5630 -5632 0
5369 -5630 5632 0
-5369 5630 5632 0
-5369 -5630 -5632 0
5364 5632 -5633 0
5364 -5632 -5633 0
-5364 5632 -5633 0
-5364 -5632 5633 0
5364 5632 -5634 0
5364 -5632 5634 0
-5364 5632 5634 0
-5364 -5632 -5634 0
5631 5633 -5635 0
5631 -5633 5635 0
-5631 5633 5635 0
-5631 -5633 -5635 0
40 68 -5636 0
40 -68 -5636 0
-40 68 -5636 0
-40 -68 5636 0
5375 5636 -5637 0
5375 -5636 -5637 0
-5375 5636 -5637 0
-5375 -5636 5637 0
5375 5636 -5638 0
5375 -5636 5638 0
-5375 5636 5638 0
-5375 -5636 -5638 0
5370 5638 -5639 0
5370 -5638 -5639 0
-5370 5638 -5639 0
-5370 -5638 5639 0
5370 5638 -5640 0
5370 -5638 5640 0
-5370 5638 5640 0
-5370 -5638 -5640 0
5637 5639 -5641 0
5637 -5639 5641 0
-5637 5639 5641 0
-5637 -5639 -5641 0
41 68 -5642 0
41 -68 -5642 0
-41 68 -5642 0
-41 -68 5642 0
5381 5642 -5643 0
5381 -5642 -5643 0
-5381 5642 -5643 0
-5381 -5642 5643 0
5381 5642 -5644 0
5381 -5642 5644 0
-5381 5642 5644 0
-5381 -5642 -5644 0
5376 5644 -5645 0
5376 -5644 -5645 0
-5376 5644 -5645 0
-5376 -5644 5645 0
5376 5644 -5646 0
5376 -5644 5646 0
-5376 5644 5646 0
-5376 -5644 -5646 0
5643 5645 -5647 0
5643 -5645 5647 0
-5643 5645 5647 0
-5643 -5645 -5647 0
42 68 -5648 0
42 -68 -5648 0
-42 68 -5648 0
-42 -68 5648 0
5387 5648 -5649 0
5387 -5648 -5649 0
-5387 5648 -5649 0
-5387 -5648 5649 0
5387 5648 -5650 0
5387 -5648 5650 0
-5387 5648 5650 0
-5387 -5648 -5650 0
5382 5650 -5651 0
5382 -5650 -5651 0
-5382 5650 -5651 0
-5382 -5650 5651 0
5382 5650 -5652 0
5382 -5650 5652 0
-5382 5650 5652 0
-5382 -5650 -5652 0
5649 5651 -5653 0
5649 -5651 5653 0
-5649 5651 5653 0
-5649 -5651 -5653 0
43 68 -5654 0
43 -68 -5654 0
-43 68 -5654 0
-43 -68 5654 0
5393 5654 -5655 0
5393 -5654 -5655 0
-5393 5654 -5655 0
-5393 -5654 5655 0
5393 5654 -5656 0
5393 -5654 5656 0
-5393 5654 5656 0
-5393 -5654 -5656 0
5388 5656 -5657 0
5388 -5656 -5657 0
-5388 5656 -5657 0
-5388 -5656 5657 0
5388 5656 -5658 0
5388 -5656 5658 0
-5388 5656 5658 0
-5388 -5656 -5658 0
5655 5657 -5659 0
5655 -5657 5659 0
-5655 5657 5659 0
-5655 -5657 -5659 0
44 68 -5660 0
44 -68 -5660 0
-44 68 -5660 0
-44 -68 5660 0
5399 5660 -5661 0
5399 -5660 -5661 0
-5399 5660 -5661 0
-5399 -5660 5661 0
5399 5660 -5662 0
5399 -5660 5662 0
-5399 5660 5662 0
-5399 -5660 -5662 0
5394 5662 -5663 0
5394 -5662 -5663 0
-5394 5662 -5663 0
-5394 -5662 5663 0
5394 5662 -5664 0
5394 -5662 5664 0
-5394 5662 5664 0
-5394 -5662 -5664 0
5661 5663 -5665 0
5661 -5663 5665 0
-5661 5663 5665 0
-5661 -5663 -5665 0
45 68 -5666 0
45 -68 -5666 0
-45 68 -5666 0
-45 -68 5666 0
5401 5666 -5667 0
5401 -5666 -5667 0
-5401 5666 -5667 0
-5401 -5666 5667 0
5401 5666 -5668 0
5401 -5666 5668 0
-5401 5666 5668 0
-5401 -5666 -5668 0
5400 5668 -5669 0
5400 -5668 -5669 0
-5400 5668 -5669 0
-5400 -5668 5669 0
5400 5668 -5670 0
5400 -5668 5670 0
-5400 5668 5670 0
-5400 -5668 -5670 0
5667 5669 -5671 0
5667 -5669 5671 0
-5667 5669 5671 0
-5667 -5669 -5671 0
46 68 -5672 0
46 -68 -5672 0
-46 68 -5672 0
-46 -68 5672 0
1 69 -5673 0
1 -69 -5673 0
-1 69 -5673 0
-1 -69 5673 0
5412 5673 -5674 0
5412 -5673 -5674 0
-5412 5673 -5674 0
-5412 -5673 5674 0
5412 5673 -5675 0
5412 -5673 5675 0
-5412 5673 5675 0
-5412 -5673 -5675 0
5407 5675 -5676 0
5407 -5675 -5676 0
-5407 5675 -5676 0
-5407 -5675 5676 0
5407 5675 -5677 0
5407 -5675 5677 0
-5407 5675 5677 0
-5407 -5675 -5677 0
5674 5676 -5678 0
5674 -5676 5678 0
-5674 5676 5678 0
-5674 -5676 -5678 0
2 69 -5679 0
2 -69 -5679 0
-2 69 -5679 0
-2 -69 5679 0
5418 5679 -5680 0
5418 -5679 -5680 0
-5418 5679 -5680 0
-5418 -5679 5680 0
5418 5679 -5681 0
5418 -5679 5681 0
-5418 5679 5681 0
-5418 -5679 -5681 0
5413 5681 -5682 0
5413 -5681 -5682 0
-5413 5681 -5682 0
-5413 -5681 5682 0
5413 5681 -5683 0
5413 -5681 5683 0
-5413 5681 5683 0
-5413 -5681 -5683 0
5680 5682 -5684 0
5680 -5682 5684 0
-5680 5682 5684 0
-5680 -5682 -5684 0
3 69 -5685 0
3 -69 -5685 0
-3 69 -5685 0
-3 -69 5685 0
5424 5685 -5686 0
5424 -5685 -5686 0
-5424 5685 -5686 0
-5424 -5685 5686 0
5424 5685 -5687 0
5424 -5685 5687 0
-5424 5685 5687 0
-5424 -5685 -5687 0
5419 5687 -5688 0
5419 -5687 -5688 0
-5419 5687 -5688 0
-5419 -5687 5688 0
5419 5687 -5689 0
5419 -5687 5689 0
-5419 5687 5689 0
-5419 -5687 -5689 0
5686 5688 -5690 0
5686 -5688 5690 0
-5686 5688 5690 0
-5686 -5688 -5690 0
4 69 -5691 0
4 -69 -5691 0
-4 69 -5691 0
-4 -69 5691 0
5430 5691 -5692 0
5430 -5691 -5692 0
-5430 5691 -5692 0
-5430 -5691 5692 0
5430 5691 -5693 0
5430 -5691 5693 0
-5430 5691 5693 0
-5430 -5691 -5693 0
5425 5693 -5694 0
5425 -5693 -5694 0
-5425 5693 -5694 0
-5425 -5693 5694 0
5425 5693 -5695 0
5425 -5693 5695 0
-5425 5693 5695 0
-5425 -5693 -5695 0
5692 5694 -5696 0
5692 -5694 5696 0
-5692 5694 5696 0
-5692 -5694 -5696 0
5 69 -5697 0
5 -69 -5697 0
-5 69 -5697 0
-5 -69 5697 0
5436 5697 -5698 0
5436 -5697 -5698 0
-5436 5697 -5698 0
-5436 -5697 5698 0
5436 5697 -5699 0
5436 -5697 5699 0
-5436 5697 5699 0
-5436 -5697 -5699 0
5431 5699 -5700 0
5431 -5699 -5700 0
-5431 5699 -5700 0
-5431 -5699 5700 0
5431 5699 -5701 0
5431 -5699 5701 0
-5431 5699 5701 0
-5431 -5699 -5701 0
5698 5700 -5702 0
5698 -5700 5702 0
-5698 5700 5702 0
-5698 -5700 -5702 0
6 69 -5703 0
6 -69 -5703 0
-6 69 -5703 0
-6 -69 5703 0
5442 5703 -5704 0
5442 -5703 -5704 0
-5442 5703 -5704 0
-5442 -5703 5704 0
5442 5703 -5705 0
5442 -5703 5705 0
-5442 5703 5705 0
-5442 -5703 -5705 0
5437 5705 -5706 0
5437 -5705 -5706 0
-5437 5705 -5706 0
-5437 -5705 5706 0
5437 5705 -5707 0
5437 -5705 5707 0
-5437 5705 5707 0
-5437 -5705 -5707 0
5704 5706 -5708 0
5704 -5706 5708 0
-5704 5706 5708 0
-5704 -5706 -5708 0
7 69 -5709 0
7 -69 -5709 0
-7 69 -5709 0
-7 -69 5709 0
5448 5709 -5710 0
5448 -5709 -5710 0
-5448 5709 -5710 0
-5448 -5709 5710 0
5448 5709 -5711 0
5448 -5709 5711 0
-5448 5709 5711 0
-5448 -5709 -5711 0
5443 5711 -5712 0
5443 -5711 -5712 0
-5443 5711 -5712 0
-5443 -5711 5712 0
5443 5711 -5713 0
5443 -5711 5713 0
-5443 5711 5713 0
-5443 -5711 -5713 0
5710 5712 -5714 0
5710 -5712 5714 0
-5710 5712 5714 0
-5710 -5712 -5714 0
8 69 -5715 0
8 -69 -5715 0
-8 69 -5715 0
-8 -69 5715 0
5454 5715 -5716 0
5454 -5715 -5716 0
-5454 5715 -5716 0
-5454 -5715 5716 0
5454 5715 -5717 0
5454 -5715 5717 0
-5454 5715 5717 0
-5454 -5715 -5717 0
5449 5717 -5718 0
5449 -5717 -5718 0
-5449 5717 -5718 0
-5449 -5717 5718 0
5449 5717 -5719 0
5449 -5717 5719 0
-5449 5717 5719 0
-5449 -5717 -5719 0
5716 5718 -5720 0
5716 -5718 5720 0
-5716 5718 5720 0
-5716 -5718 -5720 0
9 69 -5721 0
9 -69 -5721 0
-9 69 -5721 0
-9 -69 5721 0
5460 5721 -5722 0
5460 -5721 -5722 0
-5460 5721 -5722 0
-5460 -5721 5722 0
5460 5721 -5723 0
5460 -5721 5723 0
-5460 5721 5723 0
-5460 -5721 -5723 0
5455 5723 -5724 0
5455 -5723 -5724 0
-5455 5723 -5724 0
-5455 -5723 5724 0
5455 5723 -5725 0
5455 -5723 5725 0
-5455 5723 5725 0
-5455 -5723 -5725 0
5722 5724 -5726 0
5722 -5724 5726 0
-5722 5724 5726 0
-5722 -5724 -5726 0
10 69 -5727 0
10 -69 -5727 0
-10 69 -5727 0
-10 -69 5727 0
5466 5727 -5728 0
5466 -5727 -5728 0
-5466 5727 -5728 0
-5466 -5727 5728 0
5466 5727 -5729 0
5466 -5727 5729 0
-5466 5727 5729 0
-5466 -5727 -5729 0
5461 5729 -5730 0
5461 -5729 -5730 0
-5461 5729 -5730 0
-5461 -5729 5730 0
5461 5729 -5731 0
5461 -5729 5731 0
-5461 5729 5731 0
-5461 -5729 -5731 0
5728 5730 -5732 0
5728 -5730 5732 0
-5728 5730 5732 0
-5728 -5730 -5732 0
11 69 -5733 0
11 -69 -5733 0
-11 69 -5733 0
-11 -69 5733 0
5472 5733 -5734 0
5472 -5733 -5734 0
-5472 5733 -5734 0
-5472 -5733 5734 0
5472 5733 -5735 0
5472 -5733 5735 0
-5472 5733 5735 0
-5472 -5733 -5735 0
5467 5735 -5736 0
5467 -5735 -5736 0
-5467 5735 -5736 0
-5467 -5735 5736 0
5467 5735 -5737 0
5467 -5735 5737 0
-5467 5735 5737 0
-5467 -5735 -5737 0
5734 5736 -5738 0
5734 -5736 5738 0
-5734 5736 5738 0
-5734 -5736 -5738 0
12 69 -5739 0
12 -69 -5739 0
-12 69 -5739 0
-12 -69 5739 0
5478 5739 -5740 0
5478 -5739 -5740 0
-5478 5739 -5740 0
-5478 -5739 5740 0
5478 5739 -5741 0
5478 -5739 5741 0
-5478 5739 5741 0
-5478 -5739 -5741 0
5473 5741 -5742 0
5473 -5741 -5742 0
-5473 5741 -5742 0
-5473 -5741 5742 0
5473 5741 -5743 0
5473 -5741 5743 0
-5473 5741 5743 0
-5473 -5741 -5743 0
5740 5742 -5744 0
5740 -5742 5744 0
-5740 5742 5744 0
-5740 -5742 -5744 0
13 69 -5745 0
13 -69 -5745 0
-13 69 -5745 0
-13 -69 5745 0
5484 5745 -5746 0
5484 -5745 -5746 0
-5484 5745 -5746 0
-5484 -5745 5746 0
5484 5745 -5747 0
5484 -5745 5747 0
-5484 5745 5747 0
-5484 -5745 -5747 0
5479 5747 -5748 0
5479 -5747 -5748 0
-5479 5747 -5748 0
-5479 -5747 5748 0
5479 5747 -5749 0
5479 -5747 5749 0
-5479 5747 5749 0
-5479 -5747 -5749 0
5746 5748 -5750 0
5746 -5748 5750 0
-5746 5748 5750 0
-5746 -5748 -5750 0
14 69 -5751 0
14 -69 -5751 0
-14 69 -5751 0
-14 -69 5751 0
5490 5751 -5752 0
5490 -5751 -5752 0
-5490 5751 -5752 0
-5490 -5751 5752 0
5490 5751 -5753 0
5490 -5751 5753 0
-5490 5751 5753 0
-5490 -5751 -5753 0
5485 5753 -5754 0
5485 -5753 -5754 0
-5485 5753 -5754 0
-5485 -5753 5754 0
5485 5753 -5755 0
5485 -5753 5755 0
-5485 5753 5755 0
-5485 -5753 -5755 0
5752 5754 -5756 0
5752 -5754 5756 0
-5752 5754 5756 0
-5752 -5754 -5756 0
15 69 -5757 0
15 -69 -5757 0
-15 69 -5757 0
-15 -69 5757 0
5496 5757 -5758 0
5496 -5757 -5758 0
-5496 5757 -5758 0
-5496 -5757 5758 0
5496 5757 -5759 0
5496 -5757 5759 0
-5496 5757 5759 0
-5496 -5757 -5759 0
5491 5759 -5760 0
5491 -5759 -5760 0
-5491 5759 -5760 0
-5491 -5759 5760 0
5491 5759 -5761 0
5491 -5759 5761 0
-5491 5759 5761 0
-5491 -5759 -5761 0
5758 5760 -5762 0
5758 -5760 5762 0
-5758 5760 5762 0
-5758 -5760 -5762 0
16 69 -5763 0
16 -69 -5763 0
-16 69 -5763 0
-16 -69 5763 0
5502 5763 -5764 0
5502 -5763 -5764 0
-5502 5763 -5764 0
-5502 -5763 5764 0
5502 5763 -5765 0
5502 -5763 5765 0
-5502 5763 5765 0
-5502 -5763 -5765 0
5497 5765 -5766 0
5497 -5765 -5766 0
-5497 5765 -5766 0
-5497 -5765 5766 0
5497 5765 -5767 0
5497 -5765 5767 0
-5497 5765 5767 0
-5497 -5765 -5767 0
5764 5766 -5768 0
5764 -5766 5768 0
-5764 5766 5768 0
-5764 -5766 -5768 0
17 69 -5769 0
17 -69 -5769 0
-17 69 -5769 0
-17 -69 5769 0
5508 5769 -5770 0
5508 -5769 -5770 0
-5508 5769 -5770 0
-5508 -5769 5770 0
5508 5769 -5771 0
5508 -5769 5771 0
-5508 5769 5771 0
-5508 -5769 -5771 0
5503 5771 -5772 0
5503 -5771 -5772 0
-5503 5771 -5772 0
-5503 -5771 5772 0
5503 5771 -5773 0
5503 -5771 5773 0
-5503 5771 5773 0
-5503 -5771 -5773 0
5770 5772 -5774 0
5770 -5772 5774 0
-5770 5772 5774 0
-5770 -5772 -5774 0
18 69 -5775 0
18 -69 -5775 0
-18 69 -5775 0
-18 -69 5775 0
5514 5775 -5776 0
5514 -5775 -5776 0
-5514 5775 -5776 0
-5514 -5775 5776 0
5514 5775 -5777 0
5514 -5775 5777 0
-5514 5775 5777 0
-5514 -5775 -5777 0
5509 5777 -5778 0
5509 -5777 -5778 0
-5509 5777 -5778 0
-5509 -5777 5778 0
5509 5777 -5779 0
5509 -5777 5779 0
-5509 5777 5779 0
-5509 -5777 -5779 0
5776 5778 -5780 0
5776 -5778 5780 0
-5776 5778 5780 0
-5776 -5778 -5780 0
19 69 -5781 0
19 -69 -5781 0
-19 69 -5781 0
-19 -69 5781 0
5520 5781 -5782 0
5520 -5781 -5782 0
-5520 5781 -5782 0
-5520 -5781 5782 0
5520 5781 -5783 0
5520 -5781 5783 0
-5520 5781 5783 0
-5520 -5781 -5783 0
5515 5783 -5784 0
5515 -5783 -5784 0
-5515 5783 -5784 0
-5515 -5783 5784 0
5515 5783 -5785 0
5515 -5783 5785 0
-5515 5783 5785 0
-5515 -5783 -5785 0
5782 5784 -5786 0
5782 -5784 5786 0
-5782 5784 5786 0
-5782 -5784 -5786 0
20 69 -5787 0
20 -69 -5787 0
-20 69 -5787 0
-20 -69 5787 0
5526 5787 -5788 0
5526 -5787 -5788 0
-5526 5787 -5788 0
-5526 -5787 5788 0
5526 5787 -5789 0
5526 -5787 5789 0
-5526 5787 5789 0
-5526 -5787 -5789 0
5521 5789 -5790 0
5521 -5789 -5790 0
-5521 5789 -5790 0
-5521 -5789 5790 0
5521 5789 -5791 0
5521 -5789 5791 0
-5521 5789 5791 0
-5521 -5789 -5791 0
5788 5790 -5792 0
5788 -5790 5792 0
-5788 5790 5792 0
-5788 -5790 -5792 0
21 69 -5793 0
21 -69 -5793 0
-21 69 -5793 0
-21 -69 5793 0
5532 5793 -5794 0
5532 -5793 -5794 0
-5532 5793 -5794 0
-5532 -5793 5794 0
5532 5793 -5795 0
5532 -5793 5795 0
-5532 5793 5795 0
-5532 -5793 -5795 0
5527 5795 -5796 0
5527 -5795 -5796 0
-5527 5795 -5796 0
-5527 -5795 5796 0
5527 5795 -5797 0
5527 -5795 5797 0
-5527 5795 5797 0
-5527 -5795 -5797 0
5794 5796 -5798 0
5794 -5796 5798 0
-5794 5796 5798 0
-5794 -5796 -5798 0
22 69 -5799 0
22 -69 -5799 0
-22 69 -5799 0
-22 -69 5799 0
5538 5799 -5800 0
5538 -5799 -5800 0
-5538 5799 -5800 0
-5538 -5799 5800 0
5538 5799 -5801 0
5538 -5799 5801 0
-5538 5799 5801 0
-5538 -5799 -5801 0
5533 5801 -5802 0
5533 -5801 -5802 0
-5533 5801 -5802 0
-5533 -5801 5802 0
5533 5801 -5803 0
5533 -5801 5803 0
-5533 5801 5803 0
-5533 -5801 -5803 0
5800 5802 -5804 0
5800 -5802 5804 0
-5800 5802 5804 0
-5800 -5802 -5804 0
23 69 -5805 0
23 -69 -5805 0
-23 69 -5805 0
-23 -69 5805 0
5544 5805 -5806 0
5544 -5805 -5806 0
-5544 5805 -5806 0
-5544 -5805 5806 0
5544 5805 -5807 0
5544 -5805 5807 0
-5544 5805 5807 0
-5544 -5805 -5807 0
5539 5807 -5808 0
5539 -5807 -5808 0
-5539 5807 -5808 0
-5539 -5807 5808 0
5539 5807 -5809 0
5539 -5807 5809 0
-5539 5807 5809 0
-5539 -5807 -5809 0
5806 5808 -5810 0
5806 -5808 5810 0
-5806 5808 5810 0
-5806 -5808 -5810 0
24 69 -5811 0
24 -69 -5811 0
-24 69 -5811 0
-24 -69 5811 0
5550 5811 -5812 0
5550 -5811 -5812 0
-5550 5811 -5812 0
-5550 -5811 5812 0
5550 5811 -5813 0
5550 -5811 5813 0
-5550 5811 5813 0
-5550 -5811 -5813 0
5545 5813 -5814 0
5545 -5813 -5814 0
-5545 5813 -5814 0
-5545 -5813 5814 0
5545 5813 -5815 0
5545 -5813 5815 0
-5545 5813 5815 0
-5545 -5813 -5815 0
5812 5814 -5816 0
5812 -5814 5816 0
-5812 5814 5816 0
-5812 -5814 -5816 0
25 69 -5817 0
25 -69 -5817 0
-25 69 -5817 0
-25 -69 5817 0
5556 5817 -5818 0
5556 -5817 -5818 0
-5556 5817 -5818 0
-5556 -5817 5818 0
5556 5817 -5819 0
5556 -5817 5819 0
-5556 5817 5819 0
-5556 -5817 -5819 0
5551 5819 -5820 0
5551 -5819 -5820 0
-5551 5819 -5820 0
-5551 -5819 5820 0
5551 5819 -5821 0
5551 -5819 5821 0
-5551 5819 5821 0
-5551 -5819 -5821 0
5818 5820 -5822 0
5818 -5820 5822 0
-5818 5820 5822 0
-5818 -5820 -5822 0
26 69 -5823 0
26 -69 -5823 0
-26 69 -5823 0
-26 -69 5823 0
5562 5823 -5824 0
5562 -5823 -5824 0
-5562 5823 -5824 0
-5562 -5823 5824 0
5562 5823 -5825 0
5562 -5823 5825 0
-5562 5823 5825 0
-5562 -5823 -5825 0
5557 5825 -5826 0
5557 -5825 -5826 0
-5557 5825 -5826 0
-5557 -5825 5826 0
5557 5825 -5827 0
5557 -5825 5827 0
-5557 5825 5827 0
-5557 -5825 -5827 0
5824 5826 -5828 0
5824 -5826 5828 0
-5824 5826 5828 0
-5824 -5826 -5828 0
27 69 -5829 0
27 -69 -5829 0
-27 69 -5829 0
-27 -69 5829 0
5568 5829 -5830 0
5568 -5829 -5830 0
-5568 5829 -5830 0
-5568 -5829 5830 0
5568 5829 -5831 0
5568 -5829 5831 0
-5568 5829 5831 0
-5568 -5829 -5831 0
5563 5831 -5832 0
5563 -5831 -5832 0
-5563 5831 -5832 0
-5563 -5831 5832 0
5563 5831 -5833 0
5563 -5831 5833 0
-5563 5831 5833 0
-5563 -5831 -5833 0
5830 5832 -5834 0
5830 -5832 5834 0
-5830 5832 5834 0
-5830 -5832 -5834 0
28 69 -5835 0
28 -69 -5835 0
-28 69 -5835 0
-28 -69 5835 0
5574 5835 -5836 0
5574 -5835 -5836 0
-5574 5835 -5836 0
-5574 -5835 5836 0
5574 5835 -5837 0
5574 -5835 5837 0
-5574 5835 5837 0
-5574 -5835 -5837 0
5569 5837 -5838 0
5569 -5837 -5838 0
-5569 5837 -5838 0
-5569 -5837 5838 0
5569 5837 -5839 0
5569 -5837 5839 0
-5569 5837 5839 0
-5569 -5837 -5839 0
5836 5838 -5840 0
5836 -5838 5840 0
-5836 5838 5840 0
-5836 -5838 -5840 0
29 69 -5841 0
29 -69 -5841 0
-29 69 -5841 0
-29 -69 5841 0
5580 5841 -5842 0
5580 -5841 -5842 0
-5580 5841 -5842 0
-5580 -5841 5842 0
5580 5841 -5843 0
5580 -5841 5843 0
-5580 5841 5843 0
-5580 -5841 -5843 0
5575 5843 -5844 0
5575 -5843 -5844 0
-5575 5843 -5844 0
-5575 -5843 5844 0
5575 5843 -5845 0
5575 -5843 5845 0
-5575 5843 5845 0
-5575 -5843 -5845 0
5842 5844 -5846 0
5842 -5844 5846 0
-5842 5844 5846 0
-5842 -5844 -5846 0
30 69 -5847 0
30 -69 -5847 0
-30 69 -5847 0
-30 -69 5847 0
5586 5847 -5848 0
5586 -5847 -5848 0
-5586 5847 -5848 0
-5586 -5847 5848 0
5586 5847 -5849 0
5586 -5847 5849 0
-5586 5847 5849 0
-5586 -5847 -5849 0
5581 5849 -5850 0
5581 -5849 -5850 0
-5581 5849 -5850 0
-5581 -5849 5850 0
5581 5849 -5851 0
5581 -5849 5851 0
-5581 5849 5851 0
-5581 -5849 -5851 0
5848 5850 -5852 0
5848 -5850 5852 0
-5848 5850 5852 0
-5848 -5850 -5852 0
31 69 -5853 0
31 -69 -5853 0
-31 69 -5853 0
-31 -69 5853 0
5592 5853 -5854 0
5592 -5853 -5854 0
-5592 5853 -5854 0
-5592 -5853 5854 0
5592 5853 -5855 0
5592 -5853 5855 0
-5592 5853 5855 0
-5592 -5853 -5855 0
5587 5855 -5856 0
5587 -5855 -5856 0
-5587 5855 -5856 0
-5587 -5855 5856 0
5587 5855 -5857 0
5587 -5855 5857 0
-5587 5855 5857 0
-5587 -5855 -5857 0
5854 5856 -5858 0
5854 -5856 5858 0
-5854 5856 5858 0
-5854 -5856 -5858 0
32 69 -5859 0
32 -69 -5859 0
-32 69 -5859 0
-32 -69 5859 0
5598 5859 -5860 0
5598 -5859 -5860 0
-5598 5859 -5860 0
-5598 -5859 5860 0
5598 5859 -5861 0
5598 -5859 5861 0
-5598 5859 5861 0
-5598 -5859 -5861 0
5593 5861 -5862 0
5593 -5861 -5862 0
-5593 5861 -5862 0
-5593 -5861 5862 0
5593 5861 -5863 0
5593 -5861 5863 0
-5593 5861 5863 0
-5593 -5861 -5863 0
5860 5862 -5864 0
5860 -5862 5864 0
-5860 5862 5864 0
-5860 -5862 -5864 0
33 69 -5865 0
33 -69 -5865 0
-33 69 -5865 0
-33 -69 5865 0
5604 5865 -5866 0
5604 -5865 -5866 0
-5604 5865 -5866 0
-5604 -5865 5866 0
5604 5865 -5867 0
5604 -5865 5867 0
-5604 5865 5867 0
-5604 -5865 -5867 0
5599 5867 -5868 0
5599 -5867 -5868 0
-5599 5867 -5868 0
-5599 -5867 5868 0
5599 5867 -5869 0
5599 -5867 5869 0
-5599 5867 5869 0
-5599 -5867 -5869 0
5866 5868 -5870 0
5866 -5868 5870 0
-5866 5868 5870 0
-5866 -5868 -5870 0
34 69 -5871 0
34 -69 -5871 0
-34 69 -5871 0
-34 -69 5871 0
5610 5871 -5872 0
5610 -5871 -5872 0
-5610 5871 -5872 0
-5610 -5871 5872 0
5610 5871 -5873 0
5610 -5871 5873 0
-5610 5871 5873 0
-5610 -5871 -5873 0
5605 5873 -5874 0
5605 -5873 -5874 0
-5605 5873 -5874 0
-5605 -5873 5874 0
5605 5873 -5875 0
5605 -5873 5875 0
-5605 5873 5875 0
-5605 -5873 -5875 0
5872 5874 -5876 0
5872 -5874 5876 0
-5872 5874 5876 0
-5872 -5874 -5876 0
35 69 -5877 0
35 -69 -5877 0
-35 69 -5877 0
-35 -69 5877 0
5616 5877 -5878 0
5616 -5877 -5878 0
-5616 5877 -5878 0
-5616 -5877 5878 0
5616 5877 -5879 0
5616 -5877 5879 0
-5616 5877 5879 0
-5616 -5877 -5879 0
5611 5879 -5880 0
5611 -5879 -5880 0
-5611 5879 -5880 0
-5611 -5879 5880 0
5611 5879 -5881 0
5611 -5879 5881 0
-5611 5879 5881 0
-5611 -5879 -5881 0
5878 5880 -5882 0
5878 -5880 5882 0
-5878 5880 5882 0
-5878 -5880 -5882 0
36 69 -5883 0
36 -69 -5883 0
-36 69 -5883 0
-36 -69 5883 0
5622 5883 -5884 0
5622 -5883 -5884 0
-5622 5883 -5884 0
-5622 -5883 5884 0
5622 5883 -5885 0
5622 -5883 5885 0
-5622 5883 5885 0
-5622 -5883 -5885 0
5617 5885 -5886 0
5617 -5885 -5886 0
-5617 5885 -5886 0
-5617 -5885 5886 0
5617 5885 -5887 0
5617 -5885 5887 0
-5617 5885 5887 0
-5617 -5885 -5887 0
5884 5886 -5888 0
5884 -5886 5888 0
-5884 5886 5888 0
-5884 -5886 -5888 0
37 69 -5889 0
37 -69 -5889 0
-37 69 -5889 0
-37 -69 5889 0
5628 5889 -5890 0
5628 -5889 -5890 0
-5628 5889 -5890 0
-5628 -5889 5890 0
5628 5889 -5891 0
5628 -5889 5891 0
-5628 5889 5891 0
-5628 -5889 -5891 0
5623 5891 -5892 0
5623 -5891 -5892 0
-5623 5891 -5892 0
-5623 -5891 5892 0
5623 5891 -5893 0
5623 -5891 5893 0
-5623 5891 5893 0
-5623 -5891 -5893 0
5890 5892 -5894 0
5890 -5892 5894 0
-5890 5892 5894 0
-5890 -5892 -5894 0
38 69 -5895 0
38 -69 -5895 0
-38 69 -5895 0
-38 -69 5895 0
5634 5895 -5896 0
5634 -5895 -5896 0
-5634 5895 -5896 0
-5634 -5895 5896 0
5634 5895 -5897 0
5634 -5895 5897 0
-5634 5895 5897 0
-5634 -5895 -5897 0
5629 5897 -5898 0
5629 -5897 -5898 0
-5629 5897 -5898 0
-5629 -5897 5898 0
5629 5897 -5899 0
5629 -5897 5899 0
-5629 5897 5899 0
-5629 -5897 -5899 0
5896 5898 -5900 0
5896 -5898 5900 0
-5896 5898 5900 0
-5896 -5898 -5900 0
39 69 -5901 0
39 -69 -5901 0
-39 69 -5901 0
-39 -69 5901 0
5640 5901 -5902 0
5640 -5901 -5902 0
-5640 5901 -5902 0
-5640 -5901 5902 0
5640 5901 -5903 0
5640 -5901 5903 0
-5640 5901 5903 0
-5640 -5901 -5903 0
5635 5903 -5904 0
5635 -5903 -5904 0
-5635 5903 -5904 0
-5635 -5903 5904 0
5635 5903 -5905 0
5635 -5903 5905 0
-5635 5903 5905 0
-5635 -5903 -5905 0
5902 5904 -5906 0
5902 -5904 5906 0
-5902 5904 5906 0
-5902 -5904 -5906 0
40 69 -5907 0
40 -69 -5907 0
-40 69 -5907 0
-40 -69 5907 0
5646 5907 -5908 0
5646 -5907 -5908 0
-5646 5907 -5908 0
-5646 -5907 5908 0
5646 5907 -5909 0
5646 -5907 5909 0
-5646 5907 5909 0
-5646 -5907 -5909 0
5641 5909 -5910 0
5641 -5909 -5910 0
-5641 5909 -5910 0
-5641 -5909 5910 0
5641 5909 -5911 0
5641 -5909 5911 0
-5641 5909 5911 0
-5641 -5909 -5911 0
5908 5910 -5912 0
5908 -5910 5912 0
-5908 5910 5912 0
-5908 -5910 -5912 0
41 69 -5913 0
41 -69 -5913 0
-41 69 -5913 0
-41 -69 5913 0
5652 5913 -5914 0
5652 -5913 -5914 0
-5652 5913 -5914 0
-5652 -5913 5914 0
5652 5913 -5915 0
5652 -5913 5915 0
-5652 5913 5915 0
-5652 -5913 -5915 0
5647 5915 -5916 0
5647 -5915 -5916 0
-5647 5915 -5916 0
-5647 -5915 5916 0
5647 5915 -5917 0
5647 -5915 5917 0
-5647 5915 5917 0
-5647 -5915 -5917 0
5914 5916 -5918 0
5914 -5916 5918 0
-5914 5916 5918 0
-5914 -5916 -5918 0
42 69 -5919 0
42 -69 -5919 0
-42 69 -5919 0
-42 -69 5919 0
5658 5919 -5920 0
5658 -5919 -5920 0
-5658 5919 -5920 0
-5658 -5919 5920 0
5658 5919 -5921 0
5658 -5919 5921 0
-5658 5919 5921 0
-5658 -5919 -5921 0
5653 5921 -5922 0
5653 -5921 -5922 0
-5653 5921 -5922 0
-5653 -5921 5922 0
5653 5921 -5923 0
5653 -5921 5923 0
-5653 5921 5923 0
-5653 -5921 -5923 0
5920 5922 -5924 0
5920 -5922 5924 0
-5920 5922 5924 0
-5920 -5922 -5924 0
43 69 -5925 0
43 -69 -5925 0
-43 69 -5925 0
-43 -69 5925 0
5664 5925 -5926 0
5664 -5925 -5926 0
-5664 5925 -5926 0
-5664 -5925 5926 0
5664 5925 -5927 0
5664 -5925 5927 0
-5664 5925 5927 0
-5664 -5925 -5927 0
5659 5927 -5928 0
5659 -5927 -5928 0
-5659 5927 -5928 0
-5659 -5927 5928 0
5659 5927 -5929 0
5659 -5927 5929 0
-5659 5927 5929 0
-5659 -5927 -5929 0
5926 5928 -5930 0
5926 -5928 5930 0
-5926 5928 5930 0
-5926 -5928 -5930 0
44 69 -5931 0
44 -69 -5931 0
-44 69 -5931 0
-44 -69 5931 0
5670 5931 -5932 0
5670 -5931 -5932 0
-5670 5931 -5932 0
-5670 -5931 5932 0
5670 5931 -5933 0
5670 -5931 5933 0
-5670 5931 5933 0
-5670 -5931 -5933 0
5665 5933 -5934 0
5665 -5933 -5934 0
-5665 5933 -5934 0
-5665 -5933 5934 0
5665 5933 -5935 0
5665 -5933 5935 0
-5665 5933 5935 0
-5665 -5933 -5935 0
5932 5934 -5936 0
5932 -5934 5936 0
-5932 5934 5936 0
-5932 -5934 -5936 0
45 69 -5937 0
45 -69 -5937 0
-45 69 -5937 0
-45 -69 5937 0
5672 5937 -5938 0
5672 -5937 -5938 0
-5672 5937 -5938 0
-5672 -5937 5938 0
5672 5937 -5939 0
5672 -5937 5939 0
-5672 5937 5939 0
-5672 -5937 -5939 0
5671 5939 -5940 0
5671 -5939 -5940 0
-5671 5939 -5940 0
-5671 -5939 5940 0
5671 5939 -5941 0
5671 -5939 5941 0
-5671 5939 5941 0
-5671 -5939 -5941 0
5938 5940 -5942 0
5938 -5940 5942 0
-5938 5940 5942 0
-5938 -5940 -5942 0
46 69 -5943 0
46 -69 -5943 0
-46 69 -5943 0
-46 -69 5943 0
1 70 -5944 0
1 -70 -5944 0
-1 70 -5944 0
-1 -70 5944 0
5683 5944 -5945 0
5683 -5944 -5945 0
-5683 5944 -5945 0
-5683 -5944 5945 0
5683 5944 -5946 0
5683 -5944 5946 0
-5683 5944 5946 0
-5683 -5944 -5946 0
5678 5946 -5947 0
5678 -5946 -5947 0
-5678 5946 -5947 0
-5678 -5946 5947 0
5678 5946 -5948 0
5678 -5946 5948 0
-5678 5946 5948 0
-5678 -5946 -5948 0
5945 5947 -5949 0
5945 -5947 5949 0
-5945 5947 5949 0
-5945 -5947 -5949 0
2 70 -5950 0
2 -70 -5950 0
-2 70 -5950 0
-2 -70 5950 0
5689 5950 -5951 0
5689 -5950 -5951 0
-5689 5950 -5951 0
-5689 -5950 5951 0
5689 5950 -5952 0
5689 -5950 5952 0
-5689 5950 5952 0
-5689 -5950 -5952 0
5684 5952 -5953 0
5684 -5952 -5953 0
-5684 5952 -5953 0
-5684 -5952 5953 0
5684 5952 -5954 0
5684 -5952 5954 0
-5684 5952 5954 0
-5684 -5952 -5954 0
5951 5953 -5955 0
5951 -5953 5955 0
-5951 5953 5955 0
-5951 -5953 -5955 0
3 70 -5956 0
3 -70 -5956 0
-3 70 -5956 0
-3 -70 5956 0
5695 5956 -5957 0
5695 -5956 -5957 0
-5695 5956 -5957 0
-5695 -5956 5957 0
5695 5956 -5958 0
5695 -5956 5958 0
-5695 5956 5958 0
-5695 -5956 -5958 0
5690 5958 -5959 0
5690 -5958 -5959 0
-5690 5958 -5959 0
-5690 -5958 5959 0
5690 5958 -5960 0
5690 -5958 5960 0
-5690 5958 5960 0
-5690 -5958 -5960 0
5957 5959 -5961 0
5957 -5959 5961 0
-5957 5959 5961 0
-5957 -5959 -5961 0
4 70 -5962 0
4 -70 -5962 0
-4 70 -5962 0
-4 -70 5962 0
5701 5962 -5963 0
5701 -5962 -5963 0
-5701 5962 -5963 0
-5701 -5962 5963 0
5701 5962 -5964 0
5701 -5962 5964 0
-5701 5962 5964 0
-5701 -5962 -5964 0
5696 5964 -5965 0
5696 -5964 -5965 0
-5696 5964 -5965 0
-5696 -5964 5965 0
5696 5964 -5966 0
5696 -5964 5966 0
-5696 5964 5966 0
-5696 -5964 -5966 0
5963 5965 -5967 0
5963 -5965 5967 0
-5963 5965 5967 0
-5963 -5965 -5967 0
5 70 -5968 0
5 -70 -5968 0
-5 70 -5968 0
-5 -70 5968 0
5707 5968 -5969 0
5707 -5968 -5969 0
-5707 5968 -5969 0
-5707 -5968 5969 0
5707 5968 -5970 0
5707 -5968 5970 0
-5707 5968 5970 0
-5707 -5968 -5970 0
5702 5970 -5971 0
5702 -5970 -5971 0
-5702 5970 -5971 0
-5702 -5970 5971 0
5702 5970 -5972 0
5702 -5970 5972 0
-5702 5970 5972 0
-5702 -5970 -5972 0
5969 5971 -5973 0
5969 -5971 5973 0
-5969 5971 5973 0
-5969 -5971 -5973 0
6 70 -5974 0
6 -70 -5974 0
-6 70 -5974 0
-6 -70 5974 0
5713 5974 -5975 0
5713 -5974 -5975 0
-5713 5974 -5975 0
-5713 -5974 5975 0
5713 5974 -5976 0
5713 -5974 5976 0
-5713 5974 5976 0
-5713 -5974 -5976 0
5708 5976 -5977 0
5708 -5976 -5977 0
-5708 5976 -5977 0
-5708 -5976 5977 0
5708 5976 -5978 0
5708 -5976 5978 0
-5708 5976 5978 0
-5708 -5976 -5978 0
5975 5977 -5979 0
5975 -5977 5979 0
-5975 5977 5979 0
-5975 -5977 -5979 0
7 70 -5980 0
7 -70 -5980 0
-7 70 -5980 0
-7 -70 5980 0
5719 5980 -5981 0
5719 -5980 -5981 0
-5719 5980 -5981 0
-5719 -5980 5981 0
5719 5980 -5982 0
5719 -5980 5982 0
-5719 5980 5982 0
-5719 -5980 -5982 0
5714 5982 -5983 0
5714 -5982 -5983 0
-5714 5982 -5983 0
-5714 -5982 5983 0
5714 5982 -5984 0
5714 -5982 5984 0
-5714 5982 5984 0
-5714 -5982 -5984 0
5981 5983 -5985 0
5981 -5983 5985 0
-5981 5983 5985 0
-5981 -5983 -5985 0
8 70 -5986 0
8 -70 -5986 0
-8 70 -5986 0
-8 -70 5986 0
5725 5986 -5987 0
5725 -5986 -5987 0
-5725 5986 -5987 0
-5725 -5986 5987 0
5725 5986 -5988 0
5725 -5986 5988 0
-5725 5986 5988 0
-5725 -5986 -5988 0
5720 5988 -5989 0
5720 -5988 -5989 0
-5720 5988 -5989 0
-5720 -5988 5989 0
5720 5988 -5990 0
5720 -5988 5990 0
-5720 5988 5990 0
-5720 -5988 -5990 0
5987 5989 -5991 0
5987 -5989 5991 0
-5987 5989 5991 0
-5987 -5989 -5991 0
9 70 -5992 0
9 -70 -5992 0
-9 70 -5992 0
-9 -70 5992 0
5731 5992 -5993 0
5731 -5992 -5993 0
-5731 5992 -5993 0
-5731 -5992 5993 0
5731 5992 -5994 0
5731 -5992 5994 0
-5731 5992 5994 0
-5731 -5992 -5994 0
5726 5994 -5995 0
5726 -5994 -5995 0
-5726 5994 -5995 0
-5726 -5994 5995 0
5726 5994 -5996 0
5726 -5994 5996 0
-5726 5994 5996 0
-5726 -5994 -5996 0
5993 5995 -5997 0
5993 -5995 5997 0
-5993 5995 5997 0
-5993 -5995 -5997 0
10 70 -5998 0
10 -70 -5998 0
-10 70 -5998 0
-10 -70 5998 0
5737 5998 -5999 0
5737 -5998 -5999 0
-5737 5998 -5999 0
-5737 -5998 5999 0
5737 5998 -6000 0
5737 -5998 6000 0
-5737 5998 6000 0
-5737 -5998 -6000 0
5732 6000 -6001 0
5732 -6000 -6001 0
-5732 6000 -6001 0
-5732 -6000 6001 0
5732 6000 -6002 0
5732 -6000 6002 0
-5732 6000 6002 0
-5732 -6000 -6002 0
5999 6001 -6003 0
5999 -6001 6003 0
-5999 6001 6003 0
-5999 -6001 -6003 0
11 70 -6004 0
11 -70 -6004 0
-11 70 -6004 0
-11 -70 6004 0
5743 6004 -6005 0
5743 -6004 -6005 0
-5743 6004 -6005 0
-5743 -6004 6005 0
5743 6004 -6006 0
5743 -6004 6006 0
-5743 6004 6006 0
-5743 -6004 -6006 0
5738 6006 -6007 0
5738 -6006 -6007 0
-5738 6006 -6007 0
-5738 -6006 6007 0
5738 6006 -6008 0
5738 -6006 6008 0
-5738 6006 6008 0
-5738 -6006 -6008 0
6005 6007 -6009 0
6005 -6007 6009 0
-6005 6007 6009 0
-6005 -6007 -6009 0
12 70 -6010 0
12 -70 -6010 0
-12 70 -6010 0
-12 -70 6010 0
5749 6010 -6011 0
5749 -6010 -6011 0
-5749 6010 -6011 0
-5749 -6010 6011 0
5749 6010 -6012 0
5749 -6010 6012 0
-5749 6010 6012 0
-5749 -6010 -6012 0
5744 6012 -6013 0
5744 -6012 -6013 0
-5744 6012 -6013 0
-5744 -6012 6013 0
5744 6012 -6014 0
5744 -6012 6014 0
-5744 6012 6014 0
-5744 -6012 -6014 0
6011 6013 -6015 0
6011 -6013 6015 0
-6011 6013 6015 0
-6011 -6013 -6015 0
13 70 -6016 0
13 -70 -6016 0
-13 70 -6016 0
-13 -70 6016 0
5755 6016 -6017 0
5755 -6016 -6017 0
-5755 6016 -6017 0
-5755 -6016 6017 0
5755 6016 -6018 0
5755 -6016 6018 0
-5755 6016 6018 0
-5755 -6016 -6018 0
5750 6018 -6019 0
5750 -6018 -6019 0
-5750 6018 -6019 0
-5750 -6018 6019 0
5750 6018 -6020 0
5750 -6018 6020 0
-5750 6018 6020 0
-5750 -6018 -6020 0
6017 6019 -6021 0
6017 -6019 6021 0
-6017 6019 6021 0
-6017 -6019 -6021 0
14 70 -6022 0
14 -70 -6022 0
-14 70 -6022 0
-14 -70 6022 0
5761 6022 -6023 0
5761 -6022 -6023 0
-5761 6022 -6023 0
-5761 -6022 6023 0
5761 6022 -6024 0
5761 -6022 6024 0
-5761 6022 6024 0
-5761 -6022 -6024 0
5756 6024 -6025 0
5756 -6024 -6025 0
-5756 6024 -6025 0
-5756 -6024 6025 0
5756 6024 -6026 0
5756 -6024 6026 0
-5756 6024 6026 0
-5756 -6024 -6026 0
6023 6025 -6027 0
6023 -6025 6027 0
-6023 6025 6027 0
-6023 -6025 -6027 0
15 70 -6028 0
15 -70 -6028 0
-15 70 -6028 0
-15 -70 6028 0
5767 6028 -6029 0
5767 -6028 -6029 0
-5767 6028 -6029 0
-5767 -6028 6029 0
5767 6028 -6030 0
5767 -6028 6030 0
-5767 6028 6030 0
-5767 -6028 -6030 0
5762 6030 -6031 0
5762 -6030 -6031 0
-5762 6030 -6031 0
-5762 -6030 6031 0
5762 6030 -6032 0
5762 -6030 6032 0
-5762 6030 6032 0
-5762 -6030 -6032 0
6029 6031 -6033 0
6029 -6031 6033 0
-6029 6031 6033 0
-6029 -6031 -6033 0
16 70 -6034 0
16 -70 -6034 0
-16 70 -6034 0
-16 -70 6034 0
5773 6034 -6035 0
5773 -6034 -6035 0
-5773 6034 -6035 0
-5773 -6034 6035 0
5773 6034 -6036 0
5773 -6034 6036 0
-5773 6034 6036 0
-5773 -6034 -6036 0
5768 6036 -6037 0
5768 -6036 -6037 0
-5768 6036 -6037 0
-5768 -6036 6037 0
5768 6036 -6038 0
5768 -6036 6038 0
-5768 6036 6038 0
-5768 -6036 -6038 0
6035 6037 -6039 0
6035 -6037 6039 0
-6035 6037 6039 0
-6035 -6037 -6039 0
17 70 -6040 0
17 -70 -6040 0
-17 70 -6040 0
-17 -70 6040 0
5779 6040 -6041 0
5779 -6040 -6041 0
-5779 6040 -6041 0
-5779 -6040 6041 0
5779 6040 -6042 0
5779 -6040 6042 0
-5779 6040 6042 0
-5779 -6040 -6042 0
5774 6042 -6043 0
5774 -6042 -6043 0
-5774 6042 -6043 0
-5774 -6042 6043 0
5774 6042 -6044 0
5774 -6042 6044 0
-5774 6042 6044 0
-5774 -6042 -6044 0
6041 6043 -6045 0
6041 -6043 6045 0
-6041 6043 6045 0
-6041 -6043 -6045 0
18 70 -6046 0
18 -70 -6046 0
-18 70 -6046 0
-18 -70 6046 0
5785 6046 -6047 0
5785 -6046 -6047 0
-5785 6046 -6047 0
-5785 -6046 6047 0
5785 6046 -6048 0
5785 -6046 6048 0
-5785 6046 6048 0
-5785 -6046 -6048 0
5780 6048 -6049 0
5780 -6048 -6049 0
-5780 6048 -6049 0
-5780 -6048 6049 0
5780 6048 -6050 0
5780 -6048 6050 0
-5780 6048 6050 0
-5780 -6048 -6050 0
6047 6049 -6051 0
6047 -6049 6051 0
-6047 6049 6051 0
-6047 -6049 -6051 0
19 70 -6052 0
19 -70 -6052 0
-19 70 -6052 0
-19 -70 6052 0
5791 6052 -6053 0
5791 -6052 -6053 0
-5791 6052 -6053 0
-5791 -6052 6053 0
5791 6052 -6054 0
5791 -6052 6054 0
-5791 6052 6054 0
-5791 -6052 -6054 0
5786 6054 -6055 0
5786 -6054 -6055 0
-5786 6054 -6055 0
-5786 -6054 6055 0
5786 6054 -6056 0
5786 -6054 6056 0
-5786 6054 6056 0
-5786 -6054 -6056 0
6053 6055 -6057 0
6053 -6055 6057 0
-6053 6055 6057 0
-6053 -6055 -6057 0
20 70 -6058 0
20 -70 -6058 0
-20 70 -6058 0
-20 -70 6058 0
5797 6058 -6059 0
5797 -6058 -6059 0
-5797 6058 -6059 0
-5797 -6058 6059 0
5797 6058 -6060 0
5797 -6058 6060 0
-5797 6058 6060 0
-5797 -6058 -6060 0
5792 6060 -6061 0
5792 -6060 -6061 0
-5792 6060 -6061 0
-5792 -6060 6061 0
5792 6060 -6062 0
5792 -6060 6062 0
-5792 6060 6062 0
-5792 -6060 -6062 0
6059 6061 -6063 0
6059 -6061 6063 0
-6059 6061 6063 0
-6059 -6061 -6063 0
21 70 -6064 0
21 -70 -6064 0
-21 70 -6064 0
-21 -70 6064 0
5803 6064 -6065 0
5803 -6064 -6065 0
-5803 6064 -6065 0
-5803 -6064 6065 0
5803 6064 -6066 0
5803 -6064 6066 0
-5803 6064 6066 0
-5803 -6064 -6066 0
5798 6066 -6067 0
5798 -6066 -6067 0
-5798 6066 -6067 0
-5798 -6066 6067 0
5798 6066 -6068 0
5798 -6066 6068 0
-5798 6066 6068 0
-5798 -6066 -6068 0
6065 6067 -6069 0
6065 -6067 6069 0
-6065 6067 6069 0
-6065 -6067 -6069 0
22 70 -6070 0
22 -70 -6070 0
-22 70 -6070 0
-22 -70 6070 0
5809 6070 -6071 0
5809 -6070 -6071 0
-5809 6070 -6071 0
-5809 -6070 6071 0
5809 6070 -6072 0
5809 -6070 6072 0
-5809 6070 6072 0
-5809 -6070 -6072 0
5804 6072 -6073 0
5804 -6072 -6073 0
-5804 6072 -6073 0
-5804 -6072 6073 0
5804 6072 -6074 0
5804 -6072 6074 0
-5804 6072 6074 0
-5804 -6072 -6074 0
6071 6073 -6075 0
6071 -6073 6075 0
-6071 6073 6075 0
-6071 -6073 -6075 0
23 70 -6076 0
23 -70 -6076 0
-23 70 -6076 0
-23 -70 6076 0
5815 6076 -6077 0
5815 -6076 -6077 0
-5815 6076 -6077 0
-5815 -6076 6077 0
5815 6076 -6078 0
5815 -6076 6078 0
-5815 6076 6078 0
-5815 -6076 -6078 0
5810 6078 -6079 0
5810 -6078 -6079 0
-5810 6078 -6079 0
-5810 -6078 6079 0
5810 6078 -6080 0
5810 -6078 6080 0
-5810 6078 6080 0
-5810 -6078 -6080 0
6077 6079 -6081 0
6077 -6079 6081 0
-6077 6079 6081 0
-6077 -6079 -6081 0
24 70 -6082 0
24 -70 -6082 0
-24 70 -6082 0
-24 -70 6082 0
5821 6082 -6083 0
5821 -6082 -6083 0
-5821 6082 -6083 0
-5821 -6082 6083 0
5821 6082 -6084 0
5821 -6082 6084 0
-5821 6082 6084 0
-5821 -6082 -6084 0
5816 6084 -6085 0
5816 -6084 -6085 0
-5816 6084 -6085 0
-5816 -6084 6085 0
5816 6084 -6086 0
5816 -6084 6086 0
-5816 6084 6086 0
-5816 -6084 -6086 0
6083 6085 -6087 0
6083 -6085 6087 0
-6083 6085 6087 0
-6083 -6085 -6087 0
25 70 -6088 0
25 -70 -6088 0
-25 70 -6088 0
-25 -70 6088 0
5827 6088 -6089 0
5827 -6088 -6089 0
-5827 6088 -6089 0
-5827 -6088 6089 0
5827 6088 -6090 0
5827 -6088 6090 0
-5827 6088 6090 0
-5827 -6088 -6090 0
5822 6090 -6091 0
5822 -6090 -6091 0
-5822 6090 -6091 0
-5822 -6090 6091 0
5822 6090 -6092 0
5822 -6090 6092 0
-5822 6090 6092 0
-5822 -6090 -6092 0
6089 6091 -6093 0
6089 -6091 6093 0
-6089 6091 6093 0
-6089 -6091 -6093 0
26 70 -6094 0
26 -70 -6094 0
-26 70 -6094 0
-26 -70 6094 0
5833 6094 -6095 0
5833 -6094 -6095 0
-5833 6094 -6095 0
-5833 -6094 6095 0
5833 6094 -6096 0
5833 -6094 6096 0
-5833 6094 6096 0
-5833 -6094 -6096 0
5828 6096 -6097 0
5828 -6096 -6097 0
-5828 6096 -6097 0
-5828 -6096 6097 0
5828 6096 -6098 0
5828 -6096 6098 0
-5828 6096 6098 0
-5828 -6096 -6098 0
6095 6097 -6099 0
6095 -6097 6099 0
-6095 6097 6099 0
-6095 -6097 -6099 0
27 70 -6100 0
27 -70 -6100 0
-27 70 -6100 0
-27 -70 6100 0
5839 6100 -6101 0
5839 -6100 -6101 0
-5839 6100 -6101 0
-5839 -6100 6101 0
5839 6100 -6102 0
5839 -6100 6102 0
-5839 6100 6102 0
-5839 -6100 -6102 0
5834 6102 -6103 0
5834 -6102 -6103 0
-5834 6102 -6103 0
-5834 -6102 6103 0
5834 6102 -6104 0
5834 -6102 6104 0
-5834 6102 6104 0
-5834 -6102 -6104 0
6101 6103 -6105 0
6101 -6103 6105 0
-6101 6103 6105 0
-6101 -6103 -6105 0
28 70 -6106 0
28 -70 -6106 0
-28 70 -6106 0
-28 -70 6106 0
5845 6106 -6107 0
5845 -6106 -6107 0
-5845 6106 -6107 0
-5845 -6106 6107 0
5845 6106 -6108 0
5845 -6106 6108 0
-5845 6106 6108 0
-5845 -6106 -6108 0
5840 6108 -6109 0
5840 -6108 -6109 0
-5840 6108 -6109 0
-5840 -6108 6109 0
5840 6108 -6110 0
5840 -6108 6110 0
-5840 6108 6110 0
-5840 -6108 -6110 0
6107 6109 -6111 0
6107 -6109 6111 0
-6107 6109 6111 0
-6107 -6109 -6111 0
29 70 -6112 0
29 -70 -6112 0
-29 70 -6112 0
-29 -70 6112 0
5851 6112 -6113 0
5851 -6112 -6113 0
-5851 6112 -6113 0
-5851 -6112 6113 0
5851 6112 -6114 0
5851 -6112 6114 0
-5851 6112 6114 0
-5851 -6112 -6114 0
5846 6114 -6115 0
5846 -6114 -6115 0
-5846 6114 -6115 0
-5846 -6114 6115 0
5846 6114 -6116 0
5846 -6114 6116 0
-5846 6114 6116 0
-5846 -6114 -6116 0
6113 6115 -6117 0
6113 -6115 6117 0
-6113 6115 6117 0
-6113 -6115 -6117 0
30 70 -6118 0
30 -70 -6118 0
-30 70 -6118 0
-30 -70 6118 0
5857 6118 -6119 0
5857 -6118 -6119 0
-5857 6118 -6119 0
-5857 -6118 6119 0
5857 6118 -6120 0
5857 -6118 6120 0
-5857 6118 6120 0
-5857 -6118 -6120 0
5852 6120 -6121 0
5852 -6120 -6121 0
-5852 6120 -6121 0
-5852 -6120 6121 0
5852 6120 -6122 0
5852 -6120 6122 0
-5852 6120 6122 0
-5852 -6120 -6122 0
6119 6121 -6123 0
6119 -6121 6123 0
-6119 6121 6123 0
-6119 -6121 -6123 0
31 70 -6124 0
31 -70 -6124 0
-31 70 -6124 0
-31 -70 6124 0
5863 6124 -6125 0
5863 -6124 -6125 0
-5863 6124 -6125 0
-5863 -6124 6125 0
5863 6124 -6126 0
5863 -6124 6126 0
-5863 6124 6126 0
-5863 -6124 -6126 0
5858 6126 -6127 0
5858 -6126 -6127 0
-5858 6126 -6127 0
-5858 -6126 6127 0
5858 6126 -6128 0
5858 -6126 6128 0
-5858 6126 6128 0
-5858 -6126 -6128 0
6125 6127 -6129 0
6125 -6127 6129 0
-6125 6127 6129 0
-6125 -6127 -6129 0
32 70 -6130 0
32 -70 -6130 0
-32 70 -6130 0
-32 -70 6130 0
5869 6130 -6131 0
5869 -6130 -6131 0
-5869 6130 -6131 0
-5869 -6130 6131 0
5869 6130 -6132 0
5869 -6130 6132 0
-5869 6130 6132 0
-5869 -6130 -6132 0
5864 6132 -6133 0
5864 -6132 -6133 0
-5864 6132 -6133 0
-5864 -6132 6133 0
5864 6132 -6134 0
5864 -6132 6134 0
-5864 6132 6134 0
-5864 -6132 -6134 0
6131 6133 -6135 0
6131 -6133 6135 0
-6131 6133 6135 0
-6131 -6133 -6135 0
33 70 -6136 0
33 -70 -6136 0
-33 70 -6136 0
-33 -70 6136 0
5875 6136 -6137 0
5875 -6136 -6137 0
-5875 6136 -6137 0
-5875 -6136 6137 0
5875 6136 -6138 0
5875 -6136 6138 0
-5875 6136 6138 0
-5875 -6136 -6138 0
5870 6138 -6139 0
5870 -6138 -6139 0
-5870 6138 -6139 0
-5870 -6138 6139 0
5870 6138 -6140 0
5870 -6138 6140 0
-5870 6138 6140 0
-5870 -6138 -6140 0
6137 6139 -6141 0
6137 -6139 6141 0
-6137 6139 6141 0
-6137 -6139 -6141 0
34 70 -6142 0
34 -70 -6142 0
-34 70 -6142 0
-34 -70 6142 0
5881 6142 -6143 0
5881 -6142 -6143 0
-5881 6142 -6143 0
-5881 -6142 6143 0
5881 6142 -6144 0
5881 -6142 6144 0
-5881 6142 6144 0
-5881 -6142 -6144 0
5876 6144 -6145 0
5876 -6144 -6145 0
-5876 6144 -6145 0
-5876 -6144 6145 0
5876 6144 -6146 0
5876 -6144 6146 0
-5876 6144 6146 0
-5876 -6144 -6146 0
6143 6145 -6147 0
6143 -6145 6147 0
-6143 6145 6147 0
-6143 -6145 -6147 0
35 70 -6148 0
35 -70 -6148 0
-35 70 -6148 0
-35 -70 6148 0
5887 6148 -6149 0
5887 -6148 -6149 0
-5887 6148 -6149 0
-5887 -6148 6149 0
5887 6148 -6150 0
5887 -6148 6150 0
-5887 6148 6150 0
-5887 -6148 -6150 0
5882 6150 -6151 0
5882 -6150 -6151 0
-5882 6150 -6151 0
-5882 -6150 6151 0
5882 6150 -6152 0
5882 -6150 6152 0
-5882 6150 6152 0
-5882 -6150 -6152 0
6149 6151 -6153 0
6149 -6151 6153 0
-6149 6151 6153 0
-6149 -6151 -6153 0
36 70 -6154 0
36 -70 -6154 0
-36 70 -6154 0
-36 -70 6154 0
5893 6154 -6155 0
5893 -6154 -6155 0
-5893 6154 -6155 0
-5893 -6154 6155 0
5893 6154 -6156 0
5893 -6154 6156 0
-5893 6154 6156 0
-5893 -6154 -6156 0
5888 6156 -6157 0
5888 -6156 -6157 0
-5888 6156 -6157 0
-5888 -6156 6157 0
5888 6156 -6158 0
5888 -6156 6158 0
-5888 6156 6158 0
-5888 -6156 -6158 0
6155 6157 -6159 0
6155 -6157 6159 0
-6155 6157 6159 0
-6155 -6157 -6159 0
37 70 -6160 0
37 -70 -6160 0
-37 70 -6160 0
-37 -70 6160 0
5899 6160 -6161 0
5899 -6160 -6161 0
-5899 6160 -6161 0
-5899 -6160 6161 0
5899 6160 -6162 0
5899 -6160 6162 0
-5899 6160 6162 0
-5899 -6160 -6162 0
5894 6162 -6163 0
5894 -6162 -6163 0
-5894 6162 -6163 0
-5894 -6162 6163 0
5894 6162 -6164 0
5894 -6162 6164 0
-5894 6162 6164 0
-5894 -6162 -6164 0
6161 6163 -6165 0
6161 -6163 6165 0
-6161 6163 6165 0
-6161 -6163 -6165 0
38 70 -6166 0
38 -70 -6166 0
-38 70 -6166 0
-38 -70 6166 0
5905 6166 -6167 0
5905 -6166 -6167 0
-5905 6166 -6167 0
-5905 -6166 6167 0
5905 6166 -6168 0
5905 -6166 6168 0
-5905 6166 6168 0
-5905 -6166 -6168 0
5900 6168 -6169 0
5900 -6168 -6169 0
-5900 6168 -6169 0
-5900 -6168 6169 0
5900 6168 -6170 0
5900 -6168 6170 0
-5900 6168 6170 0
-5900 -6168 -6170 0
6167 6169 -6171 0
6167 -6169 6171 0
-6167 6169 6171 0
-6167 -6169 -6171 0
39 70 -6172 0
39 -70 -6172 0
-39 70 -6172 0
-39 -70 6172 0
5911 6172 -6173 0
5911 -6172 -6173 0
-5911 6172 -6173 0
-5911 -6172 6173 0
5911 6172 -6174 0
5911 -6172 6174 0
-5911 6172 6174 0
-5911 -6172 -6174 0
5906 6174 -6175 0
5906 -6174 -6175 0
-5906 6174 -6175 0
-5906 -6174 6175 0
5906 6174 -6176 0
5906 -6174 6176 0
-5906 6174 6176 0
-5906 -6174 -6176 0
6173 6175 -6177 0
6173 -6175 6177 0
-6173 6175 6177 0
-6173 -6175 -6177 0
40 70 -6178 0
40 -70 -6178 0
-40 70 -6178 0
-40 -70 6178 0
5917 6178 -6179 0
5917 -6178 -6179 0
-5917 6178 -6179 0
-5917 -6178 6179 0
5917 6178 -6180 0
5917 -6178 6180 0
-5917 6178 6180 0
-5917 -6178 -6180 0
5912 6180 -6181 0
5912 -6180 -6181 0
-5912 6180 -6181 0
-5912 -6180 6181 0
5912 6180 -6182 0
5912 -6180 6182 0
-5912 6180 6182 0
-5912 -6180 -6182 0
6179 6181 -6183 0
6179 -6181 6183 0
-6179 6181 6183 0
-6179 -6181 -6183 0
41 70 -6184 0
41 -70 -6184 0
-41 70 -6184 0
-41 -70 6184 0
5923 6184 -6185 0
5923 -6184 -6185 0
-5923 6184 -6185 0
-5923 -6184 6185 0
5923 6184 -6186 0
5923 -6184 6186 0
-5923 6184 6186 0
-5923 -6184 -6186 0
5918 6186 -6187 0
5918 -6186 -6187 0
-5918 6186 -6187 0
-5918 -6186 6187 0
5918 6186 -6188 0
5918 -6186 6188 0
-5918 6186 6188 0
-5918 -6186 -6188 0
6185 6187 -6189 0
6185 -6187 6189 0
-6185 6187 6189 0
-6185 -6187 -6189 0
42 70 -6190 0
42 -70 -6190 0
-42 70 -6190 0
-42 -70 6190 0
5929 6190 -6191 0
5929 -6190 -6191 0
-5929 6190 -6191 0
-5929 -6190 6191 0
5929 6190 -6192 0
5929 -6190 6192 0
-5929 6190 6192 0
-5929 -6190 -6192 0
5924 6192 -6193 0
5924 -6192 -6193 0
-5924 6192 -6193 0
-5924 -6192 6193 0
5924 6192 -6194 0
5924 -6192 6194 0
-5924 6192 6194 0
-5924 -6192 -6194 0
6191 6193 -6195 0
6191 -6193 6195 0
-6191 6193 6195 0
-6191 -6193 -6195 0
43 70 -6196 0
43 -70 -6196 0
-43 70 -6196 0
-43 -70 6196 0
5935 6196 -6197 0
5935 -6196 -6197 0
-5935 6196 -6197 0
-5935 -6196 6197 0
5935 6196 -6198 0
5935 -6196 6198 0
-5935 6196 6198 0
-5935 -6196 -6198 0
5930 6198 -6199 0
5930 -6198 -6199 0
-5930 6198 -6199 0
-5930 -6198 6199 0
5930 6198 -6200 0
5930 -6198 6200 0
-5930 6198 6200 0
-5930 -6198 -6200 0
6197 6199 -6201 0
6197 -6199 6201 0
-6197 6199 6201 0
-6197 -6199 -6201 0
44 70 -6202 0
44 -70 -6202 0
-44 70 -6202 0
-44 -70 6202 0
5941 6202 -6203 0
5941 -6202 -6203 0
-5941 6202 -6203 0
-5941 -6202 6203 0
5941 6202 -6204 0
5941 -6202 6204 0
-5941 6202 6204 0
-5941 -6202 -6204 0
5936 6204 -6205 0
5936 -6204 -6205 0
-5936 6204 -6205 0
-5936 -6204 6205 0
5936 6204 -6206 0
5936 -6204 6206 0
-5936 6204 6206 0
-5936 -6204 -6206 0
6203 6205 -6207 0
6203 -6205 6207 0
-6203 6205 6207 0
-6203 -6205 -6207 0
45 70 -6208 0
45 -70 -6208 0
-45 70 -6208 0
-45 -70 6208 0
5943 6208 -6209 0
5943 -6208 -6209 0
-5943 6208 -6209 0
-5943 -6208 6209 0
5943 6208 -6210 0
5943 -6208 6210 0
-5943 6208 6210 0
-5943 -6208 -6210 0
5942 6210 -6211 0
5942 -6210 -6211 0
-5942 6210 -6211 0
-5942 -6210 6211 0
5942 6210 -6212 0
5942 -6210 6212 0
-5942 6210 6212 0
-5942 -6210 -6212 0
6209 6211 -6213 0
6209 -6211 6213 0
-6209 6211 6213 0
-6209 -6211 -6213 0
46 70 -6214 0
46 -70 -6214 0
-46 70 -6214 0
-46 -70 6214 0
5949 5954 -6215 0
5949 -5954 -6215 0
-5949 5954 -6215 0
-5949 -5954 6215 0
5949 5954 -6216 0
5949 -5954 6216 0
-5949 5954 6216 0
-5949 -5954 -6216 0
5955 5960 -6217 0
5955 -5960 -6217 0
-5955 5960 -6217 0
-5955 -5960 6217 0
5955 5960 -6218 0
5955 -5960 6218 0
-5955 5960 6218 0
-5955 -5960 -6218 0
6215 6218 -6219 0
6215 -6218 -6219 0
-6215 6218 -6219 0
-6215 -6218 6219 0
6215 6218 -6220 0
6215 -6218 6220 0
-6215 6218 6220 0
-6215 -6218 -6220 0
6217 6219 -6221 0
6217 -6219 6221 0
-6217 6219 6221 0
-6217 -6219 -6221 0
5961 5966 -6222 0
5961 -5966 -6222 0
-5961 5966 -6222 0
-5961 -5966 6222 0
5961 5966 -6223 0
5961 -5966 6223 0
-5961 5966 6223 0
-5961 -5966 -6223 0
6221 6223 -6224 0
6221 -6223 -6224 0
-6221 6223 -6224 0
-6221 -6223 6224 0
6221 6223 -6225 0
6221 -6223 6225 0
-6221 6223 6225 0
-6221 -6223 -6225 0
6222 6224 -6226 0
6222 -6224 6226 0
-6222 6224 6226 0
-6222 -6224 -6226 0
5967 5972 -6227 0
5967 -5972 -6227 0
-5967 5972 -6227 0
-5967 -5972 6227 0
5967 5972 -6228 0
5967 -5972 6228 0
-5967 5972 6228 0
-5967 -5972 -6228 0
6226 6228 -6229 0
6226 -6228 -6229 0
-6226 6228 -6229 0
-6226 -6228 6229 0
6226 6228 -6230 0
6226 -6228 6230 0
-6226 6228 6230 0
-6226 -6228 -6230 0
6227 6229 -6231 0
6227 -6229 6231 0
-6227 6229 6231 0
-6227 -6229 -6231 0
5973 5978 -6232 0
5973 -5978 -6232 0
-5973 5978 -6232 0
-5973 -5978 6232 0
5973 5978 -6233 0
5973 -5978 6233 0
-5973 5978 6233 0
-5973 -5978 -6233 0
6231 6233 -6234 0
6231 -6233 -6234 0
-6231 6233 -6234 0
-6231 -6233 6234 0
6231 6233 -6235 0
6231 -6233 6235 0
-6231 6233 6235 0
-6231 -6233 -6235 0
6232 6234 -6236 0
6232 -6234 6236 0
-6232 6234 6236 0
-6232 -6234 -6236 0
5979 5984 -6237 0
5979 -5984 -6237 0
-5979 5984 -6237 0
-5979 -5984 6237 0
5979 5984 -6238 0
5979 -5984 6238 0
-5979 5984 6238 0
-5979 -5984 -6238 0
6236 6238 -6239 0
6236 -6238 -6239 0
-6236 6238 -6239 0
-6236 -6238 6239 0
6236 6238 -6240 0
6236 -6238 6240 0
-6236 6238 6240 0
-6236 -6238 -6240 0
6237 6239 -6241 0
6237 -6239 6241 0
-6237 6239 6241 0
-6237 -6239 -6241 0
5985 5990 -6242 0
5985 -5990 -6242 0
-5985 5990 -6242 0
-5985 -5990 6242 0
5985 5990 -6243 0
5985 -5990 6243 0
-5985 5990 6243 0
-5985 -5990 -6243 0
6241 6243 -6244 0
6241 -6243 -6244 0
-6241 6243 -6244 0
-6241 -6243 6244 0
6241 6243 -6245 0
6241 -6243 6245 0
-6241 6243 6245 0
-6241 -6243 -6245 0
6242 6244 -6246 0
6242 -6244 6246 0
-6242 6244 6246 0
-6242 -6244 -6246 0
5991 5996 -6247 0
5991 -5996 -6247 0
-5991 5996 -6247 0
-5991 -5996 6247 0
5991 5996 -6248 0
5991 -5996 6248 0
-5991 5996 6248 0
-5991 -5996 -6248 0
6246 6248 -6249 0
6246 -6248 -6249 0
-6246 6248 -6249 0
-6246 -6248 6249 0
6246 6248 -6250 0
6246 -6248 6250 0
-6246 6248 6250 0
-6246 -6248 -6250 0
6247 6249 -6251 0
6247 -6249 6251 0
-6247 6249 6251 0
-6247 -6249 -6251 0
5997 6002 -6252 0
5997 -6002 -6252 0
-5997 6002 -6252 0
-5997 -6002 6252 0
5997 6002 -6253 0
5997 -6002 6253 0
-5997 6002 6253 0
-5997 -6002 -6253 0
6251 6253 -6254 0
6251 -6253 -6254 0
-6251 6253 -6254 0
-6251 -6253 6254 0
6251 6253 -6255 0
6251 -6253 6255 0
-6251 6253 6255 0
-6251 -6253 -6255 0
6252 6254 -6256 0
6252 -6254 6256 0
-6252 6254 6256 0
-6252 -6254 -6256 0
6003 6008 -6257 0
6003 -6008 -6257 0
-6003 6008 -6257 0
-6003 -6008 6257 0
6003 6008 -6258 0
6003 -6008 6258 0
-6003 6008 6258 0
-6003 -6008 -6258 0
6256 6258 -6259 0
6256 -6258 -6259 0
-6256 6258 -6259 0
-6256 -6258 6259 0
6256 6258 -6260 0
6256 -6258 6260 0
-6256 6258 6260 0
-6256 -6258 -6260 0
6257 6259 -6261 0
6257 -6259 6261 0
-6257 6259 6261 0
-6257 -6259 -6261 0
6009 6014 -6262 0
6009 -6014 -6262 0
-6009 6014 -6262 0
-6009 -6014 6262 0
6009 6014 -6263 0
6009 -6014 6263 0
-6009 6014 6263 0
-6009 -6014 -6263 0
6261 6263 -6264 0
6261 -6263 -6264 0
-6261 6263 -6264 0
-6261 -6263 6264 0
6261 6263 -6265 0
6261 -6263 6265 0
-6261 6263 6265 0
-6261 -6263 -6265 0
6262 6264 -6266 0
6262 -6264 6266 0
-6262 6264 6266 0
-6262 -6264 -6266 0
6015 6020 -6267 0
6015 -6020 -6267 0
-6015 6020 -6267 0
-6015 -6020 6267 0
6015 6020 -6268 0
6015 -6020 6268 0
-6015 6020 6268 0
-6015 -6020 -6268 0
6266 6268 -6269 0
6266 -6268 -6269 0
-6266 6268 -6269 0
-6266 -6268 6269 0
6266 6268 -6270 0
6266 -6268 6270 0
-6266 6268 6270 0
-6266 -6268 -6270 0
6267 6269 -6271 0
6267 -6269 6271 0
-6267 6269 6271 0
-6267 -6269 -6271 0
6021 6026 -6272 0
6021 -6026 -6272 0
-6021 6026 -6272 0
-6021 -6026 6272 0
6021 6026 -6273 0
6021 -6026 6273 0
-6021 6026 6273 0
-6021 -6026 -6273 0
6271 6273 -6274 0
6271 -6273 -6274 0
-6271 6273 -6274 0
-6271 -6273 6274 0
6271 6273 -6275 0
6271 -6273 6275 0
-6271 6273 6275 0
-6271 -6273 -6275 0
6272 6274 -6276 0
6272 -6274 6276 0
-6272 6274 6276 0
-6272 -6274 -6276 0
6027 6032 -6277 0
6027 -6032 -6277 0
-6027 6032 -6277 0
-6027 -6032 6277 0
6027 6032 -6278 0
6027 -6032 6278 0
-6027 6032 6278 0
-6027 -6032 -6278 0
6276 6278 -6279 0
6276 -6278 -6279 0
-6276 6278 -6279 0
-6276 -6278 6279 0
6276 6278 -6280 0
6276 -6278 6280 0
-6276 6278 6280 0
-6276 -6278 -6280 0
6277 6279 -6281 0
6277 -6279 6281 0
-6277 6279 6281 0
-6277 -6279 -6281 0
6033 6038 -6282 0
6033 -6038 -6282 0
-6033 6038 -6282 0
-6033 -6038 6282 0
6033 6038 -6283 0
6033 -6038 6283 0
-6033 6038 6283 0
-6033 -6038 -6283 0
6281 6283 -6284 0
6281 -6283 -6284 0
-6281 6283 -6284 0
-6281 -6283 6284 0
6281 6283 -6285 0
6281 -6283 6285 0
-6281 6283 6285 0
-6281 -6283 -6285 0
6282 6284 -6286 0
6282 -6284 6286 0
-6282 6284 6286 0
-6282 -6284 -6286 0
6039 6044 -6287 0
6039 -6044 -6287 0
-6039 6044 -6287 0
-6039 -6044 6287 0
6039 6044 -6288 0
6039 -6044 6288 0
-6039 6044 6288 0
-6039 -6044 -6288 0
6286 6288 -6289 0
6286 -6288 -6289 0
-6286 6288 -6289 0
-6286 -6288 6289 0
6286 6288 -6290 0
6286 -6288 6290 0
-6286 6288 6290 0
-6286 -6288 -6290 0
6287 6289 -6291 0
6287 -6289 6291 0
-6287 6289 6291 0
-6287 -6289 -6291 0
6045 6050 -6292 0
6045 -6050 -6292 0
-6045 6050 -6292 0
-6045 -6050 6292 0
6045 6050 -6293 0
6045 -6050 6293 0
-6045 6050 6293 0
-6045 -6050 -6293 0
6291 6293 -6294 0
6291 -6293 -6294 0
-6291 6293 -6294 0
-6291 -6293 6294 0
6291 6293 -6295 0
6291 -6293 6295 0
-6291 6293 6295 0
-6291 -6293 -6295 0
6292 6294 -6296 0
6292 -6294 6296 0
-6292 6294 6296 0
-6292 -6294 -6296 0
6051 6056 -6297 0
6051 -6056 -6297 0
-6051 6056 -6297 0
-6051 -6056 6297 0
6051 6056 -6298 0
6051 -6056 6298 0
-6051 6056 6298 0
-6051 -6056 -6298 0
6296 6298 -6299 0
6296 -6298 -6299 0
-6296 6298 -6299 0
-6296 -6298 6299 0
6296 6298 -6300 0
6296 -6298 6300 0
-6296 6298 6300 0
-6296 -6298 -6300 0
6297 6299 -6301 0
6297 -6299 6301 0
-6297 6299 6301 0
-6297 -6299 -6301 0
6057 6062 -6302 0
6057 -6062 -6302 0
-6057 6062 -6302 0
-6057 -6062 6302 0
6057 6062 -6303 0
6057 -6062 6303 0
-6057 6062 6303 0
-6057 -6062 -6303 0
6301 6303 -6304 0
6301 -6303 -6304 0
-6301 6303 -6304 0
-6301 -6303 6304 0
6301 6303 -6305 0
6301 -6303 6305 0
-6301 6303 6305 0
-6301 -6303 -6305 0
6302 6304 -6306 0
6302 -6304 6306 0
-6302 6304 6306 0
-6302 -6304 -6306 0
6063 6068 -6307 0
6063 -6068 -6307 0
-6063 6068 -6307 0
-6063 -6068 6307 0
6063 6068 -6308 0
6063 -6068 6308 0
-6063 6068 6308 0
-6063 -6068 -6308 0
6306 6308 -6309 0
6306 -6308 -6309 0
-6306 6308 -6309 0
-6306 -6308 6309 0
6306 6308 -6310 0
6306 -6308 6310 0
-6306 6308 6310 0
-6306 -6308 -6310 0
6307 6309 -6311 0
6307 -6309 6311 0
-6307 6309 6311 0
-6307 -6309 -6311 0
6069 6074 -6312 0
6069 -6074 -6312 0
-6069 6074 -6312 0
-6069 -6074 6312 0
6069 6074 -6313 0
6069 -6074 6313 0
-6069 6074 6313 0
-6069 -6074 -6313 0
6311 6313 -6314 0
6311 -6313 -6314 0
-6311 6313 -6314 0
-6311 -6313 6314 0
6311 6313 -6315 0
6311 -6313 6315 0
-6311 6313 6315 0
-6311 -6313 -6315 0
6312 6314 -6316 0
6312 -6314 6316 0
-6312 6314 6316 0
-6312 -6314 -6316 0
6075 6080 -6317 0
6075 -6080 -6317 0
-6075 6080 -6317 0
-6075 -6080 6317 0
6075 6080 -6318 0
6075 -6080 6318 0
-6075 6080 6318 0
-6075 -6080 -6318 0
6316 6318 -6319 0
6316 -6318 -6319 0
-6316 6318 -6319 0
-6316 -6318 6319 0
6316 6318 -6320 0
6316 -6318 6320 0
-6316 6318 6320 0
-6316 -6318 -6320 0
6317 6319 -6321 0
6317 -6319 6321 0
-6317 6319 6321 0
-6317 -6319 -6321 0
6081 6086 -6322 0
6081 -6086 -6322 0
-6081 6086 -6322 0
-6081 -6086 6322 0
6081 6086 -6323 0
6081 -6086 6323 0
-6081 6086 6323 0
-6081 -6086 -6323 0
6321 6323 -6324 0
6321 -6323 -6324 0
-6321 6323 -6324 0
-6321 -6323 6324 0
6321 6323 -6325 0
6321 -6323 6325 0
-6321 6323 6325 0
-6321 -6323 -6325 0
6322 6324 -6326 0
6322 -6324 6326 0
-6322 6324 6326 0
-6322 -6324 -6326 0
6087 6092 -6327 0
6087 -6092 -6327 0
-6087 6092 -6327 0
-6087 -6092 6327 0
6087 6092 -6328 0
6087 -6092 6328 0
-6087 6092 6328 0
-6087 -6092 -6328 0
6326 6328 -6329 0
6326 -6328 -6329 0
-6326 6328 -6329 0
-6326 -6328 6329 0
6326 6328 -6330 0
6326 -6328 6330 0
-6326 6328 6330 0
-6326 -6328 -6330 0
6327 6329 -6331 0
6327 -6329 6331 0
-6327 6329 6331 0
-6327 -6329 -6331 0
6093 6098 -6332 0
6093 -6098 -6332 0
-6093 6098 -6332 0
-6093 -6098 6332 0
6093 6098 -6333 0
6093 -6098 6333 0
-6093 6098 6333 0
-6093 -6098 -6333 0
6331 6333 -6334 0
6331 -6333 -6334 0
-6331 6333 -6334 0
-6331 -6333 6334 0
6331 6333 -6335 0
6331 -6333 6335 0
-6331 6333 6335 0
-6331 -6333 -6335 0
6332 6334 -6336 0
6332 -6334 6336 0
-6332 6334 6336 0
-6332 -6334 -6336 0
6099 6104 -6337 0
6099 -6104 -6337 0
-6099 6104 -6337 0
-6099 -6104 6337 0
6099 6104 -6338 0
6099 -6104 6338 0
-6099 6104 6338 0
-6099 -6104 -6338 0
6336 6338 -6339 0
6336 -6338 -6339 0
-6336 6338 -6339 0
-6336 -6338 6339 0
6336 6338 -6340 0
6336 -6338 6340 0
-6336 6338 6340 0
-6336 -6338 -6340 0
6337 6339 -6341 0
6337 -6339 6341 0
-6337 6339 6341 0
-6337 -6339 -6341 0
6105 6110 -6342 0
6105 -6110 -6342 0
-6105 6110 -6342 0
-6105 -6110 6342 0
6105 6110 -6343 0
6105 -6110 6343 0
-6105 6110 6343 0
-6105 -6110 -6343 0
6341 6343 -6344 0
6341 -6343 -6344 0
-6341 6343 -6344 0
-6341 -6343 6344 0
6341 6343 -6345 0
6341 -6343 6345 0
-6341 6343 6345 0
-6341 -6343 -6345 0
6342 6344 -6346 0
6342 -6344 6346 0
-6342 6344 6346 0
-6342 -6344 -6346 0
6111 6116 -6347 0
6111 -6116 -6347 0
-6111 6116 -6347 0
-6111 -6116 6347 0
6111 6116 -6348 0
6111 -6116 6348 0
-6111 6116 6348 0
-6111 -6116 -6348 0
6346 6348 -6349 0
6346 -6348 -6349 0
-6346 6348 -6349 0
-6346 -6348 6349 0
6346 6348 -6350 0
6346 -6348 6350 0
-6346 6348 6350 0
-6346 -6348 -6350 0
6347 6349 -6351 0
6347 -6349 6351 0
-6347 6349 6351 0
-6347 -6349 -6351 0
6117 6122 -6352 0
6117 -6122 -6352 0
-6117 6122 -6352 0
-6117 -6122 6352 0
6117 6122 -6353 0
6117 -6122 6353 0
-6117 6122 6353 0
-6117 -6122 -6353 0
6351 6353 -6354 0
6351 -6353 -6354 0
-6351 6353 -6354 0
-6351 -6353 6354 0
6351 6353 -6355 0
6351 -6353 6355 0
-6351 6353 6355 0
-6351 -6353 -6355 0
6352 6354 -6356 0
6352 -6354 6356 0
-6352 6354 6356 0
-6352 -6354 -6356 0
6123 6128 -6357 0
6123 -6128 -6357 0
-6123 6128 -6357 0
-6123 -6128 6357 0
6123 6128 -6358 0
6123 -6128 6358 0
-6123 6128 6358 0
-6123 -6128 -6358 0
6356 6358 -6359 0
6356 -6358 -6359 0
-6356 6358 -6359 0
-6356 -6358 6359 0
6356 6358 -6360 0
6356 -6358 6360 0
-6356 6358 6360 0
-6356 -6358 -6360 0
6357 6359 -6361 0
6357 -6359 6361 0
-6357 6359 6361 0
-6357 -6359 -6361 0
6129 6134 -6362 0
6129 -6134 -6362 0
-6129 6134 -6362 0
-6129 -6134 6362 0
6129 6134 -6363 0
6129 -6134 6363 0
-6129 6134 6363 0
-6129 -6134 -6363 0
6361 6363 -6364 0
6361 -6363 -6364 0
-6361 6363 -6364 0
-6361 -6363 6364 0
6361 6363 -6365 0
6361 -6363 6365 0
-6361 6363 6365 0
-6361 -6363 -6365 0
6362 6364 -6366 0
6362 -6364 6366 0
-6362 6364 6366 0
-6362 -6364 -6366 0
6135 6140 -6367 0
6135 -6140 -6367 0
-6135 6140 -6367 0
-6135 -6140 6367 0
6135 6140 -6368 0
6135 -6140 6368 0
-6135 6140 6368 0
-6135 -6140 -6368 0
6366 6368 -6369 0
6366 -6368 -6369 0
-6366 6368 -6369 0
-6366 -6368 6369 0
6366 6368 -6370 0
6366 -6368 6370 0
-6366 6368 6370 0
-6366 -6368 -6370 0
6367 6369 -6371 0
6367 -6369 6371 0
-6367 6369 6371 0
-6367 -6369 -6371 0
6141 6146 -6372 0
6141 -6146 -6372 0
-6141 6146 -6372 0
-6141 -6146 6372 0
6141 6146 -6373 0
6141 -6146 6373 0
-6141 6146 6373 0
-6141 -6146 -6373 0
6371 6373 -6374 0
6371 -6373 -6374 0
-6371 6373 -6374 0
-6371 -6373 6374 0
6371 6373 -6375 0
6371 -6373 6375 0
-6371 6373 6375 0
-6371 -6373 -6375 0
6372 6374 -6376 0
6372 -6374 6376 0
-6372 6374 6376 0
-6372 -6374 -6376 0
6147 6152 -6377 0
6147 -6152 -6377 0
-6147 6152 -6377 0
-6147 -6152 6377 0
6147 6152 -6378 0
6147 -6152 6378 0
-6147 6152 6378 0
-6147 -6152 -6378 0
6376 6378 -6379 0
6376 -6378 -6379 0
-6376 6378 -6379 0
-6376 -6378 6379 0
6376 6378 -6380 0
6376 -6378 6380 0
-6376 6378 6380 0
-6376 -6378 -6380 0
6377 6379 -6381 0
6377 -6379 6381 0
-6377 6379 6381 0
-6377 -6379 -6381 0
6153 6158 -6382 0
6153 -6158 -6382 0
-6153 6158 -6382 0
-6153 -6158 6382 0
6153 6158 -6383 0
6153 -6158 6383 0
-6153 6158 6383 0
-6153 -6158 -6383 0
6381 6383 -6384 0
6381 -6383 -6384 0
-6381 6383 -6384 0
-6381 -6383 6384 0
6381 6383 -6385 0
6381 -6383 6385 0
-6381 6383 6385 0
-6381 -6383 -6385 0
6382 6384 -6386 0
6382 -6384 6386 0
-6382 6384 6386 0
-6382 -6384 -6386 0
6159 6164 -6387 0
6159 -6164 -6387 0
-6159 6164 -6387 0
-6159 -6164 6387 0
6159 6164 -6388 0
6159 -6164 6388 0
-6159 6164 6388 0
-6159 -6164 -6388 0
6386 6388 -6389 0
6386 -6388 -6389 0
-6386 6388 -6389 0
-6386 -6388 6389 0
6386 6388 -6390 0
6386 -6388 6390 0
-6386 6388 6390 0
-6386 -6388 -6390 0
6387 6389 -6391 0
6387 -6389 6391 0
-6387 6389 6391 0
-6387 -6389 -6391 0
6165 6170 -6392 0
6165 -6170 -6392 0
-6165 6170 -6392 0
-6165 -6170 6392 0
6165 6170 -6393 0
6165 -6170 6393 0
-6165 6170 6393 0
-6165 -6170 -6393 0
6391 6393 -6394 0
6391 -6393 -6394 0
-6391 6393 -6394 0
-6391 -6393 6394 0
6391 6393 -6395 0
6391 -6393 6395 0
-6391 6393 6395 0
-6391 -6393 -6395 0
6392 6394 -6396 0
6392 -6394 6396 0
-6392 6394 6396 0
-6392 -6394 -6396 0
6171 6176 -6397 0
6171 -6176 -6397 0
-6171 6176 -6397 0
-6171 -6176 6397 0
6171 6176 -6398 0
6171 -6176 6398 0
-6171 6176 6398 0
-6171 -6176 -6398 0
6396 6398 -6399 0
6396 -6398 -6399 0
-6396 6398 -6399 0
-6396 -6398 6399 0
6396 6398 -6400 0
6396 -6398 6400 0
-6396 6398 6400 0
-6396 -6398 -6400 0
6397 6399 -6401 0
6397 -6399 6401 0
-6397 6399 6401 0
-6397 -6399 -6401 0
6177 6182 -6402 0
6177 -6182 -6402 0
-6177 6182 -6402 0
-6177 -6182 6402 0
6177 6182 -6403 0
6177 -6182 6403 0
-6177 6182 6403 0
-6177 -6182 -6403 0
6401 6403 -6404 0
6401 -6403 -6404 0
-6401 6403 -6404 0
-6401 -6403 6404 0
6401 6403 -6405 0
6401 -6403 6405 0
-6401 6403 6405 0
-6401 -6403 -6405 0
6402 6404 -6406 0
6402 -6404 6406 0
-6402 6404 6406 0
-6402 -6404 -6406 0
6183 6188 -6407 0
6183 -6188 -6407 0
-6183 6188 -6407 0
-6183 -6188 6407 0
6183 6188 -6408 0
6183 -6188 6408 0
-6183 6188 6408 0
-6183 -6188 -6408 0
6406 6408 -6409 0
6406 -6408 -6409 0
-6406 6408 -6409 0
-6406 -6408 6409 0
6406 6408 -6410 0
6406 -6408 6410 0
-6406 6408 6410 0
-6406 -6408 -6410 0
6407 6409 -6411 0
6407 -6409 6411 0
-6407 6409 6411 0
-6407 -6409 -6411 0
6189 6194 -6412 0
6189 -6194 -6412 0
-6189 6194 -6412 0
-6189 -6194 6412 0
6189 6194 -6413 0
6189 -6194 6413 0
-6189 6194 6413 0
-6189 -6194 -6413 0
6411 6413 -6414 0
6411 -6413 -6414 0
-6411 6413 -6414 0
-6411 -6413 6414 0
6411 6413 -6415 0
6411 -6413 6415 0
-6411 6413 6415 0
-6411 -6413 -6415 0
6412 6414 -6416 0
6412 -6414 6416 0
-6412 6414 6416 0
-6412 -6414 -6416 0
6195 6200 -6417 0
6195 -6200 -6417 0
-6195 6200 -6417 0
-6195 -6200 6417 0
6195 6200 -6418 0
6195 -6200 6418 0
-6195 6200 6418 0
-6195 -6200 -6418 0
6416 6418 -6419 0
6416 -6418 -6419 0
-6416 6418 -6419 0
-6416 -6418 6419 0
6416 6418 -6420 0
6416 -6418 6420 0
-6416 6418 6420 0
-6416 -6418 -6420 0
6417 6419 -6421 0
6417 -6419 6421 0
-6417 6419 6421 0
-6417 -6419 -6421 0
6201 6206 -6422 0
6201 -6206 -6422 0
-6201 6206 -6422 0
-6201 -6206 6422 0
6201 6206 -6423 0
6201 -6206 6423 0
-6201 6206 6423 0
-6201 -6206 -6423 0
6421 6423 -6424 0
6421 -6423 -6424 0
-6421 6423 -6424 0
-6421 -6423 6424 0
6421 6423 -6425 0
6421 -6423 6425 0
-6421 6423 6425 0
-6421 -6423 -6425 0
6422 6424 -6426 0
6422 -6424 6426 0
-6422 6424 6426 0
-6422 -6424 -6426 0
6207 6212 -6427 0
6207 -6212 -6427 0
-6207 6212 -6427 0
-6207 -6212 6427 0
6207 6212 -6428 0
6207 -6212 6428 0
-6207 6212 6428 0
-6207 -6212 -6428 0
6426 6428 -6429 0
6426 -6428 -6429 0
-6426 6428 -6429 0
-6426 -6428 6429 0
6426 6428 -6430 0
6426 -6428 6430 0
-6426 6428 6430 0
-6426 -6428 -6430 0
6427 6429 -6431 0
6427 -6429 6431 0
-6427 6429 6431 0
-6427 -6429 -6431 0
6213 6214 -6432 0
6213 -6214 -6432 0
-6213 6214 -6432 0
-6213 -6214 6432 0
6213 6214 -6433 0
6213 -6214 6433 0
-6213 6214 6433 0
-6213 -6214 -6433 0
6431 6433 -6434 0
6431 -6433 -6434 0
-6431 6433 -6434 0
-6431 -6433 6434 0
6431 6433 -6435 0
6431 -6433 6435 0
-6431 6433 6435 0
-6431 -6433 -6435 0
6432 6434 -6436 0
6432 -6434 6436 0
-6432 6434 6436 0
-6432 -6434 -6436 0
71 0
-119 0
-257 0
-528 0
799 0
-1070 0
1341 0
-1612 0
1883 0
2154 0
-2425 0
2696 0
-2967 0
3238 0
-3509 0
3780 0
4051 0
4322 0
4593 0
4864 0
5135 0
5406 0
-5677 0
5948 0
6216 0
-6220 0
6225 0
-6230 0
-6235 0
-6240 0
-6245 0
-6250 0
6255 0
6260 0
-6265 0
-6270 0
6275 0
6280 0
6285 0
6290 0
-6295 0
6300 0
-6305 0
6310 0
6315 0
-6320 0
6325 0
-6330 0
-6335 0
-6340 0
-6345 0
-6350 0
-6355 0
-6360 0
-6365 0
-6370 0
-6375 0
-6380 0
-6385 0
-6390 0
-6395 0
-6400 0
-6405 0
-6410 0
-6415 0
-6420 0
-6425 0
-6430 0
-6435 0
-6436 0