c description: Ordering principle
c generator: CNFgen (0.9.6)
c copyright: (C) 2012-2026 Massimo Lauria <massimo.lauria@uniroma1.it>
c url: https://massimolauria.net/cnfgen
c command line: cnfgen op 30
c
p cnf 870 24825
30 59 88 117 146 175 204 233 262 291 320 349 378 407 436 465 494 523 552 581 610 639 668 697 726 755 784 813 842 0
1 60 89 118 147 176 205 234 263 292 321 350 379 408 437 466 495 524 553 582 611 640 669 698 727 756 785 814 843 0
2 31 90 119 148 177 206 235 264 293 322 351 380 409 438 467 496 525 554 583 612 641 670 699 728 757 786 815 844 0
3 32 61 120 149 178 207 236 265 294 323 352 381 410 439 468 497 526 555 584 613 642 671 700 729 758 787 816 845 0
4 33 62 91 150 179 208 237 266 295 324 353 382 411 440 469 498 527 556 585 614 643 672 701 730 759 788 817 846 0
5 34 63 92 121 180 209 238 267 296 325 354 383 412 441 470 499 528 557 586 615 644 673 702 731 760 789 818 847 0
6 35 64 93 122 151 210 239 268 297 326 355 384 413 442 471 500 529 558 587 616 645 674 703 732 761 790 819 848 0
7 36 65 94 123 152 181 240 269 298 327 356 385 414 443 472 501 530 559 588 617 646 675 704 733 762 791 820 849 0
8 37 66 95 124 153 182 211 270 299 328 357 386 415 444 473 502 531 560 589 618 647 676 705 734 763 792 821 850 0
9 38 67 96 125 154 183 212 241 300 329 358 387 416 445 474 503 532 561 590 619 648 677 706 735 764 793 822 851 0
10 39 68 97 126 155 184 213 242 271 330 359 388 417 446 475 504 533 562 591 620 649 678 707 736 765 794 823 852 0
11 40 69 98 127 156 185 214 243 272 301 360 389 418 447 476 505 534 563 592 621 650 679 708 737 766 795 824 853 0
12 41 70 99 128 157 186 215 244 273 302 331 390 419 448 477 506 535 564 593 622 651 680 709 738 767 796 825 854 0
13 42 71 100 129 158 187 216 245 274 303 332 361 420 449 478 507 536 565 594 623 652 681 710 739 768 797 826 855 0
14 43 72 101 130 159 188 217 246 275 304 333 362 391 450 479 508 537 566 595 624 653 682 711 740 769 798 827 856 0
15 44 73 102 131 160 189 218 247 276 305 334 363 392 421 480 509 538 567 596 625 654 683 712 741 770 799 828 857 0
16 45 74 103 132 161 190 219 248 277 306 335 364 393 422 451 510 539 568 597 626 655 684 713 742 771 800 829 858 0
17 46 75 104 133 162 191 220 249 278 307 336 365 394 423 452 481 540 569 598 627 656 685 714 743 772 801 830 859 0
18 47 76 105 134 163 192 221 250 279 308 337 366 395 424 453 482 511 570 599 628 657 686 715 744 773 802 831 860 0
19 48 77 106 135 164 193 222 251 280 309 338 367 396 425 454 483 512 541 600 629 658 687 716 745 774 803 832 861 0
20 49 78 107 136 165 194 223 252 281 310 339 368 397 426 455 484 513 542 571 630 659 688 717 746 775 804 833 862 0
21 50 79 108 137 166 195 224 253 282 311 340 369 398 427 456 485 514 543 572 601 660 689 718 747 776 805 834 863 0
22 51 80 109 138 167 196 225 254 283 312 341 370 399 428 457 486 515 544 573 602 631 690 719 748 777 806 835 864 0
23 52 81 110 139 168 197 226 255 284 313 342 371 400 429 458 487 516 545 574 603 632 661 720 749 778 807 836 865 0
24 53 82 111 140 169 198 227 256 285 314 343 372 401 430 459 488 517 546 575 604 633 662 691 750 779 808 837 866 0
25 54 83 112 141 170 199 228 257 286 315 344 373 402 431 460 489 518 547 576 605 634 663 692 721 780 809 838 867 0
26 55 84 113 142 171 200 229 258 287 316 345 374 403 432 461 490 519 548 577 606 635 664 693 722 751 810 839 868 0
27 56 85 114 143 172 201 230 259 288 317 346 375 404 433 462 491 520 549 578 607 636 665 694 723 752 781 840 869 0
28 57 86 115 144 173 202 231 260 289 318 347 376 405 434 463 492 521 550 579 608 637 666 695 724 753 782 811 870 0
29 58 87 116 145 174 203 232 261 290 319 348 377 406 435 464 493 522 551 580 609 638 667 696 725 754 783 812 841 0
-1 -31 2 0
-1 -32 3 0
-1 -33 4 0
-1 -34 5 0
-1 -35 6 0
-1 -36 7 0
-1 -37 8 0
-1 -38 9 0
-1 -39 10 0
-1 -40 11 0
-1 -41 12 0
-1 -42 13 0
-1 -43 14 0
-1 -44 15 0
-1 -45 16 0
-1 -46 17 0
-1 -47 18 0
-1 -48 19 0
-1 -49 20 0
-1 -50 21 0
-1 -51 22 0
-1 -52 23 0
-1 -53 24 0
-1 -54 25 0
-1 -55 26 0
-1 -56 27 0
-1 -57 28 0
-1 -58 29 0
-2 -60 1 0
-2 -61 3 0
-2 -62 4 0
-2 -63 5 0
-2 -64 6 0
-2 -65 7 0
-2 -66 8 0
-2 -67 9 0
-2 -68 10 0
-2 -69 11 0
-2 -70 12 0
-2 -71 13 0
-2 -72 14 0
-2 -73 15 0
-2 -74 16 0
-2 -75 17 0
-2 -76 18 0
-2 -77 19 0
-2 -78 20 0
-2 -79 21 0
-2 -80 22 0
-2 -81 23 0
-2 -82 24 0
-2 -83 25 0
-2 -84 26 0
-2 -85 27 0
-2 -86 28 0
-2 -87 29 0
-3 -89 1 0
-3 -90 2 0
-3 -91 4 0
-3 -92 5 0
-3 -93 6 0
-3 -94 7 0
-3 -95 8 0
-3 -96 9 0
-3 -97 10 0
-3 -98 11 0
-3 -99 12 0
-3 -100 13 0
-3 -101 14 0
-3 -102 15 0
-3 -103 16 0
-3 -104 17 0
-3 -105 18 0
-3 -106 19 0
-3 -107 20 0
-3 -108 21 0
-3 -109 22 0
-3 -110 23 0
-3 -111 24 0
-3 -112 25 0
-3 -113 26 0
-3 -114 27 0
-3 -115 28 0
-3 -116 29 0
-4 -118 1 0
-4 -119 2 0
-4 -120 3 0
-4 -121 5 0
-4 -122 6 0
-4 -123 7 0
-4 -124 8 0
-4 -125 9 0
-4 -126 10 0
-4 -127 11 0
-4 -128 12 0
-4 -129 13 0
-4 -130 14 0
-4 -131 15 0
-4 -132 16 0
-4 -133 17 0
-4 -134 18 0
-4 -135 19 0
-4 -136 20 0
-4 -137 21 0
-4 -138 22 0
-4 -139 23 0
-4 -140 24 0
-4 -141 25 0
-4 -142 26 0
-4 -143 27 0
-4 -144 28 0
-4 -145 29 0
-5 -147 1 0
-5 -148 2 0
-5 -149 3 0
-5 -150 4 0
-5 -151 6 0
-5 -152 7 0
-5 -153 8 0
-5 -154 9 0
-5 -155 10 0
-5 -156 11 0
-5 -157 12 0
-5 -158 13 0
-5 -159 14 0
-5 -160 15 0
-5 -161 16 0
-5 -162 17 0
-5 -163 18 0
-5 -164 19 0
-5 -165 20 0
-5 -166 21 0
-5 -167 22 0
-5 -168 23 0
-5 -169 24 0
-5 -170 25 0
-5 -171 26 0
-5 -172 27 0
-5 -173 28 0
-5 -174 29 0
-6 -176 1 0
-6 -177 2 0
-6 -178 3 0
-6 -179 4 0
-6 -180 5 0
-6 -181 7 0
-6 -182 8 0
-6 -183 9 0
-6 -184 10 0
-6 -185 11 0
-6 -186 12 0
-6 -187 13 0
-6 -188 14 0
-6 -189 15 0
-6 -190 16 0
-6 -191 17 0
-6 -192 18 0
-6 -193 19 0
-6 -194 20 0
-6 -195 21 0
-6 -196 22 0
-6 -197 23 0
-6 -198 24 0
-6 -199 25 0
-6 -200 26 0
-6 -201 27 0
-6 -202 28 0
-6 -203 29 0
-7 -205 1 0
-7 -206 2 0
-7 -207 3 0
-7 -208 4 0
-7 -209 5 0
-7 -210 6 0
-7 -211 8 0
-7 -212 9 0
-7 -213 10 0
-7 -214 11 0
-7 -215 12 0
-7 -216 13 0
-7 -217 14 0
-7 -218 15 0
-7 -219 16 0
-7 -220 17 0
-7 -221 18 0
-7 -222 19 0
-7 -223 20 0
-7 -224 21 0
-7 -225 22 0
-7 -226 23 0
-7 -227 24 0
-7 -228 25 0
-7 -229 26 0
-7 -230 27 0
-7 -231 28 0
-7 -232 29 0
-8 -234 1 0
-8 -235 2 0
-8 -236 3 0
-8 -237 4 0
-8 -238 5 0
-8 -239 6 0
-8 -240 7 0
-8 -241 9 0
-8 -242 10 0
-8 -243 11 0
-8 -244 12 0
-8 -245 13 0
-8 -246 14 0
-8 -247 15 0
-8 -248 16 0
-8 -249 17 0
-8 -250 18 0
-8 -251 19 0
-8 -252 20 0
-8 -253 21 0
-8 -254 22 0
-8 -255 23 0
-8 -256 24 0
-8 -257 25 0
-8 -258 26 0
-8 -259 27 0
-8 -260 28 0
-8 -261 29 0
-9 -263 1 0
-9 -264 2 0
-9 -265 3 0
-9 -266 4 0
-9 -267 5 0
-9 -268 6 0
-9 -269 7 0
-9 -270 8 0
-9 -271 10 0
-9 -272 11 0
-9 -273 12 0
-9 -274 13 0
-9 -275 14 0
-9 -276 15 0
-9 -277 16 0
-9 -278 17 0
-9 -279 18 0
-9 -280 19 0
-9 -281 20 0
-9 -282 21 0
-9 -283 22 0
-9 -284 23 0
-9 -285 24 0
-9 -286 25 0
-9 -287 26 0
-9 -288 27 0
-9 -289 28 0
-9 -290 29 0
-10 -292 1 0
-10 -293 2 0
-10 -294 3 0
-10 -295 4 0
-10 -296 5 0
-10 -297 6 0
-10 -298 7 0
-10 -299 8 0
-10 -300 9 0
-10 -301 11 0
-10 -302 12 0
-10 -303 13 0
-10 -304 14 0
-10 -305 15 0
-10 -306 16 0
-10 -307 17 0
-10 -308 18 0
-10 -309 19 0
-10 -310 20 0
-10 -311 21 0
-10 -312 22 0
-10 -313 23 0
-10 -314 24 0
-10 -315 25 0
-10 -316 26 0
-10 -317 27 0
-10 -318 28 0
-10 -319 29 0
-11 -321 1 0
-11 -322 2 0
-11 -323 3 0
-11 -324 4 0
-11 -325 5 0
-11 -326 6 0
-11 -327 7 0
-11 -328 8 0
-11 -329 9 0
-11 -330 10 0
-11 -331 12 0
-11 -332 13 0
-11 -333 14 0
-11 -334 15 0
-11 -335 16 0
-11 -336 17 0
-11 -337 18 0
-11 -338 19 0
-11 -339 20 0
-11 -340 21 0
-11 -341 22 0
-11 -342 23 0
-11 -343 24 0
-11 -344 25 0
-11 -345 26 0
-11 -346 27 0
-11 -347 28 0
-11 -348 29 0
-12 -350 1 0
-12 -351 2 0
-12 -352 3 0
-12 -353 4 0
-12 -354 5 0
-12 -355 6 0
-12 -356 7 0
-12 -357 8 0
-12 -358 9 0
-12 -359 10 0
-12 -360 11 0
-12 -361 13 0
-12 -362 14 0
-12 -363 15 0
-12 -364 16 0
-12 -365 17 0
-12 -366 18 0
-12 -367 19 0
-12 -368 20 0
-12 -369 21 0
-12 -370 22 0
-12 -371 23 0
-12 -372 24 0
-12 -373 25 0
-12 -374 26 0
-12 -375 27 0
-12 -376 28 0
-12 -377 29 0
-13 -379 1 0
-13 -380 2 0
-13 -381 3 0
-13 -382 4 0
-13 -383 5 0
-13 -384 6 0
-13 -385 7 0
-13 -386 8 0
-13 -387 9 0
-13 -388 10 0
-13 -389 11 0
-13 -390 12 0
-13 -391 14 0
-13 -392 15 0
-13 -393 16 0
-13 -394 17 0
-13 -395 18 0
-13 -396 19 0
-13 -397 20 0
-13 -398 21 0
-13 -399 22 0
-13 -400 23 0
-13 -401 24 0
-13 -402 25 0
-13 -403 26 0
-13 -404 27 0
-13 -405 28 0
-13 -406 29 0
-14 -408 1 0
-14 -409 2 0
-14 -410 3 0
-14 -411 4 0
-14 -412 5 0
-14 -413 6 0
-14 -414 7 0
-14 -415 8 0
-14 -416 9 0
-14 -417 10 0
-14 -418 11 0
-14 -419 12 0
-14 -420 13 0
-14 -421 15 0
-14 -422 16 0
-14 -423 17 0
-14 -424 18 0
-14 -425 19 0
-14 -426 20 0
-14 -427 21 0
-14 -428 22 0
-14 -429 23 0
-14 -430 24 0
-14 -431 25 0
-14 -432 26 0
-14 -433 27 0
-14 -434 28 0
-14 -435 29 0
-15 -437 1 0
-15 -438 2 0
-15 -439 3 0
-15 -440 4 0
-15 -441 5 0
-15 -442 6 0
-15 -443 7 0
-15 -444 8 0
-15 -445 9 0
-15 -446 10 0
-15 -447 11 0
-15 -448 12 0
-15 -449 13 0
-15 -450 14 0
-15 -451 16 0
-15 -452 17 0
-15 -453 18 0
-15 -454 19 0
-15 -455 20 0
-15 -456 21 0
-15 -457 22 0
-15 -458 23 0
-15 -459 24 0
-15 -460 25 0
-15 -461 26 0
-15 -462 27 0
-15 -463 28 0
-15 -464 29 0
-16 -466 1 0
-16 -467 2 0
-16 -468 3 0
-16 -469 4 0
-16 -470 5 0
-16 -471 6 0
-16 -472 7 0
-16 -473 8 0
-16 -474 9 0
-16 -475 10 0
-16 -476 11 0
-16 -477 12 0
-16 -478 13 0
-16 -479 14 0
-16 -480 15 0
-16 -481 17 0
-16 -482 18 0
-16 -483 19 0
-16 -484 20 0
-16 -485 21 0
-16 -486 22 0
-16 -487 23 0
-16 -488 24 0
-16 -489 25 0
-16 -490 26 0
-16 -491 27 0
-16 -492 28 0
-16 -493 29 0
-17 -495 1 0
-17 -496 2 0
-17 -497 3 0
-17 -498 4 0
-17 -499 5 0
-17 -500 6 0
-17 -501 7 0
-17 -502 8 0
-17 -503 9 0
-17 -504 10 0
-17 -505 11 0
-17 -506 12 0
-17 -507 13 0
-17 -508 14 0
-17 -509 15 0
-17 -510 16 0
-17 -511 18 0
-17 -512 19 0
-17 -513 20 0
-17 -514 21 0
-17 -515 22 0
-17 -516 23 0
-17 -517 24 0
-17 -518 25 0
-17 -519 26 0
-17 -520 27 0
-17 -521 28 0
-17 -522 29 0
-18 -524 1 0
-18 -525 2 0
-18 -526 3 0
-18 -527 4 0
-18 -528 5 0
-18 -529 6 0
-18 -530 7 0
-18 -531 8 0
-18 -532 9 0
-18 -533 10 0
-18 -534 11 0
-18 -535 12 0
-18 -536 13 0
-18 -537 14 0
-18 -538 15 0
-18 -539 16 0
-18 -540 17 0
-18 -541 19 0
-18 -542 20 0
-18 -543 21 0
-18 -544 22 0
-18 -545 23 0
-18 -546 24 0
-18 -547 25 0
-18 -548 26 0
-18 -549 27 0
-18 -550 28 0
-18 -551 29 0
-19 -553 1 0
-19 -554 2 0
-19 -555 3 0
-19 -556 4 0
-19 -557 5 0
-19 -558 6 0
-19 -559 7 0
-19 -560 8 0
-19 -561 9 0
-19 -562 10 0
-19 -563 11 0
-19 -564 12 0
-19 -565 13 0
-19 -566 14 0
-19 -567 15 0
-19 -568 16 0
-19 -569 17 0
-19 -570 18 0
-19 -571 20 0
-19 -572 21 0
-19 -573 22 0
-19 -574 23 0
-19 -575 24 0
-19 -576 25 0
-19 -577 26 0
-19 -578 27 0
-19 -579 28 0
-19 -580 29 0
-20 -582 1 0
-20 -583 2 0
-20 -584 3 0
-20 -585 4 0
-20 -586 5 0
-20 -587 6 0
-20 -588 7 0
-20 -589 8 0
-20 -590 9 0
-20 -591 10 0
-20 -592 11 0
-20 -593 12 0
-20 -594 13 0
-20 -595 14 0
-20 -596 15 0
-20 -597 16 0
-20 -598 17 0
-20 -599 18 0
-20 -600 19 0
-20 -601 21 0
-20 -602 22 0
-20 -603 23 0
-20 -604 24 0
-20 -605 25 0
-20 -606 26 0
-20 -607 27 0
-20 -608 28 0
-20 -609 29 0
-21 -611 1 0
-21 -612 2 0
-21 -613 3 0
-21 -614 4 0
-21 -615 5 0
-21 -616 6 0
-21 -617 7 0
-21 -618 8 0
-21 -619 9 0
-21 -620 10 0
-21 -621 11 0
-21 -622 12 0
-21 -623 13 0
-21 -624 14 0
-21 -625 15 0
-21 -626 16 0
-21 -627 17 0
-21 -628 18 0
-21 -629 19 0
-21 -630 20 0
-21 -631 22 0
-21 -632 23 0
-21 -633 24 0
-21 -634 25 0
-21 -635 26 0
-21 -636 27 0
-21 -637 28 0
-21 -638 29 0
-22 -640 1 0
-22 -641 2 0
-22 -642 3 0
-22 -643 4 0
-22 -644 5 0
-22 -645 6 0
-22 -646 7 0
-22 -647 8 0
-22 -648 9 0
-22 -649 10 0
-22 -650 11 0
-22 -651 12 0
-22 -652 13 0
-22 -653 14 0
-22 -654 15 0
-22 -655 16 0
-22 -656 17 0
-22 -657 18 0
-22 -658 19 0
-22 -659 20 0
-22 -660 21 0
-22 -661 23 0
-22 -662 24 0
-22 -663 25 0
-22 -664 26 0
-22 -665 27 0
-22 -666 28 0
-22 -667 29 0
-23 -669 1 0
-23 -670 2 0
-23 -671 3 0
-23 -672 4 0
-23 -673 5 0
-23 -674 6 0
-23 -675 7 0
-23 -676 8 0
-23 -677 9 0
-23 -678 10 0
-23 -679 11 0
-23 -680 12 0
-23 -681 13 0
-23 -682 14 0
-23 -683 15 0
-23 -684 16 0
-23 -685 17 0
-23 -686 18 0
-23 -687 19 0
-23 -688 20 0
-23 -689 21 0
-23 -690 22 0
-23 -691 24 0
-23 -692 25 0
-23 -693 26 0
-23 -694 27 0
-23 -695 28 0
-23 -696 29 0
-24 -698 1 0
-24 -699 2 0
-24 -700 3 0
-24 -701 4 0
-24 -702 5 0
-24 -703 6 0
-24 -704 7 0
-24 -705 8 0
-24 -706 9 0
-24 -707 10 0
-24 -708 11 0
-24 -709 12 0
-24 -710 13 0
-24 -711 14 0
-24 -712 15 0
-24 -713 16 0
-24 -714 17 0
-24 -715 18 0
-24 -716 19 0
-24 -717 20 0
-24 -718 21 0
-24 -719 22 0
-24 -720 23 0
-24 -721 25 0
-24 -722 26 0
-24 -723 27 0
-24 -724 28 0
-24 -725 29 0
-25 -727 1 0
-25 -728 2 0
-25 -729 3 0
-25 -730 4 0
-25 -731 5 0
-25 -732 6 0
-25 -733 7 0
-25 -734 8 0
-25 -735 9 0
-25 -736 10 0
-25 -737 11 0
-25 -738 12 0
-25 -739 13 0
-25 -740 14 0
-25 -741 15 0
-25 -742 16 0
-25 -743 17 0
-25 -744 18 0
-25 -745 19 0
-25 -746 20 0
-25 -747 21 0
-25 -748 22 0
-25 -749 23 0
-25 -750 24 0
-25 -751 26 0
-25 -752 27 0
-25 -753 28 0
-25 -754 29 0
-26 -756 1 0
-26 -757 2 0
-26 -758 3 0
-26 -759 4 0
-26 -760 5 0
-26 -761 6 0
-26 -762 7 0
-26 -763 8 0
-26 -764 9 0
-26 -765 10 0
-26 -766 11 0
-26 -767 12 0
-26 -768 13 0
-26 -769 14 0
-26 -770 15 0
-26 -771 16 0
-26 -772 17 0
-26 -773 18 0
-26 -774 19 0
-26 -775 20 0
-26 -776 21 0
-26 -777 22 0
-26 -778 23 0
-26 -779 24 0
-26 -780 25 0
-26 -781 27 0
-26 -782 28 0
-26 -783 29 0
-27 -785 1 0
-27 -786 2 0
-27 -787 3 0
-27 -788 4 0
-27 -789 5 0
-27 -790 6 0
-27 -791 7 0
-27 -792 8 0
-27 -793 9 0
-27 -794 10 0
-27 -795 11 0
-27 -796 12 0
-27 -797 13 0
-27 -798 14 0
-27 -799 15 0
-27 -800 16 0
-27 -801 17 0
-27 -802 18 0
-27 -803 19 0
-27 -804 20 0
-27 -805 21 0
-27 -806 22 0
-27 -807 23 0
-27 -808 24 0
-27 -809 25 0
-27 -810 26 0
-27 -811 28 0
-27 -812 29 0
-28 -814 1 0
-28 -815 2 0
-28 -816 3 0
-28 -817 4 0
-28 -818 5 0
-28 -819 6 0
-28 -820 7 0
-28 -821 8 0
-28 -822 9 0
-28 -823 10 0
-28 -824 11 0
-28 -825 12 0
-28 -826 13 0
-28 -827 14 0
-28 -828 15 0
-28 -829 16 0
-28 -830 17 0
-28 -831 18 0
-28 -832 19 0
-28 -833 20 0
-28 -834 21 0
-28 -835 22 0
-28 -836 23 0
-28 -837 24 0
-28 -838 25 0
-28 -839 26 0
-28 -840 27 0
-28 -841 29 0
-29 -843 1 0
-29 -844 2 0
-29 -845 3 0
-29 -846 4 0
-29 -847 5 0
-29 -848 6 0
-29 -849 7 0
-29 -850 8 0
-29 -851 9 0
-29 -852 10 0
-29 -853 11 0
-29 -854 12 0
-29 -855 13 0
-29 -856 14 0
-29 -857 15 0
-29 -858 16 0
-29 -859 17 0
-29 -860 18 0
-29 -861 19 0
-29 -862 20 0
-29 -863 21 0
-29 -864 22 0
-29 -865 23 0
-29 -866 24 0
-29 -867 25 0
-29 -868 26 0
-29 -869 27 0
-29 -870 28 0
-30 -2 31 0
-30 -3 32 0
-30 -4 33 0
-30 -5 34 0
-30 -6 35 0
-30 -7 36 0
-30 -8 37 0
-30 -9 38 0
-30 -10 39 0
-30 -11 40 0
-30 -12 41 0
-30 -13 42 0
-30 -14 43 0
-30 -15 44 0
-30 -16 45 0
-30 -17 46 0
-30 -18 47 0
-30 -19 48 0
-30 -20 49 0
-30 -21 50 0
-30 -22 51 0
-30 -23 52 0
-30 -24 53 0
-30 -25 54 0
-30 -26 55 0
-30 -27 56 0
-30 -28 57 0
-30 -29 58 0
-31 -59 30 0
-31 -61 32 0
-31 -62 33 0
-31 -63 34 0
-31 -64 35 0
-31 -65 36 0
-31 -66 37 0
-31 -67 38 0
-31 -68 39 0
-31 -69 40 0
-31 -70 41 0
-31 -71 42 0
-31 -72 43 0
-31 -73 44 0
-31 -74 45 0
-31 -75 46 0
-31 -76 47 0
-31 -77 48 0
-31 -78 49 0
-31 -79 50 0
-31 -80 51 0
-31 -81 52 0
-31 -82 53 0
-31 -83 54 0
-31 -84 55 0
-31 -85 56 0
-31 -86 57 0
-31 -87 58 0
-32 -88 30 0
-32 -90 31 0
-32 -91 33 0
-32 -92 34 0
-32 -93 35 0
-32 -94 36 0
-32 -95 37 0
-32 -96 38 0
-32 -97 39 0
-32 -98 40 0
-32 -99 41 0
-32 -100 42 0
-32 -101 43 0
-32 -102 44 0
-32 -103 45 0
-32 -104 46 0
-32 -105 47 0
-32 -106 48 0
-32 -107 49 0
-32 -108 50 0
-32 -109 51 0
-32 -110 52 0
-32 -111 53 0
-32 -112 54 0
-32 -113 55 0
-32 -114 56 0
-32 -115 57 0
-32 -116 58 0
-33 -117 30 0
-33 -119 31 0
-33 -120 32 0
-33 -121 34 0
-33 -122 35 0
-33 -123 36 0
-33 -124 37 0
-33 -125 38 0
-33 -126 39 0
-33 -127 40 0
-33 -128 41 0
-33 -129 42 0
-33 -130 43 0
-33 -131 44 0
-33 -132 45 0
-33 -133 46 0
-33 -134 47 0
-33 -135 48 0
-33 -136 49 0
-33 -137 50 0
-33 -138 51 0
-33 -139 52 0
-33 -140 53 0
-33 -141 54 0
-33 -142 55 0
-33 -143 56 0
-33 -144 57 0
-33 -145 58 0
-34 -146 30 0
-34 -148 31 0
-34 -149 32 0
-34 -150 33 0
-34 -151 35 0
-34 -152 36 0
-34 -153 37 0
-34 -154 38 0
-34 -155 39 0
-34 -156 40 0
-34 -157 41 0
-34 -158 42 0
-34 -159 43 0
-34 -160 44 0
-34 -161 45 0
-34 -162 46 0
-34 -163 47 0
-34 -164 48 0
-34 -165 49 0
-34 -166 50 0
-34 -167 51 0
-34 -168 52 0
-34 -169 53 0
-34 -170 54 0
-34 -171 55 0
-34 -172 56 0
-34 -173 57 0
-34 -174 58 0
-35 -175 30 0
-35 -177 31 0
-35 -178 32 0
-35 -179 33 0
-35 -180 34 0
-35 -181 36 0
-35 -182 37 0
-35 -183 38 0
-35 -184 39 0
-35 -185 40 0
-35 -186 41 0
-35 -187 42 0
-35 -188 43 0
-35 -189 44 0
-35 -190 45 0
-35 -191 46 0
-35 -192 47 0
-35 -193 48 0
-35 -194 49 0
-35 -195 50 0
-35 -196 51 0
-35 -197 52 0
-35 -198 53 0
-35 -199 54 0
-35 -200 55 0
-35 -201 56 0
-35 -202 57 0
-35 -203 58 0
-36 -204 30 0
-36 -206 31 0
-36 -207 32 0
-36 -208 33 0
-36 -209 34 0
-36 -210 35 0
-36 -211 37 0
-36 -212 38 0
-36 -213 39 0
-36 -214 40 0
-36 -215 41 0
-36 -216 42 0
-36 -217 43 0
-36 -218 44 0
-36 -219 45 0
-36 -220 46 0
-36 -221 47 0
-36 -222 48 0
-36 -223 49 0
-36 -224 50 0
-36 -225 51 0
-36 -226 52 0
-36 -227 53 0
-36 -228 54 0
-36 -229 55 0
-36 -230 56 0
-36 -231 57 0
-36 -232 58 0
-37 -233 30 0
-37 -235 31 0
-37 -236 32 0
-37 -237 33 0
-37 -238 34 0
-37 -239 35 0
-37 -240 36 0
-37 -241 38 0
-37 -242 39 0
-37 -243 40 0
-37 -244 41 0
-37 -245 42 0
-37 -246 43 0
-37 -247 44 0
-37 -248 45 0
-37 -249 46 0
-37 -250 47 0
-37 -251 48 0
-37 -252 49 0
-37 -253 50 0
-37 -254 51 0
-37 -255 52 0
-37 -256 53 0
-37 -257 54 0
-37 -258 55 0
-37 -259 56 0
-37 -260 57 0
-37 -261 58 0
-38 -262 30 0
-38 -264 31 0
-38 -265 32 0
-38 -266 33 0
-38 -267 34 0
-38 -268 35 0
-38 -269 36 0
-38 -270 37 0
-38 -271 39 0
-38 -272 40 0
-38 -273 41 0
-38 -274 42 0
-38 -275 43 0
-38 -276 44 0
-38 -277 45 0
-38 -278 46 0
-38 -279 47 0
-38 -280 48 0
-38 -281 49 0
-38 -282 50 0
-38 -283 51 0
-38 -284 52 0
-38 -285 53 0
-38 -286 54 0
-38 -287 55 0
-38 -288 56 0
-38 -289 57 0
-38 -290 58 0
-39 -291 30 0
-39 -293 31 0
-39 -294 32 0
-39 -295 33 0
-39 -296 34 0
-39 -297 35 0
-39 -298 36 0
-39 -299 37 0
-39 -300 38 0
-39 -301 40 0
-39 -302 41 0
-39 -303 42 0
-39 -304 43 0
-39 -305 44 0
-39 -306 45 0
-39 -307 46 0
-39 -308 47 0
-39 -309 48 0
-39 -310 49 0
-39 -311 50 0
-39 -312 51 0
-39 -313 52 0
-39 -314 53 0
-39 -315 54 0
-39 -316 55 0
-39 -317 56 0
-39 -318 57 0
-39 -319 58 0
-40 -320 30 0
-40 -322 31 0
-40 -323 32 0
-40 -324 33 0
-40 -325 34 0
-40 -326 35 0
-40 -327 36 0
-40 -328 37 0
-40 -329 38 0
-40 -330 39 0
-40 -331 41 0
-40 -332 42 0
-40 -333 43 0
-40 -334 44 0
-40 -335 45 0
-40 -336 46 0
-40 -337 47 0
-40 -338 48 0
-40 -339 49 0
-40 -340 50 0
-40 -341 51 0
-40 -342 52 0
-40 -343 53 0
-40 -344 54 0
-40 -345 55 0
-40 -346 56 0
-40 -347 57 0
-40 -348 58 0
-41 -349 30 0
-41 -351 31 0
-41 -352 32 0
-41 -353 33 0
-41 -354 34 0
-41 -355 35 0
-41 -356 36 0
-41 -357 37 0
-41 -358 38 0
-41 -359 39 0
-41 -360 40 0
-41 -361 42 0
-41 -362 43 0
-41 -363 44 0
-41 -364 45 0
-41 -365 46 0
-41 -366 47 0
-41 -367 48 0
-41 -368 49 0
-41 -369 50 0
-41 -370 51 0
-41 -371 52 0
-41 -372 53 0
-41 -373 54 0
-41 -374 55 0
-41 -375 56 0
-41 -376 57 0
-41 -377 58 0
-42 -378 30 0
-42 -380 31 0
-42 -381 32 0
-42 -382 33 0
-42 -383 34 0
-42 -384 35 0
-42 -385 36 0
-42 -386 37 0
-42 -387 38 0
-42 -388 39 0
-42 -389 40 0
-42 -390 41 0
-42 -391 43 0
-42 -392 44 0
-42 -393 45 0
-42 -394 46 0
-42 -395 47 0
-42 -396 48 0
-42 -397 49 0
-42 -398 50 0
-42 -399 51 0
-42 -400 52 0
-42 -401 53 0
-42 -402 54 0
-42 -403 55 0
-42 -404 56 0
-42 -405 57 0
-42 -406 58 0
-43 -407 30 0
-43 -409 31 0
-43 -410 32 0
-43 -411 33 0
-43 -412 34 0
-43 -413 35 0
-43 -414 36 0
-43 -415 37 0
-43 -416 38 0
-43 -417 39 0
-43 -418 40 0
-43 -419 41 0
-43 -420 42 0
-43 -421 44 0
-43 -422 45 0
-43 -423 46 0
-43 -424 47 0
-43 -425 48 0
-43 -426 49 0
-43 -427 50 0
-43 -428 51 0
-43 -429 52 0
-43 -430 53 0
-43 -431 54 0
-43 -432 55 0
-43 -433 56 0
-43 -434 57 0
-43 -435 58 0
-44 -436 30 0
-44 -438 31 0
-44 -439 32 0
-44 -440 33 0
-44 -441 34 0
-44 -442 35 0
-44 -443 36 0
-44 -444 37 0
-44 -445 38 0
-44 -446 39 0
-44 -447 40 0
-44 -448 41 0
-44 -449 42 0
-44 -450 43 0
-44 -451 45 0
-44 -452 46 0
-44 -453 47 0
-44 -454 48 0
-44 -455 49 0
-44 -456 50 0
-44 -457 51 0
-44 -458 52 0
-44 -459 53 0
-44 -460 54 0
-44 -461 55 0
-44 -462 56 0
-44 -463 57 0
-44 -464 58 0
-45 -465 30 0
-45 -467 31 0
-45 -468 32 0
-45 -469 33 0
-45 -470 34 0
-45 -471 35 0
-45 -472 36 0
-45 -473 37 0
-45 -474 38 0
-45 -475 39 0
-45 -476 40 0
-45 -477 41 0
-45 -478 42 0
-45 -479 43 0
-45 -480 44 0
-45 -481 46 0
-45 -482 47 0
-45 -483 48 0
-45 -484 49 0
-45 -485 50 0
-45 -486 51 0
-45 -487 52 0
-45 -488 53 0
-45 -489 54 0
-45 -490 55 0
-45 -491 56 0
-45 -492 57 0
-45 -493 58 0
-46 -494 30 0
-46 -496 31 0
-46 -497 32 0
-46 -498 33 0
-46 -499 34 0
-46 -500 35 0
-46 -501 36 0
-46 -502 37 0
-46 -503 38 0
-46 -504 39 0
-46 -505 40 0
-46 -506 41 0
-46 -507 42 0
-46 -508 43 0
-46 -509 44 0
-46 -510 45 0
-46 -511 47 0
-46 -512 48 0
-46 -513 49 0
-46 -514 50 0
-46 -515 51 0
-46 -516 52 0
-46 -517 53 0
-46 -518 54 0
-46 -519 55 0
-46 -520 56 0
-46 -521 57 0
-46 -522 58 0
-47 -523 30 0
-47 -525 31 0
-47 -526 32 0
-47 -527 33 0
-47 -528 34 0
-47 -529 35 0
-47 -530 36 0
-47 -531 37 0
-47 -532 38 0
-47 -533 39 0
-47 -534 40 0
-47 -535 41 0
-47 -536 42 0
-47 -537 43 0
-47 -538 44 0
-47 -539 45 0
-47 -540 46 0
-47 -541 48 0
-47 -542 49 0
-47 -543 50 0
-47 -544 51 0
-47 -545 52 0
-47 -546 53 0
-47 -547 54 0
-47 -548 55 0
-47 -549 56 0
-47 -550 57 0
-47 -551 58 0
-48 -552 30 0
-48 -554 31 0
-48 -555 32 0
-48 -556 33 0
-48 -557 34 0
-48 -558 35 0
-48 -559 36 0
-48 -560 37 0
-48 -561 38 0
-48 -562 39 0
-48 -563 40 0
-48 -564 41 0
-48 -565 42 0
-48 -566 43 0
-48 -567 44 0
-48 -568 45 0
-48 -569 46 0
-48 -570 47 0
-48 -571 49 0
-48 -572 50 0
-48 -573 51 0
-48 -574 52 0
-48 -575 53 0
-48 -576 54 0
-48 -577 55 0
-48 -578 56 0
-48 -579 57 0
-48 -580 58 0
-49 -581 30 0
-49 -583 31 0
-49 -584 32 0
-49 -585 33 0
-49 -586 34 0
-49 -587 35 0
-49 -588 36 0
-49 -589 37 0
-49 -590 38 0
-49 -591 39 0
-49 -592 40 0
-49 -593 41 0
-49 -594 42 0
-49 -595 43 0
-49 -596 44 0
-49 -597 45 0
-49 -598 46 0
-49 -599 47 0
-49 -600 48 0
-49 -601 50 0
-49 -602 51 0
-49 -603 52 0
-49 -604 53 0
-49 -605 54 0
-49 -606 55 0
-49 -607 56 0
-49 -608 57 0
-49 -609 58 0
-50 -610 30 0
-50 -612 31 0
-50 -613 32 0
-50 -614 33 0
-50 -615 34 0
-50 -616 35 0
-50 -617 36 0
-50 -618 37 0
-50 -619 38 0
-50 -620 39 0
-50 -621 40 0
-50 -622 41 0
-50 -623 42 0
-50 -624 43 0
-50 -625 44 0
-50 -626 45 0
-50 -627 46 0
-50 -628 47 0
-50 -629 48 0
-50 -630 49 0
-50 -631 51 0
-50 -632 52 0
-50 -633 53 0
-50 -634 54 0
-50 -635 55 0
-50 -636 56 0
-50 -637 57 0
-50 -638 58 0
-51 -639 30 0
-51 -641 31 0
-51 -642 32 0
-51 -643 33 0
-51 -644 34 0
-51 -645 35 0
-51 -646 36 0
-51 -647 37 0
-51 -648 38 0
-51 -649 39 0
-51 -650 40 0
-51 -651 41 0
-51 -652 42 0
-51 -653 43 0
-51 -654 44 0
-51 -655 45 0
-51 -656 46 0
-51 -657 47 0
-51 -658 48 0
-51 -659 49 0
-51 -660 50 0
-51 -661 52 0
-51 -662 53 0
-51 -663 54 0
-51 -664 55 0
-51 -665 56 0
-51 -666 57 0
-51 -667 58 0
-52 -668 30 0
-52 -670 31 0
-52 -671 32 0
-52 -672 33 0
-52 -673 34 0
-52 -674 35 0
-52 -675 36 0
-52 -676 37 0
-52 -677 38 0
-52 -678 39 0
-52 -679 40 0
-52 -680 41 0
-52 -681 42 0
-52 -682 43 0
-52 -683 44 0
-52 -684 45 0
-52 -685 46 0
-52 -686 47 0
-52 -687 48 0
-52 -688 49 0
-52 -689 50 0
-52 -690 51 0
-52 -691 53 0
-52 -692 54 0
-52 -693 55 0
-52 -694 56 0
-52 -695 57 0
-52 -696 58 0
-53 -697 30 0
-53 -699 31 0
-53 -700 32 0
-53 -701 33 0
-53 -702 34 0
-53 -703 35 0
-53 -704 36 0
-53 -705 37 0
-53 -706 38 0
-53 -707 39 0
-53 -708 40 0
-53 -709 41 0
-53 -710 42 0
-53 -711 43 0
-53 -712 44 0
-53 -713 45 0
-53 -714 46 0
-53 -715 47 0
-53 -716 48 0
-53 -717 49 0
-53 -718 50 0
-53 -719 51 0
-53 -720 52 0
-53 -721 54 0
-53 -722 55 0
-53 -723 56 0
-53 -724 57 0
-53 -725 58 0
-54 -726 30 0
-54 -728 31 0
-54 -729 32 0
-54 -730 33 0
-54 -731 34 0
-54 -732 35 0
-54 -733 36 0
-54 -734 37 0
-54 -735 38 0
-54 -736 39 0
-54 -737 40 0
-54 -738 41 0
-54 -739 42 0
-54 -740 43 0
-54 -741 44 0
-54 -742 45 0
-54 -743 46 0
-54 -744 47 0
-54 -745 48 0
-54 -746 49 0
-54 -747 50 0
-54 -748 51 0
-54 -749 52 0
-54 -750 53 0
-54 -751 55 0
-54 -752 56 0
-54 -753 57 0
-54 -754 58 0
-55 -755 30 0
-55 -757 31 0
-55 -758 32 0
-55 -759 33 0
-55 -760 34 0
-55 -761 35 0
-55 -762 36 0
-55 -763 37 0
-55 -764 38 0
-55 -765 39 0
-55 -766 40 0
-55 -767 41 0
-55 -768 42 0
-55 -769 43 0
-55 -770 44 0
-55 -771 45 0
-55 -772 46 0
-55 -773 47 0
-55 -774 48 0
-55 -775 49 0
-55 -776 50 0
-55 -777 51 0
-55 -778 52 0
-55 -779 53 0
-55 -780 54 0
-55 -781 56 0
-55 -782 57 0
-55 -783 58 0
-56 -784 30 0
-56 -786 31 0
-56 -787 32 0
-56 -788 33 0
-56 -789 34 0
-56 -790 35 0
-56 -791 36 0
-56 -792 37 0
-56 -793 38 0
-56 -794 39 0
-56 -795 40 0
-56 -796 41 0
-56 -797 42 0
-56 -798 43 0
-56 -799 44 0
-56 -800 45 0
-56 -801 46 0
-56 -802 47 0
-56 -803 48 0
-56 -804 49 0
-56 -805 50 0
-56 -806 51 0
-56 -807 52 0
-56 -808 53 0
-56 -809 54 0
-56 -810 55 0
-56 -811 57 0
-56 -812 58 0
-57 -813 30 0
-57 -815 31 0
-57 -816 32 0
-57 -817 33 0
-57 -818 34 0
-57 -819 35 0
-57 -820 36 0
-57 -821 37 0
-57 -822 38 0
-57 -823 39 0
-57 -824 40 0
-57 -825 41 0
-57 -826 42 0
-57 -827 43 0
-57 -828 44 0
-57 -829 45 0
-57 -830 46 0
-57 -831 47 0
-57 -832 48 0
-57 -833 49 0
-57 -834 50 0
-57 -835 51 0
-57 -836 52 0
-57 -837 53 0
-57 -838 54 0
-57 -839 55 0
-57 -840 56 0
-57 -841 58 0
-58 -842 30 0
-58 -844 31 0
-58 -845 32 0
-58 -846 33 0
-58 -847 34 0
-58 -848 35 0
-58 -849 36 0
-58 -850 37 0
-58 -851 38 0
-58 -852 39 0
-58 -853 40 0
-58 -854 41 0
-58 -855 42 0
-58 -856 43 0
-58 -857 44 0
-58 -858 45 0
-58 -859 46 0
-58 -860 47 0
-58 -861 48 0
-58 -862 49 0
-58 -863 50 0
-58 -864 51 0
-58 -865 52 0
-58 -866 53 0
-58 -867 54 0
-58 -868 55 0
-58 -869 56 0
-58 -870 57 0
-59 -1 60 0
-59 -3 61 0
-59 -4 62 0
-59 -5 63 0
-59 -6 64 0
-59 -7 65 0
-59 -8 66 0
-59 -9 67 0
-59 -10 68 0
-59 -11 69 0
-59 -12 70 0
-59 -13 71 0
-59 -14 72 0
-59 -15 73 0
-59 -16 74 0
-59 -17 75 0
-59 -18 76 0
-59 -19 77 0
-59 -20 78 0
-59 -21 79 0
-59 -22 80 0
-59 -23 81 0
-59 -24 82 0
-59 -25 83 0
-59 -26 84 0
-59 -27 85 0
-59 -28 86 0
-59 -29 87 0
-60 -30 59 0
-60 -32 61 0
-60 -33 62 0
-60 -34 63 0
-60 -35 64 0
-60 -36 65 0
-60 -37 66 0
-60 -38 67 0
-60 -39 68 0
-60 -40 69 0
-60 -41 70 0
-60 -42 71 0
-60 -43 72 0
-60 -44 73 0
-60 -45 74 0
-60 -46 75 0
-60 -47 76 0
-60 -48 77 0
-60 -49 78 0
-60 -50 79 0
-60 -51 80 0
-60 -52 81 0
-60 -53 82 0
-60 -54 83 0
-60 -55 84 0
-60 -56 85 0
-60 -57 86 0
-60 -58 87 0
-61 -88 59 0
-61 -89 60 0
-61 -91 62 0
-61 -92 63 0
-61 -93 64 0
-61 -94 65 0
-61 -95 66 0
-61 -96 67 0
-61 -97 68 0
-61 -98 69 0
-61 -99 70 0
-61 -100 71 0
-61 -101 72 0
-61 -102 73 0
-61 -103 74 0
-61 -104 75 0
-61 -105 76 0
-61 -106 77 0
-61 -107 78 0
-61 -108 79 0
-61 -109 80 0
-61 -110 81 0
-61 -111 82 0
-61 -112 83 0
-61 -113 84 0
-61 -114 85 0
-61 -115 86 0
-61 -116 87 0
-62 -117 59 0
-62 -118 60 0
-62 -120 61 0
-62 -121 63 0
-62 -122 64 0
-62 -123 65 0
-62 -124 66 0
-62 -125 67 0
-62 -126 68 0
-62 -127 69 0
-62 -128 70 0
-62 -129 71 0
-62 -130 72 0
-62 -131 73 0
-62 -132 74 0
-62 -133 75 0
-62 -134 76 0
-62 -135 77 0
-62 -136 78 0
-62 -137 79 0
-62 -138 80 0
-62 -139 81 0
-62 -140 82 0
-62 -141 83 0
-62 -142 84 0
-62 -143 85 0
-62 -144 86 0
-62 -145 87 0
-63 -146 59 0
-63 -147 60 0
-63 -149 61 0
-63 -150 62 0
-63 -151 64 0
-63 -152 65 0
-63 -153 66 0
-63 -154 67 0
-63 -155 68 0
-63 -156 69 0
-63 -157 70 0
-63 -158 71 0
-63 -159 72 0
-63 -160 73 0
-63 -161 74 0
-63 -162 75 0
-63 -163 76 0
-63 -164 77 0
-63 -165 78 0
-63 -166 79 0
-63 -167 80 0
-63 -168 81 0
-63 -169 82 0
-63 -170 83 0
-63 -171 84 0
-63 -172 85 0
-63 -173 86 0
-63 -174 87 0
-64 -175 59 0
-64 -176 60 0
-64 -178 61 0
-64 -179 62 0
-64 -180 63 0
-64 -181 65 0
-64 -182 66 0
-64 -183 67 0
-64 -184 68 0
-64 -185 69 0
-64 -186 70 0
-64 -187 71 0
-64 -188 72 0
-64 -189 73 0
-64 -190 74 0
-64 -191 75 0
-64 -192 76 0
-64 -193 77 0
-64 -194 78 0
-64 -195 79 0
-64 -196 80 0
-64 -197 81 0
-64 -198 82 0
-64 -199 83 0
-64 -200 84 0
-64 -201 85 0
-64 -202 86 0
-64 -203 87 0
-65 -204 59 0
-65 -205 60 0
-65 -207 61 0
-65 -208 62 0
-65 -209 63 0
-65 -210 64 0
-65 -211 66 0
-65 -212 67 0
-65 -213 68 0
-65 -214 69 0
-65 -215 70 0
-65 -216 71 0
-65 -217 72 0
-65 -218 73 0
-65 -219 74 0
-65 -220 75 0
-65 -221 76 0
-65 -222 77 0
-65 -223 78 0
-65 -224 79 0
-65 -225 80 0
-65 -226 81 0
-65 -227 82 0
-65 -228 83 0
-65 -229 84 0
-65 -230 85 0
-65 -231 86 0
-65 -232 87 0
-66 -233 59 0
-66 -234 60 0
-66 -236 61 0
-66 -237 62 0
-66 -238 63 0
-66 -239 64 0
-66 -240 65 0
-66 -241 67 0
-66 -242 68 0
-66 -243 69 0
-66 -244 70 0
-66 -245 71 0
-66 -246 72 0
-66 -247 73 0
-66 -248 74 0
-66 -249 75 0
-66 -250 76 0
-66 -251 77 0
-66 -252 78 0
-66 -253 79 0
-66 -254 80 0
-66 -255 81 0
-66 -256 82 0
-66 -257 83 0
-66 -258 84 0
-66 -259 85 0
-66 -260 86 0
-66 -261 87 0
-67 -262 59 0
-67 -263 60 0
-67 -265 61 0
-67 -266 62 0
-67 -267 63 0
-67 -268 64 0
-67 -269 65 0
-67 -270 66 0
-67 -271 68 0
-67 -272 69 0
-67 -273 70 0
-67 -274 71 0
-67 -275 72 0
-67 -276 73 0
-67 -277 74 0
-67 -278 75 0
-67 -279 76 0
-67 -280 77 0
-67 -281 78 0
-67 -282 79 0
-67 -283 80 0
-67 -284 81 0
-67 -285 82 0
-67 -286 83 0
-67 -287 84 0
-67 -288 85 0
-67 -289 86 0
-67 -290 87 0
-68 -291 59 0
-68 -292 60 0
-68 -294 61 0
-68 -295 62 0
-68 -296 63 0
-68 -297 64 0
-68 -298 65 0
-68 -299 66 0
-68 -300 67 0
-68 -301 69 0
-68 -302 70 0
-68 -303 71 0
-68 -304 72 0
-68 -305 73 0
-68 -306 74 0
-68 -307 75 0
-68 -308 76 0
-68 -309 77 0
-68 -310 78 0
-68 -311 79 0
-68 -312 80 0
-68 -313 81 0
-68 -314 82 0
-68 -315 83 0
-68 -316 84 0
-68 -317 85 0
-68 -318 86 0
-68 -319 87 0
-69 -320 59 0
-69 -321 60 0
-69 -323 61 0
-69 -324 62 0
-69 -325 63 0
-69 -326 64 0
-69 -327 65 0
-69 -328 66 0
-69 -329 67 0
-69 -330 68 0
-69 -331 70 0
-69 -332 71 0
-69 -333 72 0
-69 -334 73 0
-69 -335 74 0
-69 -336 75 0
-69 -337 76 0
-69 -338 77 0
-69 -339 78 0
-69 -340 79 0
-69 -341 80 0
-69 -342 81 0
-69 -343 82 0
-69 -344 83 0
-69 -345 84 0
-69 -346 85 0
-69 -347 86 0
-69 -348 87 0
-70 -349 59 0
-70 -350 60 0
-70 -352 61 0
-70 -353 62 0
-70 -354 63 0
-70 -355 64 0
-70 -356 65 0
-70 -357 66 0
-70 -358 67 0
-70 -359 68 0
-70 -360 69 0
-70 -361 71 0
-70 -362 72 0
-70 -363 73 0
-70 -364 74 0
-70 -365 75 0
-70 -366 76 0
-70 -367 77 0
-70 -368 78 0
-70 -369 79 0
-70 -370 80 0
-70 -371 81 0
-70 -372 82 0
-70 -373 83 0
-70 -374 84 0
-70 -375 85 0
-70 -376 86 0
-70 -377 87 0
-71 -378 59 0
-71 -379 60 0
-71 -381 61 0
-71 -382 62 0
-71 -383 63 0
-71 -384 64 0
-71 -385 65 0
-71 -386 66 0
-71 -387 67 0
-71 -388 68 0
-71 -389 69 0
-71 -390 70 0
-71 -391 72 0
-71 -392 73 0
-71 -393 74 0
-71 -394 75 0
-71 -395 76 0
-71 -396 77 0
-71 -397 78 0
-71 -398 79 0
-71 -399 80 0
-71 -400 81 0
-71 -401 82 0
-71 -402 83 0
-71 -403 84 0
-71 -404 85 0
-71 -405 86 0
-71 -406 87 0
-72 -407 59 0
-72 -408 60 0
-72 -410 61 0
-72 -411 62 0
-72 -412 63 0
-72 -413 64 0
-72 -414 65 0
-72 -415 66 0
-72 -416 67 0
-72 -417 68 0
-72 -418 69 0
-72 -419 70 0
-72 -420 71 0
-72 -421 73 0
-72 -422 74 0
-72 -423 75 0
-72 -424 76 0
-72 -425 77 0
-72 -426 78 0
-72 -427 79 0
-72 -428 80 0
-72 -429 81 0
-72 -430 82 0
-72 -431 83 0
-72 -432 84 0
-72 -433 85 0
-72 -434 86 0
-72 -435 87 0
-73 -436 59 0
-73 -437 60 0
-73 -439 61 0
-73 -440 62 0
-73 -441 63 0
-73 -442 64 0
-73 -443 65 0
-73 -444 66 0
-73 -445 67 0
-73 -446 68 0
-73 -447 69 0
-73 -448 70 0
-73 -449 71 0
-73 -450 72 0
-73 -451 74 0
-73 -452 75 0
-73 -453 76 0
-73 -454 77 0
-73 -455 78 0
-73 -456 79 0
-73 -457 80 0
-73 -458 81 0
-73 -459 82 0
-73 -460 83 0
-73 -461 84 0
-73 -462 85 0
-73 -463 86 0
-73 -464 87 0
-74 -465 59 0
-74 -466 60 0
-74 -468 61 0
-74 -469 62 0
-74 -470 63 0
-74 -471 64 0
-74 -472 65 0
-74 -473 66 0
-74 -474 67 0
-74 -475 68 0
-74 -476 69 0
-74 -477 70 0
-74 -478 71 0
-74 -479 72 0
-74 -480 73 0
-74 -481 75 0
-74 -482 76 0
-74 -483 77 0
-74 -484 78 0
-74 -485 79 0
-74 -486 80 0
-74 -487 81 0
-74 -488 82 0
-74 -489 83 0
-74 -490 84 0
-74 -491 85 0
-74 -492 86 0
-74 -493 87 0
-75 -494 59 0
-75 -495 60 0
-75 -497 61 0
-75 -498 62 0
-75 -499 63 0
-75 -500 64 0
-75 -501 65 0
-75 -502 66 0
-75 -503 67 0
-75 -504 68 0
-75 -505 69 0
-75 -506 70 0
-75 -507 71 0
-75 -508 72 0
-75 -509 73 0
-75 -510 74 0
-75 -511 76 0
-75 -512 77 0
-75 -513 78 0
-75 -514 79 0
-75 -515 80 0
-75 -516 81 0
-75 -517 82 0
-75 -518 83 0
-75 -519 84 0
-75 -520 85 0
-75 -521 86 0
-75 -522 87 0
-76 -523 59 0
-76 -524 60 0
-76 -526 61 0
-76 -527 62 0
-76 -528 63 0
-76 -529 64 0
-76 -530 65 0
-76 -531 66 0
-76 -532 67 0
-76 -533 68 0
-76 -534 69 0
-76 -535 70 0
-76 -536 71 0
-76 -537 72 0
-76 -538 73 0
-76 -539 74 0
-76 -540 75 0
-76 -541 77 0
-76 -542 78 0
-76 -543 79 0
-76 -544 80 0
-76 -545 81 0
-76 -546 82 0
-76 -547 83 0
-76 -548 84 0
-76 -549 85 0
-76 -550 86 0
-76 -551 87 0
-77 -552 59 0
-77 -553 60 0
-77 -555 61 0
-77 -556 62 0
-77 -557 63 0
-77 -558 64 0
-77 -559 65 0
-77 -560 66 0
-77 -561 67 0
-77 -562 68 0
-77 -563 69 0
-77 -564 70 0
-77 -565 71 0
-77 -566 72 0
-77 -567 73 0
-77 -568 74 0
-77 -569 75 0
-77 -570 76 0
-77 -571 78 0
-77 -572 79 0
-77 -573 80 0
-77 -574 81 0
-77 -575 82 0
-77 -576 83 0
-77 -577 84 0
-77 -578 85 0
-77 -579 86 0
-77 -580 87 0
-78 -581 59 0
-78 -582 60 0
-78 -584 61 0
-78 -585 62 0
-78 -586 63 0
-78 -587 64 0
-78 -588 65 0
-78 -589 66 0
-78 -590 67 0
-78 -591 68 0
-78 -592 69 0
-78 -593 70 0
-78 -594 71 0
-78 -595 72 0
-78 -596 73 0
-78 -597 74 0
-78 -598 75 0
-78 -599 76 0
-78 -600 77 0
-78 -601 79 0
-78 -602 80 0
-78 -603 81 0
-78 -604 82 0
-78 -605 83 0
-78 -606 84 0
-78 -607 85 0
-78 -608 86 0
-78 -609 87 0
-79 -610 59 0
-79 -611 60 0
-79 -613 61 0
-79 -614 62 0
-79 -615 63 0
-79 -616 64 0
-79 -617 65 0
-79 -618 66 0
-79 -619 67 0
-79 -620 68 0
-79 -621 69 0
-79 -622 70 0
-79 -623 71 0
-79 -624 72 0
-79 -625 73 0
-79 -626 74 0
-79 -627 75 0
-79 -628 76 0
-79 -629 77 0
-79 -630 78 0
-79 -631 80 0
-79 -632 81 0
-79 -633 82 0
-79 -634 83 0
-79 -635 84 0
-79 -636 85 0
-79 -637 86 0
-79 -638 87 0
-80 -639 59 0
-80 -640 60 0
-80 -642 61 0
-80 -643 62 0
-80 -644 63 0
-80 -645 64 0
-80 -646 65 0
-80 -647 66 0
-80 -648 67 0
-80 -649 68 0
-80 -650 69 0
-80 -651 70 0
-80 -652 71 0
-80 -653 72 0
-80 -654 73 0
-80 -655 74 0
-80 -656 75 0
-80 -657 76 0
-80 -658 77 0
-80 -659 78 0
-80 -660 79 0
-80 -661 81 0
-80 -662 82 0
-80 -663 83 0
-80 -664 84 0
-80 -665 85 0
-80 -666 86 0
-80 -667 87 0
-81 -668 59 0
-81 -669 60 0
-81 -671 61 0
-81 -672 62 0
-81 -673 63 0
-81 -674 64 0
-81 -675 65 0
-81 -676 66 0
-81 -677 67 0
-81 -678 68 0
-81 -679 69 0
-81 -680 70 0
-81 -681 71 0
-81 -682 72 0
-81 -683 73 0
-81 -684 74 0
-81 -685 75 0
-81 -686 76 0
-81 -687 77 0
-81 -688 78 0
-81 -689 79 0
-81 -690 80 0
-81 -691 82 0
-81 -692 83 0
-81 -693 84 0
-81 -694 85 0
-81 -695 86 0
-81 -696 87 0
-82 -697 59 0
-82 -698 60 0
-82 -700 61 0
-82 -701 62 0
-82 -702 63 0
-82 -703 64 0
-82 -704 65 0
-82 -705 66 0
-82 -706 67 0
-82 -707 68 0
-82 -708 69 0
-82 -709 70 0
-82 -710 71 0
-82 -711 72 0
-82 -712 73 0
-82 -713 74 0
-82 -714 75 0
-82 -715 76 0
-82 -716 77 0
-82 -717 78 0
-82 -718 79 0
-82 -719 80 0
-82 -720 81 0
-82 -721 83 0
-82 -722 84 0
-82 -723 85 0
-82 -724 86 0
-82 -725 87 0
-83 -726 59 0
-83 -727 60 0
-83 -729 61 0
-83 -730 62 0
-83 -731 63 0
-83 -732 64 0
-83 -733 65 0
-83 -734 66 0
-83 -735 67 0
-83 -736 68 0
-83 -737 69 0
-83 -738 70 0
-83 -739 71 0
-83 -740 72 0
-83 -741 73 0
-83 -742 74 0
-83 -743 75 0
-83 -744 76 0
-83 -745 77 0
-83 -746 78 0
-83 -747 79 0
-83 -748 80 0
-83 -749 81 0
-83 -750 82 0
-83 -751 84 0
-83 -752 85 0
-83 -753 86 0
-83 -754 87 0
-84 -755 59 0
-84 -756 60 0
-84 -758 61 0
-84 -759 62 0
-84 -760 63 0
-84 -761 64 0
-84 -762 65 0
-84 -763 66 0
-84 -764 67 0
-84 -765 68 0
-84 -766 69 0
-84 -767 70 0
-84 -768 71 0
-84 -769 72 0
-84 -770 73 0
-84 -771 74 0
-84 -772 75 0
-84 -773 76 0
-84 -774 77 0
-84 -775 78 0
-84 -776 79 0
-84 -777 80 0
-84 -778 81 0
-84 -779 82 0
-84 -780 83 0
-84 -781 85 0
-84 -782 86 0
-84 -783 87 0
-85 -784 59 0
-85 -785 60 0
-85 -787 61 0
-85 -788 62 0
-85 -789 63 0
-85 -790 64 0
-85 -791 65 0
-85 -792 66 0
-85 -793 67 0
-85 -794 68 0
-85 -795 69 0
-85 -796 70 0
-85 -797 71 0
-85 -798 72 0
-85 -799 73 0
-85 -800 74 0
-85 -801 75 0
-85 -802 76 0
-85 -803 77 0
-85 -804 78 0
-85 -805 79 0
-85 -806 80 0
-85 -807 81 0
-85 -808 82 0
-85 -809 83 0
-85 -810 84 0
-85 -811 86 0
-85 -812 87 0
-86 -813 59 0
-86 -814 60 0
-86 -816 61 0
-86 -817 62 0
-86 -818 63 0
-86 -819 64 0
-86 -820 65 0
-86 -821 66 0
-86 -822 67 0
-86 -823 68 0
-86 -824 69 0
-86 -825 70 0
-86 -826 71 0
-86 -827 72 0
-86 -828 73 0
-86 -829 74 0
-86 -830 75 0
-86 -831 76 0
-86 -832 77 0
-86 -833 78 0
-86 -834 79 0
-86 -835 80 0
-86 -836 81 0
-86 -837 82 0
-86 -838 83 0
-86 -839 84 0
-86 -840 85 0
-86 -841 87 0
-87 -842 59 0
-87 -843 60 0
-87 -845 61 0
-87 -846 62 0
-87 -847 63 0
-87 -848 64 0
-87 -849 65 0
-87 -850 66 0
-87 -851 67 0
-87 -852 68 0
-87 -853 69 0
-87 -854 70 0
-87 -855 71 0
-87 -856 72 0
-87 -857 73 0
-87 -858 74 0
-87 -859 75 0
-87 -860 76 0
-87 -861 77 0
-87 -862 78 0
-87 -863 79 0
-87 -864 80 0
-87 -865 81 0
-87 -866 82 0
-87 -867 83 0
-87 -868 84 0
-87 -869 85 0
-87 -870 86 0
-88 -1 89 0
-88 -2 90 0
-88 -4 91 0
-88 -5 92 0
-88 -6 93 0
-88 -7 94 0
-88 -8 95 0
-88 -9 96 0
-88 -10 97 0
-88 -11 98 0
-88 -12 99 0
-88 -13 100 0
-88 -14 101 0
-88 -15 102 0
-88 -16 103 0
-88 -17 104 0
-88 -18 105 0
-88 -19 106 0
-88 -20 107 0
-88 -21 108 0
-88 -22 109 0
-88 -23 110 0
-88 -24 111 0
-88 -25 112 0
-88 -26 113 0
-88 -27 114 0
-88 -28 115 0
-88 -29 116 0
-89 -30 88 0
-89 -31 90 0
-89 -33 91 0
-89 -34 92 0
-89 -35 93 0
-89 -36 94 0
-89 -37 95 0
-89 -38 96 0
-89 -39 97 0
-89 -40 98 0
-89 -41 99 0
-89 -42 100 0
-89 -43 101 0
-89 -44 102 0
-89 -45 103 0
-89 -46 104 0
-89 -47 105 0
-89 -48 106 0
-89 -49 107 0
-89 -50 108 0
-89 -51 109 0
-89 -52 110 0
-89 -53 111 0
-89 -54 112 0
-89 -55 113 0
-89 -56 114 0
-89 -57 115 0
-89 -58 116 0
-90 -59 88 0
-90 -60 89 0
-90 -62 91 0
-90 -63 92 0
-90 -64 93 0
-90 -65 94 0
-90 -66 95 0
-90 -67 96 0
-90 -68 97 0
-90 -69 98 0
-90 -70 99 0
-90 -71 100 0
-90 -72 101 0
-90 -73 102 0
-90 -74 103 0
-90 -75 104 0
-90 -76 105 0
-90 -77 106 0
-90 -78 107 0
-90 -79 108 0
-90 -80 109 0
-90 -81 110 0
-90 -82 111 0
-90 -83 112 0
-90 -84 113 0
-90 -85 114 0
-90 -86 115 0
-90 -87 116 0
-91 -117 88 0
-91 -118 89 0
-91 -119 90 0
-91 -121 92 0
-91 -122 93 0
-91 -123 94 0
-91 -124 95 0
-91 -125 96 0
-91 -126 97 0
-91 -127 98 0
-91 -128 99 0
-91 -129 100 0
-91 -130 101 0
-91 -131 102 0
-91 -132 103 0
-91 -133 104 0
-91 -134 105 0
-91 -135 106 0
-91 -136 107 0
-91 -137 108 0
-91 -138 109 0
-91 -139 110 0
-91 -140 111 0
-91 -141 112 0
-91 -142 113 0
-91 -143 114 0
-91 -144 115 0
-91 -145 116 0
-92 -146 88 0
-92 -147 89 0
-92 -148 90 0
-92 -150 91 0
-92 -151 93 0
-92 -152 94 0
-92 -153 95 0
-92 -154 96 0
-92 -155 97 0
-92 -156 98 0
-92 -157 99 0
-92 -158 100 0
-92 -159 101 0
-92 -160 102 0
-92 -161 103 0
-92 -162 104 0
-92 -163 105 0
-92 -164 106 0
-92 -165 107 0
-92 -166 108 0
-92 -167 109 0
-92 -168 110 0
-92 -169 111 0
-92 -170 112 0
-92 -171 113 0
-92 -172 114 0
-92 -173 115 0
-92 -174 116 0
-93 -175 88 0
-93 -176 89 0
-93 -177 90 0
-93 -179 91 0
-93 -180 92 0
-93 -181 94 0
-93 -182 95 0
-93 -183 96 0
-93 -184 97 0
-93 -185 98 0
-93 -186 99 0
-93 -187 100 0
-93 -188 101 0
-93 -189 102 0
-93 -190 103 0
-93 -191 104 0
-93 -192 105 0
-93 -193 106 0
-93 -194 107 0
-93 -195 108 0
-93 -196 109 0
-93 -197 110 0
-93 -198 111 0
-93 -199 112 0
-93 -200 113 0
-93 -201 114 0
-93 -202 115 0
-93 -203 116 0
-94 -204 88 0
-94 -205 89 0
-94 -206 90 0
-94 -208 91 0
-94 -209 92 0
-94 -210 93 0
-94 -211 95 0
-94 -212 96 0
-94 -213 97 0
-94 -214 98 0
-94 -215 99 0
-94 -216 100 0
-94 -217 101 0
-94 -218 102 0
-94 -219 103 0
-94 -220 104 0
-94 -221 105 0
-94 -222 106 0
-94 -223 107 0
-94 -224 108 0
-94 -225 109 0
-94 -226 110 0
-94 -227 111 0
-94 -228 112 0
-94 -229 113 0
-94 -230 114 0
-94 -231 115 0
-94 -232 116 0
-95 -233 88 0
-95 -234 89 0
-95 -235 90 0
-95 -237 91 0
-95 -238 92 0
-95 -239 93 0
-95 -240 94 0
-95 -241 96 0
-95 -242 97 0
-95 -243 98 0
-95 -244 99 0
-95 -245 100 0
-95 -246 101 0
-95 -247 102 0
-95 -248 103 0
-95 -249 104 0
-95 -250 105 0
-95 -251 106 0
-95 -252 107 0
-95 -253 108 0
-95 -254 109 0
-95 -255 110 0
-95 -256 111 0
-95 -257 112 0
-95 -258 113 0
-95 -259 114 0
-95 -260 115 0
-95 -261 116 0
-96 -262 88 0
-96 -263 89 0
-96 -264 90 0
-96 -266 91 0
-96 -267 92 0
-96 -268 93 0
-96 -269 94 0
-96 -270 95 0
-96 -271 97 0
-96 -272 98 0
-96 -273 99 0
-96 -274 100 0
-96 -275 101 0
-96 -276 102 0
-96 -277 103 0
-96 -278 104 0
-96 -279 105 0
-96 -280 106 0
-96 -281 107 0
-96 -282 108 0
-96 -283 109 0
-96 -284 110 0
-96 -285 111 0
-96 -286 112 0
-96 -287 113 0
-96 -288 114 0
-96 -289 115 0
-96 -290 116 0
-97 -291 88 0
-97 -292 89 0
-97 -293 90 0
-97 -295 91 0
-97 -296 92 0
-97 -297 93 0
-97 -298 94 0
-97 -299 95 0
-97 -300 96 0
-97 -301 98 0
-97 -302 99 0
-97 -303 100 0
-97 -304 101 0
-97 -305 102 0
-97 -306 103 0
-97 -307 104 0
-97 -308 105 0
-97 -309 106 0
-97 -310 107 0
-97 -311 108 0
-97 -312 109 0
-97 -313 110 0
-97 -314 111 0
-97 -315 112 0
-97 -316 113 0
-97 -317 114 0
-97 -318 115 0
-97 -319 116 0
-98 -320 88 0
-98 -321 89 0
-98 -322 90 0
-98 -324 91 0
-98 -325 92 0
-98 -326 93 0
-98 -327 94 0
-98 -328 95 0
-98 -329 96 0
-98 -330 97 0
-98 -331 99 0
-98 -332 100 0
-98 -333 101 0
-98 -334 102 0
-98 -335 103 0
-98 -336 104 0
-98 -337 105 0
-98 -338 106 0
-98 -339 107 0
-98 -340 108 0
-98 -341 109 0
-98 -342 110 0
-98 -343 111 0
-98 -344 112 0
-98 -345 113 0
-98 -346 114 0
-98 -347 115 0
-98 -348 116 0
-99 -349 88 0
-99 -350 89 0
-99 -351 90 0
-99 -353 91 0
-99 -354 92 0
-99 -355 93 0
-99 -356 94 0
-99 -357 95 0
-99 -358 96 0
-99 -359 97 0
-99 -360 98 0
-99 -361 100 0
-99 -362 101 0
-99 -363 102 0
-99 -364 103 0
-99 -365 104 0
-99 -366 105 0
-99 -367 106 0
-99 -368 107 0
-99 -369 108 0
-99 -370 109 0
-99 -371 110 0
-99 -372 111 0
-99 -373 112 0
-99 -374 113 0
-99 -375 114 0
-99 -376 115 0
-99 -377 116 0
-100 -378 88 0
-100 -379 89 0
-100 -380 90 0
-100 -382 91 0
-100 -383 92 0
-100 -384 93 0
-100 -385 94 0
-100 -386 95 0
-100 -387 96 0
-100 -388 97 0
-100 -389 98 0
-100 -390 99 0
-100 -391 101 0
-100 -392 102 0
-100 -393 103 0
-100 -394 104 0
-100 -395 105 0
-100 -396 106 0
-100 -397 107 0
-100 -398 108 0
-100 -399 109 0
-100 -400 110 0
-100 -401 111 0
-100 -402 112 0
-100 -403 113 0
-100 -404 114 0
-100 -405 115 0
-100 -406 116 0
-101 -407 88 0
-101 -408 89 0
-101 -409 90 0
-101 -411 91 0
-101 -412 92 0
-101 -413 93 0
-101 -414 94 0
-101 -415 95 0
-101 -416 96 0
-101 -417 97 0
-101 -418 98 0
-101 -419 99 0
-101 -420 100 0
-101 -421 102 0
-101 -422 103 0
-101 -423 104 0
-101 -424 105 0
-101 -425 106 0
-101 -426 107 0
-101 -427 108 0
-101 -428 109 0
-101 -429 110 0
-101 -430 111 0
-101 -431 112 0
-101 -432 113 0
-101 -433 114 0
-101 -434 115 0
-101 -435 116 0
-102 -436 88 0
-102 -437 89 0
-102 -438 90 0
-102 -440 91 0
-102 -441 92 0
-102 -442 93 0
-102 -443 94 0
-102 -444 95 0
-102 -445 96 0
-102 -446 97 0
-102 -447 98 0
-102 -448 99 0
-102 -449 100 0
-102 -450 101 0
-102 -451 103 0
-102 -452 104 0
-102 -453 105 0
-102 -454 106 0
-102 -455 107 0
-102 -456 108 0
-102 -457 109 0
-102 -458 110 0
-102 -459 111 0
-102 -460 112 0
-102 -461 113 0
-102 -462 114 0
-102 -463 115 0
-102 -464 116 0
-103 -465 88 0
-103 -466 89 0
-103 -467 90 0
-103 -469 91 0
-103 -470 92 0
-103 -471 93 0
-103 -472 94 0
-103 -473 95 0
-103 -474 96 0
-103 -475 97 0
-103 -476 98 0
-103 -477 99 0
-103 -478 100 0
-103 -479 101 0
-103 -480 102 0
-103 -481 104 0
-103 -482 105 0
-103 -483 106 0
-103 -484 107 0
-103 -485 108 0
-103 -486 109 0
-103 -487 110 0
-103 -488 111 0
-103 -489 112 0
-103 -490 113 0
-103 -491 114 0
-103 -492 115 0
-103 -493 116 0
-104 -494 88 0
-104 -495 89 0
-104 -496 90 0
-104 -498 91 0
-104 -499 92 0
-104 -500 93 0
-104 -501 94 0
-104 -502 95 0
-104 -503 96 0
-104 -504 97 0
-104 -505 98 0
-104 -506 99 0
-104 -507 100 0
-104 -508 101 0
-104 -509 102 0
-104 -510 103 0
-104 -511 105 0
-104 -512 106 0
-104 -513 107 0
-104 -514 108 0
-104 -515 109 0
-104 -516 110 0
-104 -517 111 0
-104 -518 112 0
-104 -519 113 0
-104 -520 114 0
-104 -521 115 0
-104 -522 116 0
-105 -523 88 0
-105 -524 89 0
-105 -525 90 0
-105 -527 91 0
-105 -528 92 0
-105 -529 93 0
-105 -530 94 0
-105 -531 95 0
-105 -532 96 0
-105 -533 97 0
-105 -534 98 0
-105 -535 99 0
-105 -536 100 0
-105 -537 101 0
-105 -538 102 0
-105 -539 103 0
-105 -540 104 0
-105 -541 106 0
-105 -542 107 0
-105 -543 108 0
-105 -544 109 0
-105 -545 110 0
-105 -546 111 0
-105 -547 112 0
-105 -548 113 0
-105 -549 114 0
-105 -550 115 0
-105 -551 116 0
-106 -552 88 0
-106 -553 89 0
-106 -554 90 0
-106 -556 91 0
-106 -557 92 0
-106 -558 93 0
-106 -559 94 0
-106 -560 95 0
-106 -561 96 0
-106 -562 97 0
-106 -563 98 0
-106 -564 99 0
-106 -565 100 0
-106 -566 101 0
-106 -567 102 0
-106 -568 103 0
-106 -569 104 0
-106 -570 105 0
-106 -571 107 0
-106 -572 108 0
-106 -573 109 0
-106 -574 110 0
-106 -575 111 0
-106 -576 112 0
-106 -577 113 0
-106 -578 114 0
-106 -579 115 0
-106 -580 116 0
-107 -581 88 0
-107 -582 89 0
-107 -583 90 0
-107 -585 91 0
-107 -586 92 0
-107 -587 93 0
-107 -588 94 0
-107 -589 95 0
-107 -590 96 0
-107 -591 97 0
-107 -592 98 0
-107 -593 99 0
-107 -594 100 0
-107 -595 101 0
-107 -596 102 0
-107 -597 103 0
-107 -598 104 0
-107 -599 105 0
-107 -600 106 0
-107 -601 108 0
-107 -602 109 0
-107 -603 110 0
-107 -604 111 0
-107 -605 112 0
-107 -606 113 0
-107 -607 114 0
-107 -608 115 0
-107 -609 116 0
-108 -610 88 0
-108 -611 89 0
-108 -612 90 0
-108 -614 91 0
-108 -615 92 0
-108 -616 93 0
-108 -617 94 0
-108 -618 95 0
-108 -619 96 0
-108 -620 97 0
-108 -621 98 0
-108 -622 99 0
-108 -623 100 0
-108 -624 101 0
-108 -625 102 0
-108 -626 103 0
-108 -627 104 0
-108 -628 105 0
-108 -629 106 0
-108 -630 107 0
-108 -631 109 0
-108 -632 110 0
-108 -633 111 0
-108 -634 112 0
-108 -635 113 0
-108 -636 114 0
-108 -637 115 0
-108 -638 116 0
-109 -639 88 0
-109 -640 89 0
-109 -641 90 0
-109 -643 91 0
-109 -644 92 0
-109 -645 93 0
-109 -646 94 0
-109 -647 95 0
-109 -648 96 0
-109 -649 97 0
-109 -650 98 0
-109 -651 99 0
-109 -652 100 0
-109 -653 101 0
-109 -654 102 0
-109 -655 103 0
-109 -656 104 0
-109 -657 105 0
-109 -658 106 0
-109 -659 107 0
-109 -660 108 0
-109 -661 110 0
-109 -662 111 0
-109 -663 112 0
-109 -664 113 0
-109 -665 114 0
-109 -666 115 0
-109 -667 116 0
-110 -668 88 0
-110 -669 89 0
-110 -670 90 0
-110 -672 91 0
-110 -673 92 0
-110 -674 93 0
-110 -675 94 0
-110 -676 95 0
-110 -677 96 0
-110 -678 97 0
-110 -679 98 0
-110 -680 99 0
-110 -681 100 0
-110 -682 101 0
-110 -683 102 0
-110 -684 103 0
-110 -685 104 0
-110 -686 105 0
-110 -687 106 0
-110 -688 107 0
-110 -689 108 0
-110 -690 109 0
-110 -691 111 0
-110 -692 112 0
-110 -693 113 0
-110 -694 114 0
-110 -695 115 0
-110 -696 116 0
-111 -697 88 0
-111 -698 89 0
-111 -699 90 0
-111 -701 91 0
-111 -702 92 0
-111 -703 93 0
-111 -704 94 0
-111 -705 95 0
-111 -706 96 0
-111 -707 97 0
-111 -708 98 0
-111 -709 99 0
-111 -710 100 0
-111 -711 101 0
-111 -712 102 0
-111 -713 103 0
-111 -714 104 0
-111 -715 105 0
-111 -716 106 0
-111 -717 107 0
-111 -718 108 0
-111 -719 109 0
-111 -720 110 0
-111 -721 112 0
-111 -722 113 0
-111 -723 114 0
-111 -724 115 0
-111 -725 116 0
-112 -726 88 0
-112 -727 89 0
-112 -728 90 0
-112 -730 91 0
-112 -731 92 0
-112 -732 93 0
-112 -733 94 0
-112 -734 95 0
-112 -735 96 0
-112 -736 97 0
-112 -737 98 0
-112 -738 99 0
-112 -739 100 0
-112 -740 101 0
-112 -741 102 0
-112 -742 103 0
-112 -743 104 0
-112 -744 105 0
-112 -745 106 0
-112 -746 107 0
-112 -747 108 0
-112 -748 109 0
-112 -749 110 0
-112 -750 111 0
-112 -751 113 0
-112 -752 114 0
-112 -753 115 0
-112 -754 116 0
-113 -755 88 0
-113 -756 89 0
-113 -757 90 0
-113 -759 91 0
-113 -760 92 0
-113 -761 93 0
-113 -762 94 0
-113 -763 95 0
-113 -764 96 0
-113 -765 97 0
-113 -766 98 0
-113 -767 99 0
-113 -768 100 0
-113 -769 101 0
-113 -770 102 0
-113 -771 103 0
-113 -772 104 0
-113 -773 105 0
-113 -774 106 0
-113 -775 107 0
-113 -776 108 0
-113 -777 109 0
-113 -778 110 0
-113 -779 111 0
-113 -780 112 0
-113 -781 114 0
-113 -782 115 0
-113 -783 116 0
-114 -784 88 0
-114 -785 89 0
-114 -786 90 0
-114 -788 91 0
-114 -789 92 0
-114 -790 93 0
-114 -791 94 0
-114 -792 95 0
-114 -793 96 0
-114 -794 97 0
-114 -795 98 0
-114 -796 99 0
-114 -797 100 0
-114 -798 101 0
-114 -799 102 0
-114 -800 103 0
-114 -801 104 0
-114 -802 105 0
-114 -803 106 0
-114 -804 107 0
-114 -805 108 0
-114 -806 109 0
-114 -807 110 0
-114 -808 111 0
-114 -809 112 0
-114 -810 113 0
-114 -811 115 0
-114 -812 116 0
-115 -813 88 0
-115 -814 89 0
-115 -815 90 0
-115 -817 91 0
-115 -818 92 0
-115 -819 93 0
-115 -820 94 0
-115 -821 95 0
-115 -822 96 0
-115 -823 97 0
-115 -824 98 0
-115 -825 99 0
-115 -826 100 0
-115 -827 101 0
-115 -828 102 0
-115 -829 103 0
-115 -830 104 0
-115 -831 105 0
-115 -832 106 0
-115 -833 107 0
-115 -834 108 0
-115 -835 109 0
-115 -836 110 0
-115 -837 111 0
-115 -838 112 0
-115 -839 113 0
-115 -840 114 0
-115 -841 116 0
-116 -842 88 0
-116 -843 89 0
-116 -844 90 0
-116 -846 91 0
-116 -847 92 0
-116 -848 93 0
-116 -849 94 0
-116 -850 95 0
-116 -851 96 0
-116 -852 97 0
-116 -853 98 0
-116 -854 99 0
-116 -855 100 0
-116 -856 101 0
-116 -857 102 0
-116 -858 103 0
-116 -859 104 0
-116 -860 105 0
-116 -861 106 0
-116 -862 107 0
-116 -863 108 0
-116 -864 109 0
-116 -865 110 0
-116 -866 111 0
-116 -867 112 0
-116 -868 113 0
-116 -869 114 0
-116 -870 115 0
-117 -1 118 0
-117 -2 119 0
-117 -3 120 0
-117 -5 121 0
-117 -6 122 0
-117 -7 123 0
-117 -8 124 0
-117 -9 125 0
-117 -10 126 0
-117 -11 127 0
-117 -12 128 0
-117 -13 129 0
-117 -14 130 0
-117 -15 131 0
-117 -16 132 0
-117 -17 133 0
-117 -18 134 0
-117 -19 135 0
-117 -20 136 0
-117 -21 137 0
-117 -22 138 0
-117 -23 139 0
-117 -24 140 0
-117 -25 141 0
-117 -26 142 0
-117 -27 143 0
-117 -28 144 0
-117 -29 145 0
-118 -30 117 0
-118 -31 119 0
-118 -32 120 0
-118 -34 121 0
-118 -35 122 0
-118 -36 123 0
-118 -37 124 0
-118 -38 125 0
-118 -39 126 0
-118 -40 127 0
-118 -41 128 0
-118 -42 129 0
-118 -43 130 0
-118 -44 131 0
-118 -45 132 0
-118 -46 133 0
-118 -47 134 0
-118 -48 135 0
-118 -49 136 0
-118 -50 137 0
-118 -51 138 0
-118 -52 139 0
-118 -53 140 0
-118 -54 141 0
-118 -55 142 0
-118 -56 143 0
-118 -57 144 0
-118 -58 145 0
-119 -59 117 0
-119 -60 118 0
-119 -61 120 0
-119 -63 121 0
-119 -64 122 0
-119 -65 123 0
-119 -66 124 0
-119 -67 125 0
-119 -68 126 0
-119 -69 127 0
-119 -70 128 0
-119 -71 129 0
-119 -72 130 0
-119 -73 131 0
-119 -74 132 0
-119 -75 133 0
-119 -76 134 0
-119 -77 135 0
-119 -78 136 0
-119 -79 137 0
-119 -80 138 0
-119 -81 139 0
-119 -82 140 0
-119 -83 141 0
-119 -84 142 0
-119 -85 143 0
-119 -86 144 0
-119 -87 145 0
-120 -88 117 0
-120 -89 118 0
-120 -90 119 0
-120 -92 121 0
-120 -93 122 0
-120 -94 123 0
-120 -95 124 0
-120 -96 125 0
-120 -97 126 0
-120 -98 127 0
-120 -99 128 0
-120 -100 129 0
-120 -101 130 0
-120 -102 131 0
-120 -103 132 0
-120 -104 133 0
-120 -105 134 0
-120 -106 135 0
-120 -107 136 0
-120 -108 137 0
-120 -109 138 0
-120 -110 139 0
-120 -111 140 0
-120 -112 141 0
-120 -113 142 0
-120 -114 143 0
-120 -115 144 0
-120 -116 145 0
-121 -146 117 0
-121 -147 118 0
-121 -148 119 0
-121 -149 120 0
-121 -151 122 0
-121 -152 123 0
-121 -153 124 0
-121 -154 125 0
-121 -155 126 0
-121 -156 127 0
-121 -157 128 0
-121 -158 129 0
-121 -159 130 0
-121 -160 131 0
-121 -161 132 0
-121 -162 133 0
-121 -163 134 0
-121 -164 135 0
-121 -165 136 0
-121 -166 137 0
-121 -167 138 0
-121 -168 139 0
-121 -169 140 0
-121 -170 141 0
-121 -171 142 0
-121 -172 143 0
-121 -173 144 0
-121 -174 145 0
-122 -175 117 0
-122 -176 118 0
-122 -177 119 0
-122 -178 120 0
-122 -180 121 0
-122 -181 123 0
-122 -182 124 0
-122 -183 125 0
-122 -184 126 0
-122 -185 127 0
-122 -186 128 0
-122 -187 129 0
-122 -188 130 0
-122 -189 131 0
-122 -190 132 0
-122 -191 133 0
-122 -192 134 0
-122 -193 135 0
-122 -194 136 0
-122 -195 137 0
-122 -196 138 0
-122 -197 139 0
-122 -198 140 0
-122 -199 141 0
-122 -200 142 0
-122 -201 143 0
-122 -202 144 0
-122 -203 145 0
-123 -204 117 0
-123 -205 118 0
-123 -206 119 0
-123 -207 120 0
-123 -209 121 0
-123 -210 122 0
-123 -211 124 0
-123 -212 125 0
-123 -213 126 0
-123 -214 127 0
-123 -215 128 0
-123 -216 129 0
-123 -217 130 0
-123 -218 131 0
-123 -219 132 0
-123 -220 133 0
-123 -221 134 0
-123 -222 135 0
-123 -223 136 0
-123 -224 137 0
-123 -225 138 0
-123 -226 139 0
-123 -227 140 0
-123 -228 141 0
-123 -229 142 0
-123 -230 143 0
-123 -231 144 0
-123 -232 145 0
-124 -233 117 0
-124 -234 118 0
-124 -235 119 0
-124 -236 120 0
-124 -238 121 0
-124 -239 122 0
-124 -240 123 0
-124 -241 125 0
-124 -242 126 0
-124 -243 127 0
-124 -244 128 0
-124 -245 129 0
-124 -246 130 0
-124 -247 131 0
-124 -248 132 0
-124 -249 133 0
-124 -250 134 0
-124 -251 135 0
-124 -252 136 0
-124 -253 137 0
-124 -254 138 0
-124 -255 139 0
-124 -256 140 0
-124 -257 141 0
-124 -258 142 0
-124 -259 143 0
-124 -260 144 0
-124 -261 145 0
-125 -262 117 0
-125 -263 118 0
-125 -264 119 0
-125 -265 120 0
-125 -267 121 0
-125 -268 122 0
-125 -269 123 0
-125 -270 124 0
-125 -271 126 0
-125 -272 127 0
-125 -273 128 0
-125 -274 129 0
-125 -275 130 0
-125 -276 131 0
-125 -277 132 0
-125 -278 133 0
-125 -279 134 0
-125 -280 135 0
-125 -281 136 0
-125 -282 137 0
-125 -283 138 0
-125 -284 139 0
-125 -285 140 0
-125 -286 141 0
-125 -287 142 0
-125 -288 143 0
-125 -289 144 0
-125 -290 145 0
-126 -291 117 0
-126 -292 118 0
-126 -293 119 0
-126 -294 120 0
-126 -296 121 0
-126 -297 122 0
-126 -298 123 0
-126 -299 124 0
-126 -300 125 0
-126 -301 127 0
-126 -302 128 0
-126 -303 129 0
-126 -304 130 0
-126 -305 131 0
-126 -306 132 0
-126 -307 133 0
-126 -308 134 0
-126 -309 135 0
-126 -310 136 0
-126 -311 137 0
-126 -312 138 0
-126 -313 139 0
-126 -314 140 0
-126 -315 141 0
-126 -316 142 0
-126 -317 143 0
-126 -318 144 0
-126 -319 145 0
-127 -320 117 0
-127 -321 118 0
-127 -322 119 0
-127 -323 120 0
-127 -325 121 0
-127 -326 122 0
-127 -327 123 0
-127 -328 124 0
-127 -329 125 0
-127 -330 126 0
-127 -331 128 0
-127 -332 129 0
-127 -333 130 0
-127 -334 131 0
-127 -335 132 0
-127 -336 133 0
-127 -337 134 0
-127 -338 135 0
-127 -339 136 0
-127 -340 137 0
-127 -341 138 0
-127 -342 139 0
-127 -343 140 0
-127 -344 141 0
-127 -345 142 0
-127 -346 143 0
-127 -347 144 0
-127 -348 145 0
-128 -349 117 0
-128 -350 118 0
-128 -351 119 0
-128 -352 120 0
-128 -354 121 0
-128 -355 122 0
-128 -356 123 0
-128 -357 124 0
-128 -358 125 0
-128 -359 126 0
-128 -360 127 0
-128 -361 129 0
-128 -362 130 0
-128 -363 131 0
-128 -364 132 0
-128 -365 133 0
-128 -366 134 0
-128 -367 135 0
-128 -368 136 0
-128 -369 137 0
-128 -370 138 0
-128 -371 139 0
-128 -372 140 0
-128 -373 141 0
-128 -374 142 0
-128 -375 143 0
-128 -376 144 0
-128 -377 145 0
-129 -378 117 0
-129 -379 118 0
-129 -380 119 0
-129 -381 120 0
-129 -383 121 0
-129 -384 122 0
-129 -385 123 0
-129 -386 124 0
-129 -387 125 0
-129 -388 126 0
-129 -389 127 0
-129 -390 128 0
-129 -391 130 0
-129 -392 131 0
-129 -393 132 0
-129 -394 133 0
-129 -395 134 0
-129 -396 135 0
-129 -397 136 0
-129 -398 137 0
-129 -399 138 0
-129 -400 139 0
-129 -401 140 0
-129 -402 141 0
-129 -403 142 0
-129 -404 143 0
-129 -405 144 0
-129 -406 145 0
-130 -407 117 0
-130 -408 118 0
-130 -409 119 0
-130 -410 120 0
-130 -412 121 0
-130 -413 122 0
-130 -414 123 0
-130 -415 124 0
-130 -416 125 0
-130 -417 126 0
-130 -418 127 0
-130 -419 128 0
-130 -420 129 0
-130 -421 131 0
-130 -422 132 0
-130 -423 133 0
-130 -424 134 0
-130 -425 135 0
-130 -426 136 0
-130 -427 137 0
-130 -428 138 0
-130 -429 139 0
-130 -430 140 0
-130 -431 141 0
-130 -432 142 0
-130 -433 143 0
-130 -434 144 0
-130 -435 145 0
-131 -436 117 0
-131 -437 118 0
-131 -438 119 0
-131 -439 120 0
-131 -441 121 0
-131 -442 122 0
-131 -443 123 0
-131 -444 124 0
-131 -445 125 0
-131 -446 126 0
-131 -447 127 0
-131 -448 128 0
-131 -449 129 0
-131 -450 130 0
-131 -451 132 0
-131 -452 133 0
-131 -453 134 0
-131 -454 135 0
-131 -455 136 0
-131 -456 137 0
-131 -457 138 0
-131 -458 139 0
-131 -459 140 0
-131 -460 141 0
-131 -461 142 0
-131 -462 143 0
-131 -463 144 0
-131 -464 145 0
-132 -465 117 0
-132 -466 118 0
-132 -467 119 0
-132 -468 120 0
-132 -470 121 0
-132 -471 122 0
-132 -472 123 0
-132 -473 124 0
-132 -474 125 0
-132 -475 126 0
-132 -476 127 0
-132 -477 128 0
-132 -478 129 0
-132 -479 130 0
-132 -480 131 0
-132 -481 133 0
-132 -482 134 0
-132 -483 135 0
-132 -484 136 0
-132 -485 137 0
-132 -486 138 0
-132 -487 139 0
-132 -488 140 0
-132 -489 141 0
-132 -490 142 0
-132 -491 143 0
-132 -492 144 0
-132 -493 145 0
-133 -494 117 0
-133 -495 118 0
-133 -496 119 0
-133 -497 120 0
-133 -499 121 0
-133 -500 122 0
-133 -501 123 0
-133 -502 124 0
-133 -503 125 0
-133 -504 126 0
-133 -505 127 0
-133 -506 128 0
-133 -507 129 0
-133 -508 130 0
-133 -509 131 0
-133 -510 132 0
-133 -511 134 0
-133 -512 135 0
-133 -513 136 0
-133 -514 137 0
-133 -515 138 0
-133 -516 139 0
-133 -517 140 0
-133 -518 141 0
-133 -519 142 0
-133 -520 143 0
-133 -521 144 0
-133 -522 145 0
-134 -523 117 0
-134 -524 118 0
-134 -525 119 0
-134 -526 120 0
-134 -528 121 0
-134 -529 122 0
-134 -530 123 0
-134 -531 124 0
-134 -532 125 0
-134 -533 126 0
-134 -534 127 0
-134 -535 128 0
-134 -536 129 0
-134 -537 130 0
-134 -538 131 0
-134 -539 132 0
-134 -540 133 0
-134 -541 135 0
-134 -542 136 0
-134 -543 137 0
-134 -544 138 0
-134 -545 139 0
-134 -546 140 0
-134 -547 141 0
-134 -548 142 0
-134 -549 143 0
-134 -550 144 0
-134 -551 145 0
-135 -552 117 0
-135 -553 118 0
-135 -554 119 0
-135 -555 120 0
-135 -557 121 0
-135 -558 122 0
-135 -559 123 0
-135 -560 124 0
-135 -561 125 0
-135 -562 126 0
-135 -563 127 0
-135 -564 128 0
-135 -565 129 0
-135 -566 130 0
-135 -567 131 0
-135 -568 132 0
-135 -569 133 0
-135 -570 134 0
-135 -571 136 0
-135 -572 137 0
-135 -573 138 0
-135 -574 139 0
-135 -575 140 0
-135 -576 141 0
-135 -577 142 0
-135 -578 143 0
-135 -579 144 0
-135 -580 145 0
-136 -581 117 0
-136 -582 118 0
-136 -583 119 0
-136 -584 120 0
-136 -586 121 0
-136 -587 122 0
-136 -588 123 0
-136 -589 124 0
-136 -590 125 0
-136 -591 126 0
-136 -592 127 0
-136 -593 128 0
-136 -594 129 0
-136 -595 130 0
-136 -596 131 0
-136 -597 132 0
-136 -598 133 0
-136 -599 134 0
-136 -600 135 0
-136 -601 137 0
-136 -602 138 0
-136 -603 139 0
-136 -604 140 0
-136 -605 141 0
-136 -606 142 0
-136 -607 143 0
-136 -608 144 0
-136 -609 145 0
-137 -610 117 0
-137 -611 118 0
-137 -612 119 0
-137 -613 120 0
-137 -615 121 0
-137 -616 122 0
-137 -617 123 0
-137 -618 124 0
-137 -619 125 0
-137 -620 126 0
-137 -621 127 0
-137 -622 128 0
-137 -623 129 0
-137 -624 130 0
-137 -625 131 0
-137 -626 132 0
-137 -627 133 0
-137 -628 134 0
-137 -629 135 0
-137 -630 136 0
-137 -631 138 0
-137 -632 139 0
-137 -633 140 0
-137 -634 141 0
-137 -635 142 0
-137 -636 143 0
-137 -637 144 0
-137 -638 145 0
-138 -639 117 0
-138 -640 118 0
-138 -641 119 0
-138 -642 120 0
-138 -644 121 0
-138 -645 122 0
-138 -646 123 0
-138 -647 124 0
-138 -648 125 0
-138 -649 126 0
-138 -650 127 0
-138 -651 128 0
-138 -652 129 0
-138 -653 130 0
-138 -654 131 0
-138 -655 132 0
-138 -656 133 0
-138 -657 134 0
-138 -658 135 0
-138 -659 136 0
-138 -660 137 0
-138 -661 139 0
-138 -662 140 0
-138 -663 141 0
-138 -664 142 0
-138 -665 143 0
-138 -666 144 0
-138 -667 145 0
-139 -668 117 0
-139 -669 118 0
-139 -670 119 0
-139 -671 120 0
-139 -673 121 0
-139 -674 122 0
-139 -675 123 0
-139 -676 124 0
-139 -677 125 0
-139 -678 126 0
-139 -679 127 0
-139 -680 128 0
-139 -681 129 0
-139 -682 130 0
-139 -683 131 0
-139 -684 132 0
-139 -685 133 0
-139 -686 134 0
-139 -687 135 0
-139 -688 136 0
-139 -689 137 0
-139 -690 138 0
-139 -691 140 0
-139 -692 141 0
-139 -693 142 0
-139 -694 143 0
-139 -695 144 0
-139 -696 145 0
-140 -697 117 0
-140 -698 118 0
-140 -699 119 0
-140 -700 120 0
-140 -702 121 0
-140 -703 122 0
-140 -704 123 0
-140 -705 124 0
-140 -706 125 0
-140 -707 126 0
-140 -708 127 0
-140 -709 128 0
-140 -710 129 0
-140 -711 130 0
-140 -712 131 0
-140 -713 132 0
-140 -714 133 0
-140 -715 134 0
-140 -716 135 0
-140 -717 136 0
-140 -718 137 0
-140 -719 138 0
-140 -720 139 0
-140 -721 141 0
-140 -722 142 0
-140 -723 143 0
-140 -724 144 0
-140 -725 145 0
-141 -726 117 0
-141 -727 118 0
-141 -728 119 0
-141 -729 120 0
-141 -731 121 0
-141 -732 122 0
-141 -733 123 0
-141 -734 124 0
-141 -735 125 0
-141 -736 126 0
-141 -737 127 0
-141 -738 128 0
-141 -739 129 0
-141 -740 130 0
-141 -741 131 0
-141 -742 132 0
-141 -743 133 0
-141 -744 134 0
-141 -745 135 0
-141 -746 136 0
-141 -747 137 0
-141 -748 138 0
-141 -749 139 0
-141 -750 140 0
-141 -751 142 0
-141 -752 143 0
-141 -753 144 0
-141 -754 145 0
-142 -755 117 0
-142 -756 118 0
-142 -757 119 0
-142 -758 120 0
-142 -760 121 0
-142 -761 122 0
-142 -762 123 0
-142 -763 124 0
-142 -764 125 0
-142 -765 126 0
-142 -766 127 0
-142 -767 128 0
-142 -768 129 0
-142 -769 130 0
-142 -770 131 0
-142 -771 132 0
-142 -772 133 0
-142 -773 134 0
-142 -774 135 0
-142 -775 136 0
-142 -776 137 0
-142 -777 138 0
-142 -778 139 0
-142 -779 140 0
-142 -780 141 0
-142 -781 143 0
-142 -782 144 0
-142 -783 145 0
-143 -784 117 0
-143 -785 118 0
-143 -786 119 0
-143 -787 120 0
-143 -789 121 0
-143 -790 122 0
-143 -791 123 0
-143 -792 124 0
-143 -793 125 0
-143 -794 126 0
-143 -795 127 0
-143 -796 128 0
-143 -797 129 0
-143 -798 130 0
-143 -799 131 0
-143 -800 132 0
-143 -801 133 0
-143 -802 134 0
-143 -803 135 0
-143 -804 136 0
-143 -805 137 0
-143 -806 138 0
-143 -807 139 0
-143 -808 140 0
-143 -809 141 0
-143 -810 142 0
-143 -811 144 0
-143 -812 145 0
-144 -813 117 0
-144 -814 118 0
-144 -815 119 0
-144 -816 120 0
-144 -818 121 0
-144 -819 122 0
-144 -820 123 0
-144 -821 124 0
-144 -822 125 0
-144 -823 126 0
-144 -824 127 0
-144 -825 128 0
-144 -826 129 0
-144 -827 130 0
-144 -828 131 0
-144 -829 132 0
-144 -830 133 0
-144 -831 134 0
-144 -832 135 0
-144 -833 136 0
-144 -834 137 0
-144 -835 138 0
-144 -836 139 0
-144 -837 140 0
-144 -838 141 0
-144 -839 142 0
-144 -840 143 0
-144 -841 145 0
-145 -842 117 0
-145 -843 118 0
-145 -844 119 0
-145 -845 120 0
-145 -847 121 0
-145 -848 122 0
-145 -849 123 0
-145 -850 124 0
-145 -851 125 0
-145 -852 126 0
-145 -853 127 0
-145 -854 128 0
-145 -855 129 0
-145 -856 130 0
-145 -857 131 0
-145 -858 132 0
-145 -859 133 0
-145 -860 134 0
-145 -861 135 0
-145 -862 136 0
-145 -863 137 0
-145 -864 138 0
-145 -865 139 0
-145 -866 140 0
-145 -867 141 0
-145 -868 142 0
-145 -869 143 0
-145 -870 144 0
-146 -1 147 0
-146 -2 148 0
-146 -3 149 0
-146 -4 150 0
-146 -6 151 0
-146 -7 152 0
-146 -8 153 0
-146 -9 154 0
-146 -10 155 0
-146 -11 156 0
-146 -12 157 0
-146 -13 158 0
-146 -14 159 0
-146 -15 160 0
-146 -16 161 0
-146 -17 162 0
-146 -18 163 0
-146 -19 164 0
-146 -20 165 0
-146 -21 166 0
-146 -22 167 0
-146 -23 168 0
-146 -24 169 0
-146 -25 170 0
-146 -26 171 0
-146 -27 172 0
-146 -28 173 0
-146 -29 174 0
-147 -30 146 0
-147 -31 148 0
-147 -32 149 0
-147 -33 150 0
-147 -35 151 0
-147 -36 152 0
-147 -37 153 0
-147 -38 154 0
-147 -39 155 0
-147 -40 156 0
-147 -41 157 0
-147 -42 158 0
-147 -43 159 0
-147 -44 160 0
-147 -45 161 0
-147 -46 162 0
-147 -47 163 0
-147 -48 164 0
-147 -49 165 0
-147 -50 166 0
-147 -51 167 0
-147 -52 168 0
-147 -53 169 0
-147 -54 170 0
-147 -55 171 0
-147 -56 172 0
-147 -57 173 0
-147 -58 174 0
-148 -59 146 0
-148 -60 147 0
-148 -61 149 0
-148 -62 150 0
-148 -64 151 0
-148 -65 152 0
-148 -66 153 0
-148 -67 154 0
-148 -68 155 0
-148 -69 156 0
-148 -70 157 0
-148 -71 158 0
-148 -72 159 0
-148 -73 160 0
-148 -74 161 0
-148 -75 162 0
-148 -76 163 0
-148 -77 164 0
-148 -78 165 0
-148 -79 166 0
-148 -80 167 0
-148 -81 168 0
-148 -82 169 0
-148 -83 170 0
-148 -84 171 0
-148 -85 172 0
-148 -86 173 0
-148 -87 174 0
-149 -88 146 0
-149 -89 147 0
-149 -90 148 0
-149 -91 150 0
-149 -93 151 0
-149 -94 152 0
-149 -95 153 0
-149 -96 154 0
-149 -97 155 0
-149 -98 156 0
-149 -99 157 0
-149 -100 158 0
-149 -101 159 0
-149 -102 160 0
-149 -103 161 0
-149 -104 162 0
-149 -105 163 0
-149 -106 164 0
-149 -107 165 0
-149 -108 166 0
-149 -109 167 0
-149 -110 168 0
-149 -111 169 0
-149 -112 170 0
-149 -113 171 0
-149 -114 172 0
-149 -115 173 0
-149 -116 174 0
-150 -117 146 0
-150 -118 147 0
-150 -119 148 0
-150 -120 149 0
-150 -122 151 0
-150 -123 152 0
-150 -124 153 0
-150 -125 154 0
-150 -126 155 0
-150 -127 156 0
-150 -128 157 0
-150 -129 158 0
-150 -130 159 0
-150 -131 160 0
-150 -132 161 0
-150 -133 162 0
-150 -134 163 0
-150 -135 164 0
-150 -136 165 0
-150 -137 166 0
-150 -138 167 0
-150 -139 168 0
-150 -140 169 0
-150 -141 170 0
-150 -142 171 0
-150 -143 172 0
-150 -144 173 0
-150 -145 174 0
-151 -175 146 0
-151 -176 147 0
-151 -177 148 0
-151 -178 149 0
-151 -179 150 0
-151 -181 152 0
-151 -182 153 0
-151 -183 154 0
-151 -184 155 0
-151 -185 156 0
-151 -186 157 0
-151 -187 158 0
-151 -188 159 0
-151 -189 160 0
-151 -190 161 0
-151 -191 162 0
-151 -192 163 0
-151 -193 164 0
-151 -194 165 0
-151 -195 166 0
-151 -196 167 0
-151 -197 168 0
-151 -198 169 0
-151 -199 170 0
-151 -200 171 0
-151 -201 172 0
-151 -202 173 0
-151 -203 174 0
-152 -204 146 0
-152 -205 147 0
-152 -206 148 0
-152 -207 149 0
-152 -208 150 0
-152 -210 151 0
-152 -211 153 0
-152 -212 154 0
-152 -213 155 0
-152 -214 156 0
-152 -215 157 0
-152 -216 158 0
-152 -217 159 0
-152 -218 160 0
-152 -219 161 0
-152 -220 162 0
-152 -221 163 0
-152 -222 164 0
-152 -223 165 0
-152 -224 166 0
-152 -225 167 0
-152 -226 168 0
-152 -227 169 0
-152 -228 170 0
-152 -229 171 0
-152 -230 172 0
-152 -231 173 0
-152 -232 174 0
-153 -233 146 0
-153 -234 147 0
-153 -235 148 0
-153 -236 149 0
-153 -237 150 0
-153 -239 151 0
-153 -240 152 0
-153 -241 154 0
-153 -242 155 0
-153 -243 156 0
-153 -244 157 0
-153 -245 158 0
-153 -246 159 0
-153 -247 160 0
-153 -248 161 0
-153 -249 162 0
-153 -250 163 0
-153 -251 164 0
-153 -252 165 0
-153 -253 166 0
-153 -254 167 0
-153 -255 168 0
-153 -256 169 0
-153 -257 170 0
-153 -258 171 0
-153 -259 172 0
-153 -260 173 0
-153 -261 174 0
-154 -262 146 0
-154 -263 147 0
-154 -264 148 0
-154 -265 149 0
-154 -266 150 0
-154 -268 151 0
-154 -269 152 0
-154 -270 153 0
-154 -271 155 0
-154 -272 156 0
-154 -273 157 0
-154 -274 158 0
-154 -275 159 0
-154 -276 160 0
-154 -277 161 0
-154 -278 162 0
-154 -279 163 0
-154 -280 164 0
-154 -281 165 0
-154 -282 166 0
-154 -283 167 0
-154 -284 168 0
-154 -285 169 0
-154 -286 170 0
-154 -287 171 0
-154 -288 172 0
-154 -289 173 0
-154 -290 174 0
-155 -291 146 0
-155 -292 147 0
-155 -293 148 0
-155 -294 149 0
-155 -295 150 0
-155 -297 151 0
-155 -298 152 0
-155 -299 153 0
-155 -300 154 0
-155 -301 156 0
-155 -302 157 0
-155 -303 158 0
-155 -304 159 0
-155 -305 160 0
-155 -306 161 0
-155 -307 162 0
-155 -308 163 0
-155 -309 164 0
-155 -310 165 0
-155 -311 166 0
-155 -312 167 0
-155 -313 168 0
-155 -314 169 0
-155 -315 170 0
-155 -316 171 0
-155 -317 172 0
-155 -318 173 0
-155 -319 174 0
-156 -320 146 0
-156 -321 147 0
-156 -322 148 0
-156 -323 149 0
-156 -324 150 0
-156 -326 151 0
-156 -327 152 0
-156 -328 153 0
-156 -329 154 0
-156 -330 155 0
-156 -331 157 0
-156 -332 158 0
-156 -333 159 0
-156 -334 160 0
-156 -335 161 0
-156 -336 162 0
-156 -337 163 0
-156 -338 164 0
-156 -339 165 0
-156 -340 166 0
-156 -341 167 0
-156 -342 168 0
-156 -343 169 0
-156 -344 170 0
-156 -345 171 0
-156 -346 172 0
-156 -347 173 0
-156 -348 174 0
-157 -349 146 0
-157 -350 147 0
-157 -351 148 0
-157 -352 149 0
-157 -353 150 0
-157 -355 151 0
-157 -356 152 0
-157 -357 153 0
-157 -358 154 0
-157 -359 155 0
-157 -360 156 0
-157 -361 158 0
-157 -362 159 0
-157 -363 160 0
-157 -364 161 0
-157 -365 162 0
-157 -366 163 0
-157 -367 164 0
-157 -368 165 0
-157 -369 166 0
-157 -370 167 0
-157 -371 168 0
-157 -372 169 0
-157 -373 170 0
-157 -374 171 0
-157 -375 172 0
-157 -376 173 0
-157 -377 174 0
-158 -378 146 0
-158 -379 147 0
-158 -380 148 0
-158 -381 149 0
-158 -382 150 0
-158 -384 151 0
-158 -385 152 0
-158 -386 153 0
-158 -387 154 0
-158 -388 155 0
-158 -389 156 0
-158 -390 157 0
-158 -391 159 0
-158 -392 160 0
-158 -393 161 0
-158 -394 162 0
-158 -395 163 0
-158 -396 164 0
-158 -397 165 0
-158 -398 166 0
-158 -399 167 0
-158 -400 168 0
-158 -401 169 0
-158 -402 170 0
-158 -403 171 0
-158 -404 172 0
-158 -405 173 0
-158 -406 174 0
-159 -407 146 0
-159 -408 147 0
-159 -409 148 0
-159 -410 149 0
-159 -411 150 0
-159 -413 151 0
-159 -414 152 0
-159 -415 153 0
-159 -416 154 0
-159 -417 155 0
-159 -418 156 0
-159 -419 157 0
-159 -420 158 0
-159 -421 160 0
-159 -422 161 0
-159 -423 162 0
-159 -424 163 0
-159 -425 164 0
-159 -426 165 0
-159 -427 166 0
-159 -428 167 0
-159 -429 168 0
-159 -430 169 0
-159 -431 170 0
-159 -432 171 0
-159 -433 172 0
-159 -434 173 0
-159 -435 174 0
-160 -436 146 0
-160 -437 147 0
-160 -438 148 0
-160 -439 149 0
-160 -440 150 0
-160 -442 151 0
-160 -443 152 0
-160 -444 153 0
-160 -445 154 0
-160 -446 155 0
-160 -447 156 0
-160 -448 157 0
-160 -449 158 0
-160 -450 159 0
-160 -451 161 0
-160 -452 162 0
-160 -453 163 0
-160 -454 164 0
-160 -455 165 0
-160 -456 166 0
-160 -457 167 0
-160 -458 168 0
-160 -459 169 0
-160 -460 170 0
-160 -461 171 0
-160 -462 172 0
-160 -463 173 0
-160 -464 174 0
-161 -465 146 0
-161 -466 147 0
-161 -467 148 0
-161 -468 149 0
-161 -469 150 0
-161 -471 151 0
-161 -472 152 0
-161 -473 153 0
-161 -474 154 0
-161 -475 155 0
-161 -476 156 0
-161 -477 157 0
-161 -478 158 0
-161 -479 159 0
-161 -480 160 0
-161 -481 162 0
-161 -482 163 0
-161 -483 164 0
-161 -484 165 0
-161 -485 166 0
-161 -486 167 0
-161 -487 168 0
-161 -488 169 0
-161 -489 170 0
-161 -490 171 0
-161 -491 172 0
-161 -492 173 0
-161 -493 174 0
-162 -494 146 0
-162 -495 147 0
-162 -496 148 0
-162 -497 149 0
-162 -498 150 0
-162 -500 151 0
-162 -501 152 0
-162 -502 153 0
-162 -503 154 0
-162 -504 155 0
-162 -505 156 0
-162 -506 157 0
-162 -507 158 0
-162 -508 159 0
-162 -509 160 0
-162 -510 161 0
-162 -511 163 0
-162 -512 164 0
-162 -513 165 0
-162 -514 166 0
-162 -515 167 0
-162 -516 168 0
-162 -517 169 0
-162 -518 170 0
-162 -519 171 0
-162 -520 172 0
-162 -521 173 0
-162 -522 174 0
-163 -523 146 0
-163 -524 147 0
-163 -525 148 0
-163 -526 149 0
-163 -527 150 0
-163 -529 151 0
-163 -530 152 0
-163 -531 153 0
-163 -532 154 0
-163 -533 155 0
-163 -534 156 0
-163 -535 157 0
-163 -536 158 0
-163 -537 159 0
-163 -538 160 0
-163 -539 161 0
-163 -540 162 0
-163 -541 164 0
-163 -542 165 0
-163 -543 166 0
-163 -544 167 0
-163 -545 168 0
-163 -546 169 0
-163 -547 170 0
-163 -548 171 0
-163 -549 172 0
-163 -550 173 0
-163 -551 174 0
-164 -552 146 0
-164 -553 147 0
-164 -554 148 0
-164 -555 149 0
-164 -556 150 0
-164 -558 151 0
-164 -559 152 0
-164 -560 153 0
-164 -561 154 0
-164 -562 155 0
-164 -563 156 0
-164 -564 157 0
-164 -565 158 0
-164 -566 159 0
-164 -567 160 0
-164 -568 161 0
-164 -569 162 0
-164 -570 163 0
-164 -571 165 0
-164 -572 166 0
-164 -573 167 0
-164 -574 168 0
-164 -575 169 0
-164 -576 170 0
-164 -577 171 0
-164 -578 172 0
-164 -579 173 0
-164 -580 174 0
-165 -581 146 0
-165 -582 147 0
-165 -583 148 0
-165 -584 149 0
-165 -585 150 0
-165 -587 151 0
-165 -588 152 0
-165 -589 153 0
-165 -590 154 0
-165 -591 155 0
-165 -592 156 0
-165 -593 157 0
-165 -594 158 0
-165 -595 159 0
-165 -596 160 0
-165 -597 161 0
-165 -598 162 0
-165 -599 163 0
-165 -600 164 0
-165 -601 166 0
-165 -602 167 0
-165 -603 168 0
-165 -604 169 0
-165 -605 170 0
-165 -606 171 0
-165 -607 172 0
-165 -608 173 0
-165 -609 174 0
-166 -610 146 0
-166 -611 147 0
-166 -612 148 0
-166 -613 149 0
-166 -614 150 0
-166 -616 151 0
-166 -617 152 0
-166 -618 153 0
-166 -619 154 0
-166 -620 155 0
-166 -621 156 0
-166 -622 157 0
-166 -623 158 0
-166 -624 159 0
-166 -625 160 0
-166 -626 161 0
-166 -627 162 0
-166 -628 163 0
-166 -629 164 0
-166 -630 165 0
-166 -631 167 0
-166 -632 168 0
-166 -633 169 0
-166 -634 170 0
-166 -635 171 0
-166 -636 172 0
-166 -637 173 0
-166 -638 174 0
-167 -639 146 0
-167 -640 147 0
-167 -641 148 0
-167 -642 149 0
-167 -643 150 0
-167 -645 151 0
-167 -646 152 0
-167 -647 153 0
-167 -648 154 0
-167 -649 155 0
-167 -650 156 0
-167 -651 157 0
-167 -652 158 0
-167 -653 159 0
-167 -654 160 0
-167 -655 161 0
-167 -656 162 0
-167 -657 163 0
-167 -658 164 0
-167 -659 165 0
-167 -660 166 0
-167 -661 168 0
-167 -662 169 0
-167 -663 170 0
-167 -664 171 0
-167 -665 172 0
-167 -666 173 0
-167 -667 174 0
-168 -668 146 0
-168 -669 147 0
-168 -670 148 0
-168 -671 149 0
-168 -672 150 0
-168 -674 151 0
-168 -675 152 0
-168 -676 153 0
-168 -677 154 0
-168 -678 155 0
-168 -679 156 0
-168 -680 157 0
-168 -681 158 0
-168 -682 159 0
-168 -683 160 0
-168 -684 161 0
-168 -685 162 0
-168 -686 163 0
-168 -687 164 0
-168 -688 165 0
-168 -689 166 0
-168 -690 167 0
-168 -691 169 0
-168 -692 170 0
-168 -693 171 0
-168 -694 172 0
-168 -695 173 0
-168 -696 174 0
-169 -697 146 0
-169 -698 147 0
-169 -699 148 0
-169 -700 149 0
-169 -701 150 0
-169 -703 151 0
-169 -704 152 0
-169 -705 153 0
-169 -706 154 0
-169 -707 155 0
-169 -708 156 0
-169 -709 157 0
-169 -710 158 0
-169 -711 159 0
-169 -712 160 0
-169 -713 161 0
-169 -714 162 0
-169 -715 163 0
-169 -716 164 0
-169 -717 165 0
-169 -718 166 0
-169 -719 167 0
-169 -720 168 0
-169 -721 170 0
-169 -722 171 0
-169 -723 172 0
-169 -724 173 0
-169 -725 174 0
-170 -726 146 0
-170 -727 147 0
-170 -728 148 0
-170 -729 149 0
-170 -730 150 0
-170 -732 151 0
-170 -733 152 0
-170 -734 153 0
-170 -735 154 0
-170 -736 155 0
-170 -737 156 0
-170 -738 157 0
-170 -739 158 0
-170 -740 159 0
-170 -741 160 0
-170 -742 161 0
-170 -743 162 0
-170 -744 163 0
-170 -745 164 0
-170 -746 165 0
-170 -747 166 0
-170 -748 167 0
-170 -749 168 0
-170 -750 169 0
-170 -751 171 0
-170 -752 172 0
-170 -753 173 0
-170 -754 174 0
-171 -755 146 0
-171 -756 147 0
-171 -757 148 0
-171 -758 149 0
-171 -759 150 0
-171 -761 151 0
-171 -762 152 0
-171 -763 153 0
-171 -764 154 0
-171 -765 155 0
-171 -766 156 0
-171 -767 157 0
-171 -768 158 0
-171 -769 159 0
-171 -770 160 0
-171 -771 161 0
-171 -772 162 0
-171 -773 163 0
-171 -774 164 0
-171 -775 165 0
-171 -776 166 0
-171 -777 167 0
-171 -778 168 0
-171 -779 169 0
-171 -780 170 0
-171 -781 172 0
-171 -782 173 0
-171 -783 174 0
-172 -784 146 0
-172 -785 147 0
-172 -786 148 0
-172 -787 149 0
-172 -788 150 0
-172 -790 151 0
-172 -791 152 0
-172 -792 153 0
-172 -793 154 0
-172 -794 155 0
-172 -795 156 0
-172 -796 157 0
-172 -797 158 0
-172 -798 159 0
-172 -799 160 0
-172 -800 161 0
-172 -801 162 0
-172 -802 163 0
-172 -803 164 0
-172 -804 165 0
-172 -805 166 0
-172 -806 167 0
-172 -807 168 0
-172 -808 169 0
-172 -809 170 0
-172 -810 171 0
-172 -811 173 0
-172 -812 174 0
-173 -813 146 0
-173 -814 147 0
-173 -815 148 0
-173 -816 149 0
-173 -817 150 0
-173 -819 151 0
-173 -820 152 0
-173 -821 153 0
-173 -822 154 0
-173 -823 155 0
-173 -824 156 0
-173 -825 157 0
-173 -826 158 0
-173 -827 159 0
-173 -828 160 0
-173 -829 161 0
-173 -830 162 0
-173 -831 163 0
-173 -832 164 0
-173 -833 165 0
-173 -834 166 0
-173 -835 167 0
-173 -836 168 0
-173 -837 169 0
-173 -838 170 0
-173 -839 171 0
-173 -840 172 0
-173 -841 174 0
-174 -842 146 0
-174 -843 147 0
-174 -844 148 0
-174 -845 149 0
-174 -846 150 0
-174 -848 151 0
-174 -849 152 0
-174 -850 153 0
-174 -851 154 0
-174 -852 155 0
-174 -853 156 0
-174 -854 157 0
-174 -855 158 0
-174 -856 159 0
-174 -857 160 0
-174 -858 161 0
-174 -859 162 0
-174 -860 163 0
-174 -861 164 0
-174 -862 165 0
-174 -863 166 0
-174 -864 167 0
-174 -865 168 0
-174 -866 169 0
-174 -867 170 0
-174 -868 171 0
-174 -869 172 0
-174 -870 173 0
-175 -1 176 0
-175 -2 177 0
-175 -3 178 0
-175 -4 179 0
-175 -5 180 0
-175 -7 181 0
-175 -8 182 0
-175 -9 183 0
-175 -10 184 0
-175 -11 185 0
-175 -12 186 0
-175 -13 187 0
-175 -14 188 0
-175 -15 189 0
-175 -16 190 0
-175 -17 191 0
-175 -18 192 0
-175 -19 193 0
-175 -20 194 0
-175 -21 195 0
-175 -22 196 0
-175 -23 197 0
-175 -24 198 0
-175 -25 199 0
-175 -26 200 0
-175 -27 201 0
-175 -28 202 0
-175 -29 203 0
-176 -30 175 0
-176 -31 177 0
-176 -32 178 0
-176 -33 179 0
-176 -34 180 0
-176 -36 181 0
-176 -37 182 0
-176 -38 183 0
-176 -39 184 0
-176 -40 185 0
-176 -41 186 0
-176 -42 187 0
-176 -43 188 0
-176 -44 189 0
-176 -45 190 0
-176 -46 191 0
-176 -47 192 0
-176 -48 193 0
-176 -49 194 0
-176 -50 195 0
-176 -51 196 0
-176 -52 197 0
-176 -53 198 0
-176 -54 199 0
-176 -55 200 0
-176 -56 201 0
-176 -57 202 0
-176 -58 203 0
-177 -59 175 0
-177 -60 176 0
-177 -61 178 0
-177 -62 179 0
-177 -63 180 0
-177 -65 181 0
-177 -66 182 0
-177 -67 183 0
-177 -68 184 0
-177 -69 185 0
-177 -70 186 0
-177 -71 187 0
-177 -72 188 0
-177 -73 189 0
-177 -74 190 0
-177 -75 191 0
-177 -76 192 0
-177 -77 193 0
-177 -78 194 0
-177 -79 195 0
-177 -80 196 0
-177 -81 197 0
-177 -82 198 0
-177 -83 199 0
-177 -84 200 0
-177 -85 201 0
-177 -86 202 0
-177 -87 203 0
-178 -88 175 0
-178 -89 176 0
-178 -90 177 0
-178 -91 179 0
-178 -92 180 0
-178 -94 181 0
-178 -95 182 0
-178 -96 183 0
-178 -97 184 0
-178 -98 185 0
-178 -99 186 0
-178 -100 187 0
-178 -101 188 0
-178 -102 189 0
-178 -103 190 0
-178 -104 191 0
-178 -105 192 0
-178 -106 193 0
-178 -107 194 0
-178 -108 195 0
-178 -109 196 0
-178 -110 197 0
-178 -111 198 0
-178 -112 199 0
-178 -113 200 0
-178 -114 201 0
-178 -115 202 0
-178 -116 203 0
-179 -117 175 0
-179 -118 176 0
-179 -119 177 0
-179 -120 178 0
-179 -121 180 0
-179 -123 181 0
-179 -124 182 0
-179 -125 183 0
-179 -126 184 0
-179 -127 185 0
-179 -128 186 0
-179 -129 187 0
-179 -130 188 0
-179 -131 189 0
-179 -132 190 0
-179 -133 191 0
-179 -134 192 0
-179 -135 193 0
-179 -136 194 0
-179 -137 195 0
-179 -138 196 0
-179 -139 197 0
-179 -140 198 0
-179 -141 199 0
-179 -142 200 0
-179 -143 201 0
-179 -144 202 0
-179 -145 203 0
-180 -146 175 0
-180 -147 176 0
-180 -148 177 0
-180 -149 178 0
-180 -150 179 0
-180 -152 181 0
-180 -153 182 0
-180 -154 183 0
-180 -155 184 0
-180 -156 185 0
-180 -157 186 0
-180 -158 187 0
-180 -159 188 0
-180 -160 189 0
-180 -161 190 0
-180 -162 191 0
-180 -163 192 0
-180 -164 193 0
-180 -165 194 0
-180 -166 195 0
-180 -167 196 0
-180 -168 197 0
-180 -169 198 0
-180 -170 199 0
-180 -171 200 0
-180 -172 201 0
-180 -173 202 0
-180 -174 203 0
-181 -204 175 0
-181 -205 176 0
-181 -206 177 0
-181 -207 178 0
-181 -208 179 0
-181 -209 180 0
-181 -211 182 0
-181 -212 183 0
-181 -213 184 0
-181 -214 185 0
-181 -215 186 0
-181 -216 187 0
-181 -217 188 0
-181 -218 189 0
-181 -219 190 0
-181 -220 191 0
-181 -221 192 0
-181 -222 193 0
-181 -223 194 0
-181 -224 195 0
-181 -225 196 0
-181 -226 197 0
-181 -227 198 0
-181 -228 199 0
-181 -229 200 0
-181 -230 201 0
-181 -231 202 0
-181 -232 203 0
-182 -233 175 0
-182 -234 176 0
-182 -235 177 0
-182 -236 178 0
-182 -237 179 0
-182 -238 180 0
-182 -240 181 0
-182 -241 183 0
-182 -242 184 0
-182 -243 185 0
-182 -244 186 0
-182 -245 187 0
-182 -246 188 0
-182 -247 189 0
-182 -248 190 0
-182 -249 191 0
-182 -250 192 0
-182 -251 193 0
-182 -252 194 0
-182 -253 195 0
-182 -254 196 0
-182 -255 197 0
-182 -256 198 0
-182 -257 199 0
-182 -258 200 0
-182 -259 201 0
-182 -260 202 0
-182 -261 203 0
-183 -262 175 0
-183 -263 176 0
-183 -264 177 0
-183 -265 178 0
-183 -266 179 0
-183 -267 180 0
-183 -269 181 0
-183 -270 182 0
-183 -271 184 0
-183 -272 185 0
-183 -273 186 0
-183 -274 187 0
-183 -275 188 0
-183 -276 189 0
-183 -277 190 0
-183 -278 191 0
-183 -279 192 0
-183 -280 193 0
-183 -281 194 0
-183 -282 195 0
-183 -283 196 0
-183 -284 197 0
-183 -285 198 0
-183 -286 199 0
-183 -287 200 0
-183 -288 201 0
-183 -289 202 0
-183 -290 203 0
-184 -291 175 0
-184 -292 176 0
-184 -293 177 0
-184 -294 178 0
-184 -295 179 0
-184 -296 180 0
-184 -298 181 0
-184 -299 182 0
-184 -300 183 0
-184 -301 185 0
-184 -302 186 0
-184 -303 187 0
-184 -304 188 0
-184 -305 189 0
-184 -306 190 0
-184 -307 191 0
-184 -308 192 0
-184 -309 193 0
-184 -310 194 0
-184 -311 195 0
-184 -312 196 0
-184 -313 197 0
-184 -314 198 0
-184 -315 199 0
-184 -316 200 0
-184 -317 201 0
-184 -318 202 0
-184 -319 203 0
-185 -320 175 0
-185 -321 176 0
-185 -322 177 0
-185 -323 178 0
-185 -324 179 0
-185 -325 180 0
-185 -327 181 0
-185 -328 182 0
-185 -329 183 0
-185 -330 184 0
-185 -331 186 0
-185 -332 187 0
-185 -333 188 0
-185 -334 189 0
-185 -335 190 0
-185 -336 191 0
-185 -337 192 0
-185 -338 193 0
-185 -339 194 0
-185 -340 195 0
-185 -341 196 0
-185 -342 197 0
-185 -343 198 0
-185 -344 199 0
-185 -345 200 0
-185 -346 201 0
-185 -347 202 0
-185 -348 203 0
-186 -349 175 0
-186 -350 176 0
-186 -351 177 0
-186 -352 178 0
-186 -353 179 0
-186 -354 180 0
-186 -356 181 0
-186 -357 182 0
-186 -358 183 0
-186 -359 184 0
-186 -360 185 0
-186 -361 187 0
-186 -362 188 0
-186 -363 189 0
-186 -364 190 0
-186 -365 191 0
-186 -366 192 0
-186 -367 193 0
-186 -368 194 0
-186 -369 195 0
-186 -370 196 0
-186 -371 197 0
-186 -372 198 0
-186 -373 199 0
-186 -374 200 0
-186 -375 201 0
-186 -376 202 0
-186 -377 203 0
-187 -378 175 0
-187 -379 176 0
-187 -380 177 0
-187 -381 178 0
-187 -382 179 0
-187 -383 180 0
-187 -385 181 0
-187 -386 182 0
-187 -387 183 0
-187 -388 184 0
-187 -389 185 0
-187 -390 186 0
-187 -391 188 0
-187 -392 189 0
-187 -393 190 0
-187 -394 191 0
-187 -395 192 0
-187 -396 193 0
-187 -397 194 0
-187 -398 195 0
-187 -399 196 0
-187 -400 197 0
-187 -401 198 0
-187 -402 199 0
-187 -403 200 0
-187 -404 201 0
-187 -405 202 0
-187 -406 203 0
-188 -407 175 0
-188 -408 176 0
-188 -409 177 0
-188 -410 178 0
-188 -411 179 0
-188 -412 180 0
-188 -414 181 0
-188 -415 182 0
-188 -416 183 0
-188 -417 184 0
-188 -418 185 0
-188 -419 186 0
-188 -420 187 0
-188 -421 189 0
-188 -422 190 0
-188 -423 191 0
-188 -424 192 0
-188 -425 193 0
-188 -426 194 0
-188 -427 195 0
-188 -428 196 0
-188 -429 197 0
-188 -430 198 0
-188 -431 199 0
-188 -432 200 0
-188 -433 201 0
-188 -434 202 0
-188 -435 203 0
-189 -436 175 0
-189 -437 176 0
-189 -438 177 0
-189 -439 178 0
-189 -440 179 0
-189 -441 180 0
-189 -443 181 0
-189 -444 182 0
-189 -445 183 0
-189 -446 184 0
-189 -447 185 0
-189 -448 186 0
-189 -449 187 0
-189 -450 188 0
-189 -451 190 0
-189 -452 191 0
-189 -453 192 0
-189 -454 193 0
-189 -455 194 0
-189 -456 195 0
-189 -457 196 0
-189 -458 197 0
-189 -459 198 0
-189 -460 199 0
-189 -461 200 0
-189 -462 201 0
-189 -463 202 0
-189 -464 203 0
-190 -465 175 0
-190 -466 176 0
-190 -467 177 0
-190 -468 178 0
-190 -469 179 0
-190 -470 180 0
-190 -472 181 0
-190 -473 182 0
-190 -474 183 0
-190 -475 184 0
-190 -476 185 0
-190 -477 186 0
-190 -478 187 0
-190 -479 188 0
-190 -480 189 0
-190 -481 191 0
-190 -482 192 0
-190 -483 193 0
-190 -484 194 0
-190 -485 195 0
-190 -486 196 0
-190 -487 197 0
-190 -488 198 0
-190 -489 199 0
-190 -490 200 0
-190 -491 201 0
-190 -492 202 0
-190 -493 203 0
-191 -494 175 0
-191 -495 176 0
-191 -496 177 0
-191 -497 178 0
-191 -498 179 0
-191 -499 180 0
-191 -501 181 0
-191 -502 182 0
-191 -503 183 0
-191 -504 184 0
-191 -505 185 0
-191 -506 186 0
-191 -507 187 0
-191 -508 188 0
-191 -509 189 0
-191 -510 190 0
-191 -511 192 0
-191 -512 193 0
-191 -513 194 0
-191 -514 195 0
-191 -515 196 0
-191 -516 197 0
-191 -517 198 0
-191 -518 199 0
-191 -519 200 0
-191 -520 201 0
-191 -521 202 0
-191 -522 203 0
-192 -523 175 0
-192 -524 176 0
-192 -525 177 0
-192 -526 178 0
-192 -527 179 0
-192 -528 180 0
-192 -530 181 0
-192 -531 182 0
-192 -532 183 0
-192 -533 184 0
-192 -534 185 0
-192 -535 186 0
-192 -536 187 0
-192 -537 188 0
-192 -538 189 0
-192 -539 190 0
-192 -540 191 0
-192 -541 193 0
-192 -542 194 0
-192 -543 195 0
-192 -544 196 0
-192 -545 197 0
-192 -546 198 0
-192 -547 199 0
-192 -548 200 0
-192 -549 201 0
-192 -550 202 0
-192 -551 203 0
-193 -552 175 0
-193 -553 176 0
-193 -554 177 0
-193 -555 178 0
-193 -556 179 0
-193 -557 180 0
-193 -559 181 0
-193 -560 182 0
-193 -561 183 0
-193 -562 184 0
-193 -563 185 0
-193 -564 186 0
-193 -565 187 0
-193 -566 188 0
-193 -567 189 0
-193 -568 190 0
-193 -569 191 0
-193 -570 192 0
-193 -571 194 0
-193 -572 195 0
-193 -573 196 0
-193 -574 197 0
-193 -575 198 0
-193 -576 199 0
-193 -577 200 0
-193 -578 201 0
-193 -579 202 0
-193 -580 203 0
-194 -581 175 0
-194 -582 176 0
-194 -583 177 0
-194 -584 178 0
-194 -585 179 0
-194 -586 180 0
-194 -588 181 0
-194 -589 182 0
-194 -590 183 0
-194 -591 184 0
-194 -592 185 0
-194 -593 186 0
-194 -594 187 0
-194 -595 188 0
-194 -596 189 0
-194 -597 190 0
-194 -598 191 0
-194 -599 192 0
-194 -600 193 0
-194 -601 195 0
-194 -602 196 0
-194 -603 197 0
-194 -604 198 0
-194 -605 199 0
-194 -606 200 0
-194 -607 201 0
-194 -608 202 0
-194 -609 203 0
-195 -610 175 0
-195 -611 176 0
-195 -612 177 0
-195 -613 178 0
-195 -614 179 0
-195 -615 180 0
-195 -617 181 0
-195 -618 182 0
-195 -619 183 0
-195 -620 184 0
-195 -621 185 0
-195 -622 186 0
-195 -623 187 0
-195 -624 188 0
-195 -625 189 0
-195 -626 190 0
-195 -627 191 0
-195 -628 192 0
-195 -629 193 0
-195 -630 194 0
-195 -631 196 0
-195 -632 197 0
-195 -633 198 0
-195 -634 199 0
-195 -635 200 0
-195 -636 201 0
-195 -637 202 0
-195 -638 203 0
-196 -639 175 0
-196 -640 176 0
-196 -641 177 0
-196 -642 178 0
-196 -643 179 0
-196 -644 180 0
-196 -646 181 0
-196 -647 182 0
-196 -648 183 0
-196 -649 184 0
-196 -650 185 0
-196 -651 186 0
-196 -652 187 0
-196 -653 188 0
-196 -654 189 0
-196 -655 190 0
-196 -656 191 0
-196 -657 192 0
-196 -658 193 0
-196 -659 194 0
-196 -660 195 0
-196 -661 197 0
-196 -662 198 0
-196 -663 199 0
-196 -664 200 0
-196 -665 201 0
-196 -666 202 0
-196 -667 203 0
-197 -668 175 0
-197 -669 176 0
-197 -670 177 0
-197 -671 178 0
-197 -672 179 0
-197 -673 180 0
-197 -675 181 0
-197 -676 182 0
-197 -677 183 0
-197 -678 184 0
-197 -679 185 0
-197 -680 186 0
-197 -681 187 0
-197 -682 188 0
-197 -683 189 0
-197 -684 190 0
-197 -685 191 0
-197 -686 192 0
-197 -687 193 0
-197 -688 194 0
-197 -689 195 0
-197 -690 196 0
-197 -691 198 0
-197 -692 199 0
-197 -693 200 0
-197 -694 201 0
-197 -695 202 0
-197 -696 203 0
-198 -697 175 0
-198 -698 176 0
-198 -699 177 0
-198 -700 178 0
-198 -701 179 0
-198 -702 180 0
-198 -704 181 0
-198 -705 182 0
-198 -706 183 0
-198 -707 184 0
-198 -708 185 0
-198 -709 186 0
-198 -710 187 0
-198 -711 188 0
-198 -712 189 0
-198 -713 190 0
-198 -714 191 0
-198 -715 192 0
-198 -716 193 0
-198 -717 194 0
-198 -718 195 0
-198 -719 196 0
-198 -720 197 0
-198 -721 199 0
-198 -722 200 0
-198 -723 201 0
-198 -724 202 0
-198 -725 203 0
-199 -726 175 0
-199 -727 176 0
-199 -728 177 0
-199 -729 178 0
-199 -730 179 0
-199 -731 180 0
-199 -733 181 0
-199 -734 182 0
-199 -735 183 0
-199 -736 184 0
-199 -737 185 0
-199 -738 186 0
-199 -739 187 0
-199 -740 188 0
-199 -741 189 0
-199 -742 190 0
-199 -743 191 0
-199 -744 192 0
-199 -745 193 0
-199 -746 194 0
-199 -747 195 0
-199 -748 196 0
-199 -749 197 0
-199 -750 198 0
-199 -751 200 0
-199 -752 201 0
-199 -753 202 0
-199 -754 203 0
-200 -755 175 0
-200 -756 176 0
-200 -757 177 0
-200 -758 178 0
-200 -759 179 0
-200 -760 180 0
-200 -762 181 0
-200 -763 182 0
-200 -764 183 0
-200 -765 184 0
-200 -766 185 0
-200 -767 186 0
-200 -768 187 0
-200 -769 188 0
-200 -770 189 0
-200 -771 190 0
-200 -772 191 0
-200 -773 192 0
-200 -774 193 0
-200 -775 194 0
-200 -776 195 0
-200 -777 196 0
-200 -778 197 0
-200 -779 198 0
-200 -780 199 0
-200 -781 201 0
-200 -782 202 0
-200 -783 203 0
-201 -784 175 0
-201 -785 176 0
-201 -786 177 0
-201 -787 178 0
-201 -788 179 0
-201 -789 180 0
-201 -791 181 0
-201 -792 182 0
-201 -793 183 0
-201 -794 184 0
-201 -795 185 0
-201 -796 186 0
-201 -797 187 0
-201 -798 188 0
-201 -799 189 0
-201 -800 190 0
-201 -801 191 0
-201 -802 192 0
-201 -803 193 0
-201 -804 194 0
-201 -805 195 0
-201 -806 196 0
-201 -807 197 0
-201 -808 198 0
-201 -809 199 0
-201 -810 200 0
-201 -811 202 0
-201 -812 203 0
-202 -813 175 0
-202 -814 176 0
-202 -815 177 0
-202 -816 178 0
-202 -817 179 0
-202 -818 180 0
-202 -820 181 0
-202 -821 182 0
-202 -822 183 0
-202 -823 184 0
-202 -824 185 0
-202 -825 186 0
-202 -826 187 0
-202 -827 188 0
-202 -828 189 0
-202 -829 190 0
-202 -830 191 0
-202 -831 192 0
-202 -832 193 0
-202 -833 194 0
-202 -834 195 0
-202 -835 196 0
-202 -836 197 0
-202 -837 198 0
-202 -838 199 0
-202 -839 200 0
-202 -840 201 0
-202 -841 203 0
-203 -842 175 0
-203 -843 176 0
-203 -844 177 0
-203 -845 178 0
-203 -846 179 0
-203 -847 180 0
-203 -849 181 0
-203 -850 182 0
-203 -851 183 0
-203 -852 184 0
-203 -853 185 0
-203 -854 186 0
-203 -855 187 0
-203 -856 188 0
-203 -857 189 0
-203 -858 190 0
-203 -859 191 0
-203 -860 192 0
-203 -861 193 0
-203 -862 194 0
-203 -863 195 0
-203 -864 196 0
-203 -865 197 0
-203 -866 198 0
-203 -867 199 0
-203 -868 200 0
-203 -869 201 0
-203 -870 202 0
-204 -1 205 0
-204 -2 206 0
-204 -3 207 0
-204 -4 208 0
-204 -5 209 0
-204 -6 210 0
-204 -8 211 0
-204 -9 212 0
-204 -10 213 0
-204 -11 214 0
-204 -12 215 0
-204 -13 216 0
-204 -14 217 0
-204 -15 218 0
-204 -16 219 0
-204 -17 220 0
-204 -18 221 0
-204 -19 222 0
-204 -20 223 0
-204 -21 224 0
-204 -22 225 0
-204 -23 226 0
-204 -24 227 0
-204 -25 228 0
-204 -26 229 0
-204 -27 230 0
-204 -28 231 0
-204 -29 232 0
-205 -30 204 0
-205 -31 206 0
-205 -32 207 0
-205 -33 208 0
-205 -34 209 0
-205 -35 210 0
-205 -37 211 0
-205 -38 212 0
-205 -39 213 0
-205 -40 214 0
-205 -41 215 0
-205 -42 216 0
-205 -43 217 0
-205 -44 218 0
-205 -45 219 0
-205 -46 220 0
-205 -47 221 0
-205 -48 222 0
-205 -49 223 0
-205 -50 224 0
-205 -51 225 0
-205 -52 226 0
-205 -53 227 0
-205 -54 228 0
-205 -55 229 0
-205 -56 230 0
-205 -57 231 0
-205 -58 232 0
-206 -59 204 0
-206 -60 205 0
-206 -61 207 0
-206 -62 208 0
-206 -63 209 0
-206 -64 210 0
-206 -66 211 0
-206 -67 212 0
-206 -68 213 0
-206 -69 214 0
-206 -70 215 0
-206 -71 216 0
-206 -72 217 0
-206 -73 218 0
-206 -74 219 0
-206 -75 220 0
-206 -76 221 0
-206 -77 222 0
-206 -78 223 0
-206 -79 224 0
-206 -80 225 0
-206 -81 226 0
-206 -82 227 0
-206 -83 228 0
-206 -84 229 0
-206 -85 230 0
-206 -86 231 0
-206 -87 232 0
-207 -88 204 0
-207 -89 205 0
-207 -90 206 0
-207 -91 208 0
-207 -92 209 0
-207 -93 210 0
-207 -95 211 0
-207 -96 212 0
-207 -97 213 0
-207 -98 214 0
-207 -99 215 0
-207 -100 216 0
-207 -101 217 0
-207 -102 218 0
-207 -103 219 0
-207 -104 220 0
-207 -105 221 0
-207 -106 222 0
-207 -107 223 0
-207 -108 224 0
-207 -109 225 0
-207 -110 226 0
-207 -111 227 0
-207 -112 228 0
-207 -113 229 0
-207 -114 230 0
-207 -115 231 0
-207 -116 232 0
-208 -117 204 0
-208 -118 205 0
-208 -119 206 0
-208 -120 207 0
-208 -121 209 0
-208 -122 210 0
-208 -124 211 0
-208 -125 212 0
-208 -126 213 0
-208 -127 214 0
-208 -128 215 0
-208 -129 216 0
-208 -130 217 0
-208 -131 218 0
-208 -132 219 0
-208 -133 220 0
-208 -134 221 0
-208 -135 222 0
-208 -136 223 0
-208 -137 224 0
-208 -138 225 0
-208 -139 226 0
-208 -140 227 0
-208 -141 228 0
-208 -142 229 0
-208 -143 230 0
-208 -144 231 0
-208 -145 232 0
-209 -146 204 0
-209 -147 205 0
-209 -148 206 0
-209 -149 207 0
-209 -150 208 0
-209 -151 210 0
-209 -153 211 0
-209 -154 212 0
-209 -155 213 0
-209 -156 214 0
-209 -157 215 0
-209 -158 216 0
-209 -159 217 0
-209 -160 218 0
-209 -161 219 0
-209 -162 220 0
-209 -163 221 0
-209 -164 222 0
-209 -165 223 0
-209 -166 224 0
-209 -167 225 0
-209 -168 226 0
-209 -169 227 0
-209 -170 228 0
-209 -171 229 0
-209 -172 230 0
-209 -173 231 0
-209 -174 232 0
-210 -175 204 0
-210 -176 205 0
-210 -177 206 0
-210 -178 207 0
-210 -179 208 0
-210 -180 209 0
-210 -182 211 0
-210 -183 212 0
-210 -184 213 0
-210 -185 214 0
-210 -186 215 0
-210 -187 216 0
-210 -188 217 0
-210 -189 218 0
-210 -190 219 0
-210 -191 220 0
-210 -192 221 0
-210 -193 222 0
-210 -194 223 0
-210 -195 224 0
-210 -196 225 0
-210 -197 226 0
-210 -198 227 0
-210 -199 228 0
-210 -200 229 0
-210 -201 230 0
-210 -202 231 0
-210 -203 232 0
-211 -233 204 0
-211 -234 205 0
-211 -235 206 0
-211 -236 207 0
-211 -237 208 0
-211 -238 209 0
-211 -239 210 0
-211 -241 212 0
-211 -242 213 0
-211 -243 214 0
-211 -244 215 0
-211 -245 216 0
-211 -246 217 0
-211 -247 218 0
-211 -248 219 0
-211 -249 220 0
-211 -250 221 0
-211 -251 222 0
-211 -252 223 0
-211 -253 224 0
-211 -254 225 0
-211 -255 226 0
-211 -256 227 0
-211 -257 228 0
-211 -258 229 0
-211 -259 230 0
-211 -260 231 0
-211 -261 232 0
-212 -262 204 0
-212 -263 205 0
-212 -264 206 0
-212 -265 207 0
-212 -266 208 0
-212 -267 209 0
-212 -268 210 0
-212 -270 211 0
-212 -271 213 0
-212 -272 214 0
-212 -273 215 0
-212 -274 216 0
-212 -275 217 0
-212 -276 218 0
-212 -277 219 0
-212 -278 220 0
-212 -279 221 0
-212 -280 222 0
-212 -281 223 0
-212 -282 224 0
-212 -283 225 0
-212 -284 226 0
-212 -285 227 0
-212 -286 228 0
-212 -287 229 0
-212 -288 230 0
-212 -289 231 0
-212 -290 232 0
-213 -291 204 0
-213 -292 205 0
-213 -293 206 0
-213 -294 207 0
-213 -295 208 0
-213 -296 209 0
-213 -297 210 0
-213 -299 211 0
-213 -300 212 0
-213 -301 214 0
-213 -302 215 0
-213 -303 216 0
-213 -304 217 0
-213 -305 218 0
-213 -306 219 0
-213 -307 220 0
-213 -308 221 0
-213 -309 222 0
-213 -310 223 0
-213 -311 224 0
-213 -312 225 0
-213 -313 226 0
-213 -314 227 0
-213 -315 228 0
-213 -316 229 0
-213 -317 230 0
-213 -318 231 0
-213 -319 232 0
-214 -320 204 0
-214 -321 205 0
-214 -322 206 0
-214 -323 207 0
-214 -324 208 0
-214 -325 209 0
-214 -326 210 0
-214 -328 211 0
-214 -329 212 0
-214 -330 213 0
-214 -331 215 0
-214 -332 216 0
-214 -333 217 0
-214 -334 218 0
-214 -335 219 0
-214 -336 220 0
-214 -337 221 0
-214 -338 222 0
-214 -339 223 0
-214 -340 224 0
-214 -341 225 0
-214 -342 226 0
-214 -343 227 0
-214 -344 228 0
-214 -345 229 0
-214 -346 230 0
-214 -347 231 0
-214 -348 232 0
-215 -349 204 0
-215 -350 205 0
-215 -351 206 0
-215 -352 207 0
-215 -353 208 0
-215 -354 209 0
-215 -355 210 0
-215 -357 211 0
-215 -358 212 0
-215 -359 213 0
-215 -360 214 0
-215 -361 216 0
-215 -362 217 0
-215 -363 218 0
-215 -364 219 0
-215 -365 220 0
-215 -366 221 0
-215 -367 222 0
-215 -368 223 0
-215 -369 224 0
-215 -370 225 0
-215 -371 226 0
-215 -372 227 0
-215 -373 228 0
-215 -374 229 0
-215 -375 230 0
-215 -376 231 0
-215 -377 232 0
-216 -378 204 0
-216 -379 205 0
-216 -380 206 0
-216 -381 207 0
-216 -382 208 0
-216 -383 209 0
-216 -384 210 0
-216 -386 211 0
-216 -387 212 0
-216 -388 213 0
-216 -389 214 0
-216 -390 215 0
-216 -391 217 0
-216 -392 218 0
-216 -393 219 0
-216 -394 220 0
-216 -395 221 0
-216 -396 222 0
-216 -397 223 0
-216 -398 224 0
-216 -399 225 0
-216 -400 226 0
-216 -401 227 0
-216 -402 228 0
-216 -403 229 0
-216 -404 230 0
-216 -405 231 0
-216 -406 232 0
-217 -407 204 0
-217 -408 205 0
-217 -409 206 0
-217 -410 207 0
-217 -411 208 0
-217 -412 209 0
-217 -413 210 0
-217 -415 211 0
-217 -416 212 0
-217 -417 213 0
-217 -418 214 0
-217 -419 215 0
-217 -420 216 0
-217 -421 218 0
-217 -422 219 0
-217 -423 220 0
-217 -424 221 0
-217 -425 222 0
-217 -426 223 0
-217 -427 224 0
-217 -428 225 0
-217 -429 226 0
-217 -430 227 0
-217 -431 228 0
-217 -432 229 0
-217 -433 230 0
-217 -434 231 0
-217 -435 232 0
-218 -436 204 0
-218 -437 205 0
-218 -438 206 0
-218 -439 207 0
-218 -440 208 0
-218 -441 209 0
-218 -442 210 0
-218 -444 211 0
-218 -445 212 0
-218 -446 213 0
-218 -447 214 0
-218 -448 215 0
-218 -449 216 0
-218 -450 217 0
-218 -451 219 0
-218 -452 220 0
-218 -453 221 0
-218 -454 222 0
-218 -455 223 0
-218 -456 224 0
-218 -457 225 0
-218 -458 226 0
-218 -459 227 0
-218 -460 228 0
-218 -461 229 0
-218 -462 230 0
-218 -463 231 0
-218 -464 232 0
-219 -465 204 0
-219 -466 205 0
-219 -467 206 0
-219 -468 207 0
-219 -469 208 0
-219 -470 209 0
-219 -471 210 0
-219 -473 211 0
-219 -474 212 0
-219 -475 213 0
-219 -476 214 0
-219 -477 215 0
-219 -478 216 0
-219 -479 217 0
-219 -480 218 0
-219 -481 220 0
-219 -482 221 0
-219 -483 222 0
-219 -484 223 0
-219 -485 224 0
-219 -486 225 0
-219 -487 226 0
-219 -488 227 0
-219 -489 228 0
-219 -490 229 0
-219 -491 230 0
-219 -492 231 0
-219 -493 232 0
-220 -494 204 0
-220 -495 205 0
-220 -496 206 0
-220 -497 207 0
-220 -498 208 0
-220 -499 209 0
-220 -500 210 0
-220 -502 211 0
-220 -503 212 0
-220 -504 213 0
-220 -505 214 0
-220 -506 215 0
-220 -507 216 0
-220 -508 217 0
-220 -509 218 0
-220 -510 219 0
-220 -511 221 0
-220 -512 222 0
-220 -513 223 0
-220 -514 224 0
-220 -515 225 0
-220 -516 226 0
-220 -517 227 0
-220 -518 228 0
-220 -519 229 0
-220 -520 230 0
-220 -521 231 0
-220 -522 232 0
-221 -523 204 0
-221 -524 205 0
-221 -525 206 0
-221 -526 207 0
-221 -527 208 0
-221 -528 209 0
-221 -529 210 0
-221 -531 211 0
-221 -532 212 0
-221 -533 213 0
-221 -534 214 0
-221 -535 215 0
-221 -536 216 0
-221 -537 217 0
-221 -538 218 0
-221 -539 219 0
-221 -540 220 0
-221 -541 222 0
-221 -542 223 0
-221 -543 224 0
-221 -544 225 0
-221 -545 226 0
-221 -546 227 0
-221 -547 228 0
-221 -548 229 0
-221 -549 230 0
-221 -550 231 0
-221 -551 232 0
-222 -552 204 0
-222 -553 205 0
-222 -554 206 0
-222 -555 207 0
-222 -556 208 0
-222 -557 209 0
-222 -558 210 0
-222 -560 211 0
-222 -561 212 0
-222 -562 213 0
-222 -563 214 0
-222 -564 215 0
-222 -565 216 0
-222 -566 217 0
-222 -567 218 0
-222 -568 219 0
-222 -569 220 0
-222 -570 221 0
-222 -571 223 0
-222 -572 224 0
-222 -573 225 0
-222 -574 226 0
-222 -575 227 0
-222 -576 228 0
-222 -577 229 0
-222 -578 230 0
-222 -579 231 0
-222 -580 232 0
-223 -581 204 0
-223 -582 205 0
-223 -583 206 0
-223 -584 207 0
-223 -585 208 0
-223 -586 209 0
-223 -587 210 0
-223 -589 211 0
-223 -590 212 0
-223 -591 213 0
-223 -592 214 0
-223 -593 215 0
-223 -594 216 0
-223 -595 217 0
-223 -596 218 0
-223 -597 219 0
-223 -598 220 0
-223 -599 221 0
-223 -600 222 0
-223 -601 224 0
-223 -602 225 0
-223 -603 226 0
-223 -604 227 0
-223 -605 228 0
-223 -606 229 0
-223 -607 230 0
-223 -608 231 0
-223 -609 232 0
-224 -610 204 0
-224 -611 205 0
-224 -612 206 0
-224 -613 207 0
-224 -614 208 0
-224 -615 209 0
-224 -616 210 0
-224 -618 211 0
-224 -619 212 0
-224 -620 213 0
-224 -621 214 0
-224 -622 215 0
-224 -623 216 0
-224 -624 217 0
-224 -625 218 0
-224 -626 219 0
-224 -627 220 0
-224 -628 221 0
-224 -629 222 0
-224 -630 223 0
-224 -631 225 0
-224 -632 226 0
-224 -633 227 0
-224 -634 228 0
-224 -635 229 0
-224 -636 230 0
-224 -637 231 0
-224 -638 232 0
-225 -639 204 0
-225 -640 205 0
-225 -641 206 0
-225 -642 207 0
-225 -643 208 0
-225 -644 209 0
-225 -645 210 0
-225 -647 211 0
-225 -648 212 0
-225 -649 213 0
-225 -650 214 0
-225 -651 215 0
-225 -652 216 0
-225 -653 217 0
-225 -654 218 0
-225 -655 219 0
-225 -656 220 0
-225 -657 221 0
-225 -658 222 0
-225 -659 223 0
-225 -660 224 0
-225 -661 226 0
-225 -662 227 0
-225 -663 228 0
-225 -664 229 0
-225 -665 230 0
-225 -666 231 0
-225 -667 232 0
-226 -668 204 0
-226 -669 205 0
-226 -670 206 0
-226 -671 207 0
-226 -672 208 0
-226 -673 209 0
-226 -674 210 0
-226 -676 211 0
-226 -677 212 0
-226 -678 213 0
-226 -679 214 0
-226 -680 215 0
-226 -681 216 0
-226 -682 217 0
-226 -683 218 0
-226 -684 219 0
-226 -685 220 0
-226 -686 221 0
-226 -687 222 0
-226 -688 223 0
-226 -689 224 0
-226 -690 225 0
-226 -691 227 0
-226 -692 228 0
-226 -693 229 0
-226 -694 230 0
-226 -695 231 0
-226 -696 232 0
-227 -697 204 0
-227 -698 205 0
-227 -699 206 0
-227 -700 207 0
-227 -701 208 0
-227 -702 209 0
-227 -703 210 0
-227 -705 211 0
-227 -706 212 0
-227 -707 213 0
-227 -708 214 0
-227 -709 215 0
-227 -710 216 0
-227 -711 217 0
-227 -712 218 0
-227 -713 219 0
-227 -714 220 0
-227 -715 221 0
-227 -716 222 0
-227 -717 223 0
-227 -718 224 0
-227 -719 225 0
-227 -720 226 0
-227 -721 228 0
-227 -722 229 0
-227 -723 230 0
-227 -724 231 0
-227 -725 232 0
-228 -726 204 0
-228 -727 205 0
-228 -728 206 0
-228 -729 207 0
-228 -730 208 0
-228 -731 209 0
-228 -732 210 0
-228 -734 211 0
-228 -735 212 0
-228 -736 213 0
-228 -737 214 0
-228 -738 215 0
-228 -739 216 0
-228 -740 217 0
-228 -741 218 0
-228 -742 219 0
-228 -743 220 0
-228 -744 221 0
-228 -745 222 0
-228 -746 223 0
-228 -747 224 0
-228 -748 225 0
-228 -749 226 0
-228 -750 227 0
-228 -751 229 0
-228 -752 230 0
-228 -753 231 0
-228 -754 232 0
-229 -755 204 0
-229 -756 205 0
-229 -757 206 0
-229 -758 207 0
-229 -759 208 0
-229 -760 209 0
-229 -761 210 0
-229 -763 211 0
-229 -764 212 0
-229 -765 213 0
-229 -766 214 0
-229 -767 215 0
-229 -768 216 0
-229 -769 217 0
-229 -770 218 0
-229 -771 219 0
-229 -772 220 0
-229 -773 221 0
-229 -774 222 0
-229 -775 223 0
-229 -776 224 0
-229 -777 225 0
-229 -778 226 0
-229 -779 227 0
-229 -780 228 0
-229 -781 230 0
-229 -782 231 0
-229 -783 232 0
-230 -784 204 0
-230 -785 205 0
-230 -786 206 0
-230 -787 207 0
-230 -788 208 0
-230 -789 209 0
-230 -790 210 0
-230 -792 211 0
-230 -793 212 0
-230 -794 213 0
-230 -795 214 0
-230 -796 215 0
-230 -797 216 0
-230 -798 217 0
-230 -799 218 0
-230 -800 219 0
-230 -801 220 0
-230 -802 221 0
-230 -803 222 0
-230 -804 223 0
-230 -805 224 0
-230 -806 225 0
-230 -807 226 0
-230 -808 227 0
-230 -809 228 0
-230 -810 229 0
-230 -811 231 0
-230 -812 232 0
-231 -813 204 0
-231 -814 205 0
-231 -815 206 0
-231 -816 207 0
-231 -817 208 0
-231 -818 209 0
-231 -819 210 0
-231 -821 211 0
-231 -822 212 0
-231 -823 213 0
-231 -824 214 0
-231 -825 215 0
-231 -826 216 0
-231 -827 217 0
-231 -828 218 0
-231 -829 219 0
-231 -830 220 0
-231 -831 221 0
-231 -832 222 0
-231 -833 223 0
-231 -834 224 0
-231 -835 225 0
-231 -836 226 0
-231 -837 227 0
-231 -838 228 0
-231 -839 229 0
-231 -840 230 0
-231 -841 232 0
-232 -842 204 0
-232 -843 205 0
-232 -844 206 0
-232 -845 207 0
-232 -846 208 0
-232 -847 209 0
-232 -848 210 0
-232 -850 211 0
-232 -851 212 0
-232 -852 213 0
-232 -853 214 0
-232 -854 215 0
-232 -855 216 0
-232 -856 217 0
-232 -857 218 0
-232 -858 219 0
-232 -859 220 0
-232 -860 221 0
-232 -861 222 0
-232 -862 223 0
-232 -863 224 0
-232 -864 225 0
-232 -865 226 0
-232 -866 227 0
-232 -867 228 0
-232 -868 229 0
-232 -869 230 0
-232 -870 231 0
-233 -1 234 0
-233 -2 235 0
-233 -3 236 0
-233 -4 237 0
-233 -5 238 0
-233 -6 239 0
-233 -7 240 0
-233 -9 241 0
-233 -10 242 0
-233 -11 243 0
-233 -12 244 0
-233 -13 245 0
-233 -14 246 0
-233 -15 247 0
-233 -16 248 0
-233 -17 249 0
-233 -18 250 0
-233 -19 251 0
-233 -20 252 0
-233 -21 253 0
-233 -22 254 0
-233 -23 255 0
-233 -24 256 0
-233 -25 257 0
-233 -26 258 0
-233 -27 259 0
-233 -28 260 0
-233 -29 261 0
-234 -30 233 0
-234 -31 235 0
-234 -32 236 0
-234 -33 237 0
-234 -34 238 0
-234 -35 239 0
-234 -36 240 0
-234 -38 241 0
-234 -39 242 0
-234 -40 243 0
-234 -41 244 0
-234 -42 245 0
-234 -43 246 0
-234 -44 247 0
-234 -45 248 0
-234 -46 249 0
-234 -47 250 0
-234 -48 251 0
-234 -49 252 0
-234 -50 253 0
-234 -51 254 0
-234 -52 255 0
-234 -53 256 0
-234 -54 257 0
-234 -55 258 0
-234 -56 259 0
-234 -57 260 0
-234 -58 261 0
-235 -59 233 0
-235 -60 234 0
-235 -61 236 0
-235 -62 237 0
-235 -63 238 0
-235 -64 239 0
-235 -65 240 0
-235 -67 241 0
-235 -68 242 0
-235 -69 243 0
-235 -70 244 0
-235 -71 245 0
-235 -72 246 0
-235 -73 247 0
-235 -74 248 0
-235 -75 249 0
-235 -76 250 0
-235 -77 251 0
-235 -78 252 0
-235 -79 253 0
-235 -80 254 0
-235 -81 255 0
-235 -82 256 0
-235 -83 257 0
-235 -84 258 0
-235 -85 259 0
-235 -86 260 0
-235 -87 261 0
-236 -88 233 0
-236 -89 234 0
-236 -90 235 0
-236 -91 237 0
-236 -92 238 0
-236 -93 239 0
-236 -94 240 0
-236 -96 241 0
-236 -97 242 0
-236 -98 243 0
-236 -99 244 0
-236 -100 245 0
-236 -101 246 0
-236 -102 247 0
-236 -103 248 0
-236 -104 249 0
-236 -105 250 0
-236 -106 251 0
-236 -107 252 0
-236 -108 253 0
-236 -109 254 0
-236 -110 255 0
-236 -111 256 0
-236 -112 257 0
-236 -113 258 0
-236 -114 259 0
-236 -115 260 0
-236 -116 261 0
-237 -117 233 0
-237 -118 234 0
-237 -119 235 0
-237 -120 236 0
-237 -121 238 0
-237 -122 239 0
-237 -123 240 0
-237 -125 241 0
-237 -126 242 0
-237 -127 243 0
-237 -128 244 0
-237 -129 245 0
-237 -130 246 0
-237 -131 247 0
-237 -132 248 0
-237 -133 249 0
-237 -134 250 0
-237 -135 251 0
-237 -136 252 0
-237 -137 253 0
-237 -138 254 0
-237 -139 255 0
-237 -140 256 0
-237 -141 257 0
-237 -142 258 0
-237 -143 259 0
-237 -144 260 0
-237 -145 261 0
-238 -146 233 0
-238 -147 234 0
-238 -148 235 0
-238 -149 236 0
-238 -150 237 0
-238 -151 239 0
-238 -152 240 0
-238 -154 241 0
-238 -155 242 0
-238 -156 243 0
-238 -157 244 0
-238 -158 245 0
-238 -159 246 0
-238 -160 247 0
-238 -161 248 0
-238 -162 249 0
-238 -163 250 0
-238 -164 251 0
-238 -165 252 0
-238 -166 253 0
-238 -167 254 0
-238 -168 255 0
-238 -169 256 0
-238 -170 257 0
-238 -171 258 0
-238 -172 259 0
-238 -173 260 0
-238 -174 261 0
-239 -175 233 0
-239 -176 234 0
-239 -177 235 0
-239 -178 236 0
-239 -179 237 0
-239 -180 238 0
-239 -181 240 0
-239 -183 241 0
-239 -184 242 0
-239 -185 243 0
-239 -186 244 0
-239 -187 245 0
-239 -188 246 0
-239 -189 247 0
-239 -190 248 0
-239 -191 249 0
-239 -192 250 0
-239 -193 251 0
-239 -194 252 0
-239 -195 253 0
-239 -196 254 0
-239 -197 255 0
-239 -198 256 0
-239 -199 257 0
-239 -200 258 0
-239 -201 259 0
-239 -202 260 0
-239 -203 261 0
-240 -204 233 0
-240 -205 234 0
-240 -206 235 0
-240 -207 236 0
-240 -208 237 0
-240 -209 238 0
-240 -210 239 0
-240 -212 241 0
-240 -213 242 0
-240 -214 243 0
-240 -215 244 0
-240 -216 245 0
-240 -217 246 0
-240 -218 247 0
-240 -219 248 0
-240 -220 249 0
-240 -221 250 0
-240 -222 251 0
-240 -223 252 0
-240 -224 253 0
-240 -225 254 0
-240 -226 255 0
-240 -227 256 0
-240 -228 257 0
-240 -229 258 0
-240 -230 259 0
-240 -231 260 0
-240 -232 261 0
-241 -262 233 0
-241 -263 234 0
-241 -264 235 0
-241 -265 236 0
-241 -266 237 0
-241 -267 238 0
-241 -268 239 0
-241 -269 240 0
-241 -271 242 0
-241 -272 243 0
-241 -273 244 0
-241 -274 245 0
-241 -275 246 0
-241 -276 247 0
-241 -277 248 0
-241 -278 249 0
-241 -279 250 0
-241 -280 251 0
-241 -281 252 0
-241 -282 253 0
-241 -283 254 0
-241 -284 255 0
-241 -285 256 0
-241 -286 257 0
-241 -287 258 0
-241 -288 259 0
-241 -289 260 0
-241 -290 261 0
-242 -291 233 0
-242 -292 234 0
-242 -293 235 0
-242 -294 236 0
-242 -295 237 0
-242 -296 238 0
-242 -297 239 0
-242 -298 240 0
-242 -300 241 0
-242 -301 243 0
-242 -302 244 0
-242 -303 245 0
-242 -304 246 0
-242 -305 247 0
-242 -306 248 0
-242 -307 249 0
-242 -308 250 0
-242 -309 251 0
-242 -310 252 0
-242 -311 253 0
-242 -312 254 0
-242 -313 255 0
-242 -314 256 0
-242 -315 257 0
-242 -316 258 0
-242 -317 259 0
-242 -318 260 0
-242 -319 261 0
-243 -320 233 0
-243 -321 234 0
-243 -322 235 0
-243 -323 236 0
-243 -324 237 0
-243 -325 238 0
-243 -326 239 0
-243 -327 240 0
-243 -329 241 0
-243 -330 242 0
-243 -331 244 0
-243 -332 245 0
-243 -333 246 0
-243 -334 247 0
-243 -335 248 0
-243 -336 249 0
-243 -337 250 0
-243 -338 251 0
-243 -339 252 0
-243 -340 253 0
-243 -341 254 0
-243 -342 255 0
-243 -343 256 0
-243 -344 257 0
-243 -345 258 0
-243 -346 259 0
-243 -347 260 0
-243 -348 261 0
-244 -349 233 0
-244 -350 234 0
-244 -351 235 0
-244 -352 236 0
-244 -353 237 0
-244 -354 238 0
-244 -355 239 0
-244 -356 240 0
-244 -358 241 0
-244 -359 242 0
-244 -360 243 0
-244 -361 245 0
-244 -362 246 0
-244 -363 247 0
-244 -364 248 0
-244 -365 249 0
-244 -366 250 0
-244 -367 251 0
-244 -368 252 0
-244 -369 253 0
-244 -370 254 0
-244 -371 255 0
-244 -372 256 0
-244 -373 257 0
-244 -374 258 0
-244 -375 259 0
-244 -376 260 0
-244 -377 261 0
-245 -378 233 0
-245 -379 234 0
-245 -380 235 0
-245 -381 236 0
-245 -382 237 0
-245 -383 238 0
-245 -384 239 0
-245 -385 240 0
-245 -387 241 0
-245 -388 242 0
-245 -389 243 0
-245 -390 244 0
-245 -391 246 0
-245 -392 247 0
-245 -393 248 0
-245 -394 249 0
-245 -395 250 0
-245 -396 251 0
-245 -397 252 0
-245 -398 253 0
-245 -399 254 0
-245 -400 255 0
-245 -401 256 0
-245 -402 257 0
-245 -403 258 0
-245 -404 259 0
-245 -405 260 0
-245 -406 261 0
-246 -407 233 0
-246 -408 234 0
-246 -409 235 0
-246 -410 236 0
-246 -411 237 0
-246 -412 238 0
-246 -413 239 0
-246 -414 240 0
-246 -416 241 0
-246 -417 242 0
-246 -418 243 0
-246 -419 244 0
-246 -420 245 0
-246 -421 247 0
-246 -422 248 0
-246 -423 249 0
-246 -424 250 0
-246 -425 251 0
-246 -426 252 0
-246 -427 253 0
-246 -428 254 0
-246 -429 255 0
-246 -430 256 0
-246 -431 257 0
-246 -432 258 0
-246 -433 259 0
-246 -434 260 0
-246 -435 261 0
-247 -436 233 0
-247 -437 234 0
-247 -438 235 0
-247 -439 236 0
-247 -440 237 0
-247 -441 238 0
-247 -442 239 0
-247 -443 240 0
-247 -445 241 0
-247 -446 242 0
-247 -447 243 0
-247 -448 244 0
-247 -449 245 0
-247 -450 246 0
-247 -451 248 0
-247 -452 249 0
-247 -453 250 0
-247 -454 251 0
-247 -455 252 0
-247 -456 253 0
-247 -457 254 0
-247 -458 255 0
-247 -459 256 0
-247 -460 257 0
-247 -461 258 0
-247 -462 259 0
-247 -463 260 0
-247 -464 261 0
-248 -465 233 0
-248 -466 234 0
-248 -467 235 0
-248 -468 236 0
-248 -469 237 0
-248 -470 238 0
-248 -471 239 0
-248 -472 240 0
-248 -474 241 0
-248 -475 242 0
-248 -476 243 0
-248 -477 244 0
-248 -478 245 0
-248 -479 246 0
-248 -480 247 0
-248 -481 249 0
-248 -482 250 0
-248 -483 251 0
-248 -484 252 0
-248 -485 253 0
-248 -486 254 0
-248 -487 255 0
-248 -488 256 0
-248 -489 257 0
-248 -490 258 0
-248 -491 259 0
-248 -492 260 0
-248 -493 261 0
-249 -494 233 0
-249 -495 234 0
-249 -496 235 0
-249 -497 236 0
-249 -498 237 0
-249 -499 238 0
-249 -500 239 0
-249 -501 240 0
-249 -503 241 0
-249 -504 242 0
-249 -505 243 0
-249 -506 244 0
-249 -507 245 0
-249 -508 246 0
-249 -509 247 0
-249 -510 248 0
-249 -511 250 0
-249 -512 251 0
-249 -513 252 0
-249 -514 253 0
-249 -515 254 0
-249 -516 255 0
-249 -517 256 0
-249 -518 257 0
-249 -519 258 0
-249 -520 259 0
-249 -521 260 0
-249 -522 261 0
-250 -523 233 0
-250 -524 234 0
-250 -525 235 0
-250 -526 236 0
-250 -527 237 0
-250 -528 238 0
-250 -529 239 0
-250 -530 240 0
-250 -532 241 0
-250 -533 242 0
-250 -534 243 0
-250 -535 244 0
-250 -536 245 0
-250 -537 246 0
-250 -538 247 0
-250 -539 248 0
-250 -540 249 0
-250 -541 251 0
-250 -542 252 0
-250 -543 253 0
-250 -544 254 0
-250 -545 255 0
-250 -546 256 0
-250 -547 257 0
-250 -548 258 0
-250 -549 259 0
-250 -550 260 0
-250 -551 261 0
-251 -552 233 0
-251 -553 234 0
-251 -554 235 0
-251 -555 236 0
-251 -556 237 0
-251 -557 238 0
-251 -558 239 0
-251 -559 240 0
-251 -561 241 0
-251 -562 242 0
-251 -563 243 0
-251 -564 244 0
-251 -565 245 0
-251 -566 246 0
-251 -567 247 0
-251 -568 248 0
-251 -569 249 0
-251 -570 250 0
-251 -571 252 0
-251 -572 253 0
-251 -573 254 0
-251 -574 255 0
-251 -575 256 0
-251 -576 257 0
-251 -577 258 0
-251 -578 259 0
-251 -579 260 0
-251 -580 261 0
-252 -581 233 0
-252 -582 234 0
-252 -583 235 0
-252 -584 236 0
-252 -585 237 0
-252 -586 238 0
-252 -587 239 0
-252 -588 240 0
-252 -590 241 0
-252 -591 242 0
-252 -592 243 0
-252 -593 244 0
-252 -594 245 0
-252 -595 246 0
-252 -596 247 0
-252 -597 248 0
-252 -598 249 0
-252 -599 250 0
-252 -600 251 0
-252 -601 253 0
-252 -602 254 0
-252 -603 255 0
-252 -604 256 0
-252 -605 257 0
-252 -606 258 0
-252 -607 259 0
-252 -608 260 0
-252 -609 261 0
-253 -610 233 0
-253 -611 234 0
-253 -612 235 0
-253 -613 236 0
-253 -614 237 0
-253 -615 238 0
-253 -616 239 0
-253 -617 240 0
-253 -619 241 0
-253 -620 242 0
-253 -621 243 0
-253 -622 244 0
-253 -623 245 0
-253 -624 246 0
-253 -625 247 0
-253 -626 248 0
-253 -627 249 0
-253 -628 250 0
-253 -629 251 0
-253 -630 252 0
-253 -631 254 0
-253 -632 255 0
-253 -633 256 0
-253 -634 257 0
-253 -635 258 0
-253 -636 259 0
-253 -637 260 0
-253 -638 261 0
-254 -639 233 0
-254 -640 234 0
-254 -641 235 0
-254 -642 236 0
-254 -643 237 0
-254 -644 238 0
-254 -645 239 0
-254 -646 240 0
-254 -648 241 0
-254 -649 242 0
-254 -650 243 0
-254 -651 244 0
-254 -652 245 0
-254 -653 246 0
-254 -654 247 0
-254 -655 248 0
-254 -656 249 0
-254 -657 250 0
-254 -658 251 0
-254 -659 252 0
-254 -660 253 0
-254 -661 255 0
-254 -662 256 0
-254 -663 257 0
-254 -664 258 0
-254 -665 259 0
-254 -666 260 0
-254 -667 261 0
-255 -668 233 0
-255 -669 234 0
-255 -670 235 0
-255 -671 236 0
-255 -672 237 0
-255 -673 238 0
-255 -674 239 0
-255 -675 240 0
-255 -677 241 0
-255 -678 242 0
-255 -679 243 0
-255 -680 244 0
-255 -681 245 0
-255 -682 246 0
-255 -683 247 0
-255 -684 248 0
-255 -685 249 0
-255 -686 250 0
-255 -687 251 0
-255 -688 252 0
-255 -689 253 0
-255 -690 254 0
-255 -691 256 0
-255 -692 257 0
-255 -693 258 0
-255 -694 259 0
-255 -695 260 0
-255 -696 261 0
-256 -697 233 0
-256 -698 234 0
-256 -699 235 0
-256 -700 236 0
-256 -701 237 0
-256 -702 238 0
-256 -703 239 0
-256 -704 240 0
-256 -706 241 0
-256 -707 242 0
-256 -708 243 0
-256 -709 244 0
-256 -710 245 0
-256 -711 246 0
-256 -712 247 0
-256 -713 248 0
-256 -714 249 0
-256 -715 250 0
-256 -716 251 0
-256 -717 252 0
-256 -718 253 0
-256 -719 254 0
-256 -720 255 0
-256 -721 257 0
-256 -722 258 0
-256 -723 259 0
-256 -724 260 0
-256 -725 261 0
-257 -726 233 0
-257 -727 234 0
-257 -728 235 0
-257 -729 236 0
-257 -730 237 0
-257 -731 238 0
-257 -732 239 0
-257 -733 240 0
-257 -735 241 0
-257 -736 242 0
-257 -737 243 0
-257 -738 244 0
-257 -739 245 0
-257 -740 246 0
-257 -741 247 0
-257 -742 248 0
-257 -743 249 0
-257 -744 250 0
-257 -745 251 0
-257 -746 252 0
-257 -747 253 0
-257 -748 254 0
-257 -749 255 0
-257 -750 256 0
-257 -751 258 0
-257 -752 259 0
-257 -753 260 0
-257 -754 261 0
-258 -755 233 0
-258 -756 234 0
-258 -757 235 0
-258 -758 236 0
-258 -759 237 0
-258 -760 238 0
-258 -761 239 0
-258 -762 240 0
-258 -764 241 0
-258 -765 242 0
-258 -766 243 0
-258 -767 244 0
-258 -768 245 0
-258 -769 246 0
-258 -770 247 0
-258 -771 248 0
-258 -772 249 0
-258 -773 250 0
-258 -774 251 0
-258 -775 252 0
-258 -776 253 0
-258 -777 254 0
-258 -778 255 0
-258 -779 256 0
-258 -780 257 0
-258 -781 259 0
-258 -782 260 0
-258 -783 261 0
-259 -784 233 0
-259 -785 234 0
-259 -786 235 0
-259 -787 236 0
-259 -788 237 0
-259 -789 238 0
-259 -790 239 0
-259 -791 240 0
-259 -793 241 0
-259 -794 242 0
-259 -795 243 0
-259 -796 244 0
-259 -797 245 0
-259 -798 246 0
-259 -799 247 0
-259 -800 248 0
-259 -801 249 0
-259 -802 250 0
-259 -803 251 0
-259 -804 252 0
-259 -805 253 0
-259 -806 254 0
-259 -807 255 0
-259 -808 256 0
-259 -809 257 0
-259 -810 258 0
-259 -811 260 0
-259 -812 261 0
-260 -813 233 0
-260 -814 234 0
-260 -815 235 0
-260 -816 236 0
-260 -817 237 0
-260 -818 238 0
-260 -819 239 0
-260 -820 240 0
-260 -822 241 0
-260 -823 242 0
-260 -824 243 0
-260 -825 244 0
-260 -826 245 0
-260 -827 246 0
-260 -828 247 0
-260 -829 248 0
-260 -830 249 0
-260 -831 250 0
-260 -832 251 0
-260 -833 252 0
-260 -834 253 0
-260 -835 254 0
-260 -836 255 0
-260 -837 256 0
-260 -838 257 0
-260 -839 258 0
-260 -840 259 0
-260 -841 261 0
-261 -842 233 0
-261 -843 234 0
-261 -844 235 0
-261 -845 236 0
-261 -846 237 0
-261 -847 238 0
-261 -848 239 0
-261 -849 240 0
-261 -851 241 0
-261 -852 242 0
-261 -853 243 0
-261 -854 244 0
-261 -855 245 0
-261 -856 246 0
-261 -857 247 0
-261 -858 248 0
-261 -859 249 0
-261 -860 250 0
-261 -861 251 0
-261 -862 252 0
-261 -863 253 0
-261 -864 254 0
-261 -865 255 0
-261 -866 256 0
-261 -867 257 0
-261 -868 258 0
-261 -869 259 0
-261 -870 260 0
-262 -1 263 0
-262 -2 264 0
-262 -3 265 0
-262 -4 266 0
-262 -5 267 0
-262 -6 268 0
-262 -7 269 0
-262 -8 270 0
-262 -10 271 0
-262 -11 272 0
-262 -12 273 0
-262 -13 274 0
-262 -14 275 0
-262 -15 276 0
-262 -16 277 0
-262 -17 278 0
-262 -18 279 0
-262 -19 280 0
-262 -20 281 0
-262 -21 282 0
-262 -22 283 0
-262 -23 284 0
-262 -24 285 0
-262 -25 286 0
-262 -26 287 0
-262 -27 288 0
-262 -28 289 0
-262 -29 290 0
-263 -30 262 0
-263 -31 264 0
-263 -32 265 0
-263 -33 266 0
-263 -34 267 0
-263 -35 268 0
-263 -36 269 0
-263 -37 270 0
-263 -39 271 0
-263 -40 272 0
-263 -41 273 0
-263 -42 274 0
-263 -43 275 0
-263 -44 276 0
-263 -45 277 0
-263 -46 278 0
-263 -47 279 0
-263 -48 280 0
-263 -49 281 0
-263 -50 282 0
-263 -51 283 0
-263 -52 284 0
-263 -53 285 0
-263 -54 286 0
-263 -55 287 0
-263 -56 288 0
-263 -57 289 0
-263 -58 290 0
-264 -59 262 0
-264 -60 263 0
-264 -61 265 0
-264 -62 266 0
-264 -63 267 0
-264 -64 268 0
-264 -65 269 0
-264 -66 270 0
-264 -68 271 0
-264 -69 272 0
-264 -70 273 0
-264 -71 274 0
-264 -72 275 0
-264 -73 276 0
-264 -74 277 0
-264 -75 278 0
-264 -76 279 0
-264 -77 280 0
-264 -78 281 0
-264 -79 282 0
-264 -80 283 0
-264 -81 284 0
-264 -82 285 0
-264 -83 286 0
-264 -84 287 0
-264 -85 288 0
-264 -86 289 0
-264 -87 290 0
-265 -88 262 0
-265 -89 263 0
-265 -90 264 0
-265 -91 266 0
-265 -92 267 0
-265 -93 268 0
-265 -94 269 0
-265 -95 270 0
-265 -97 271 0
-265 -98 272 0
-265 -99 273 0
-265 -100 274 0
-265 -101 275 0
-265 -102 276 0
-265 -103 277 0
-265 -104 278 0
-265 -105 279 0
-265 -106 280 0
-265 -107 281 0
-265 -108 282 0
-265 -109 283 0
-265 -110 284 0
-265 -111 285 0
-265 -112 286 0
-265 -113 287 0
-265 -114 288 0
-265 -115 289 0
-265 -116 290 0
-266 -117 262 0
-266 -118 263 0
-266 -119 264 0
-266 -120 265 0
-266 -121 267 0
-266 -122 268 0
-266 -123 269 0
-266 -124 270 0
-266 -126 271 0
-266 -127 272 0
-266 -128 273 0
-266 -129 274 0
-266 -130 275 0
-266 -131 276 0
-266 -132 277 0
-266 -133 278 0
-266 -134 279 0
-266 -135 280 0
-266 -136 281 0
-266 -137 282 0
-266 -138 283 0
-266 -139 284 0
-266 -140 285 0
-266 -141 286 0
-266 -142 287 0
-266 -143 288 0
-266 -144 289 0
-266 -145 290 0
-267 -146 262 0
-267 -147 263 0
-267 -148 264 0
-267 -149 265 0
-267 -150 266 0
-267 -151 268 0
-267 -152 269 0
-267 -153 270 0
-267 -155 271 0
-267 -156 272 0
-267 -157 273 0
-267 -158 274 0
-267 -159 275 0
-267 -160 276 0
-267 -161 277 0
-267 -162 278 0
-267 -163 279 0
-267 -164 280 0
-267 -165 281 0
-267 -166 282 0
-267 -167 283 0
-267 -168 284 0
-267 -169 285 0
-267 -170 286 0
-267 -171 287 0
-267 -172 288 0
-267 -173 289 0
-267 -174 290 0
-268 -175 262 0
-268 -176 263 0
-268 -177 264 0
-268 -178 265 0
-268 -179 266 0
-268 -180 267 0
-268 -181 269 0
-268 -182 270 0
-268 -184 271 0
-268 -185 272 0
-268 -186 273 0
-268 -187 274 0
-268 -188 275 0
-268 -189 276 0
-268 -190 277 0
-268 -191 278 0
-268 -192 279 0
-268 -193 280 0
-268 -194 281 0
-268 -195 282 0
-268 -196 283 0
-268 -197 284 0
-268 -198 285 0
-268 -199 286 0
-268 -200 287 0
-268 -201 288 0
-268 -202 289 0
-268 -203 290 0
-269 -204 262 0
-269 -205 263 0
-269 -206 264 0
-269 -207 265 0
-269 -208 266 0
-269 -209 267 0
-269 -210 268 0
-269 -211 270 0
-269 -213 271 0
-269 -214 272 0
-269 -215 273 0
-269 -216 274 0
-269 -217 275 0
-269 -218 276 0
-269 -219 277 0
-269 -220 278 0
-269 -221 279 0
-269 -222 280 0
-269 -223 281 0
-269 -224 282 0
-269 -225 283 0
-269 -226 284 0
-269 -227 285 0
-269 -228 286 0
-269 -229 287 0
-269 -230 288 0
-269 -231 289 0
-269 -232 290 0
-270 -233 262 0
-270 -234 263 0
-270 -235 264 0
-270 -236 265 0
-270 -237 266 0
-270 -238 267 0
-270 -239 268 0
-270 -240 269 0
-270 -242 271 0
-270 -243 272 0
-270 -244 273 0
-270 -245 274 0
-270 -246 275 0
-270 -247 276 0
-270 -248 277 0
-270 -249 278 0
-270 -250 279 0
-270 -251 280 0
-270 -252 281 0
-270 -253 282 0
-270 -254 283 0
-270 -255 284 0
-270 -256 285 0
-270 -257 286 0
-270 -258 287 0
-270 -259 288 0
-270 -260 289 0
-270 -261 290 0
-271 -291 262 0
-271 -292 263 0
-271 -293 264 0
-271 -294 265 0
-271 -295 266 0
-271 -296 267 0
-271 -297 268 0
-271 -298 269 0
-271 -299 270 0
-271 -301 272 0
-271 -302 273 0
-271 -303 274 0
-271 -304 275 0
-271 -305 276 0
-271 -306 277 0
-271 -307 278 0
-271 -308 279 0
-271 -309 280 0
-271 -310 281 0
-271 -311 282 0
-271 -312 283 0
-271 -313 284 0
-271 -314 285 0
-271 -315 286 0
-271 -316 287 0
-271 -317 288 0
-271 -318 289 0
-271 -319 290 0
-272 -320 262 0
-272 -321 263 0
-272 -322 264 0
-272 -323 265 0
-272 -324 266 0
-272 -325 267 0
-272 -326 268 0
-272 -327 269 0
-272 -328 270 0
-272 -330 271 0
-272 -331 273 0
-272 -332 274 0
-272 -333 275 0
-272 -334 276 0
-272 -335 277 0
-272 -336 278 0
-272 -337 279 0
-272 -338 280 0
-272 -339 281 0
-272 -340 282 0
-272 -341 283 0
-272 -342 284 0
-272 -343 285 0
-272 -344 286 0
-272 -345 287 0
-272 -346 288 0
-272 -347 289 0
-272 -348 290 0
-273 -349 262 0
-273 -350 263 0
-273 -351 264 0
-273 -352 265 0
-273 -353 266 0
-273 -354 267 0
-273 -355 268 0
-273 -356 269 0
-273 -357 270 0
-273 -359 271 0
-273 -360 272 0
-273 -361 274 0
-273 -362 275 0
-273 -363 276 0
-273 -364 277 0
-273 -365 278 0
-273 -366 279 0
-273 -367 280 0
-273 -368 281 0
-273 -369 282 0
-273 -370 283 0
-273 -371 284 0
-273 -372 285 0
-273 -373 286 0
-273 -374 287 0
-273 -375 288 0
-273 -376 289 0
-273 -377 290 0
-274 -378 262 0
-274 -379 263 0
-274 -380 264 0
-274 -381 265 0
-274 -382 266 0
-274 -383 267 0
-274 -384 268 0
-274 -385 269 0
-274 -386 270 0
-274 -388 271 0
-274 -389 272 0
-274 -390 273 0
-274 -391 275 0
-274 -392 276 0
-274 -393 277 0
-274 -394 278 0
-274 -395 279 0
-274 -396 280 0
-274 -397 281 0
-274 -398 282 0
-274 -399 283 0
-274 -400 284 0
-274 -401 285 0
-274 -402 286 0
-274 -403 287 0
-274 -404 288 0
-274 -405 289 0
-274 -406 290 0
-275 -407 262 0
-275 -408 263 0
-275 -409 264 0
-275 -410 265 0
-275 -411 266 0
-275 -412 267 0
-275 -413 268 0
-275 -414 269 0
-275 -415 270 0
-275 -417 271 0
-275 -418 272 0
-275 -419 273 0
-275 -420 274 0
-275 -421 276 0
-275 -422 277 0
-275 -423 278 0
-275 -424 279 0
-275 -425 280 0
-275 -426 281 0
-275 -427 282 0
-275 -428 283 0
-275 -429 284 0
-275 -430 285 0
-275 -431 286 0
-275 -432 287 0
-275 -433 288 0
-275 -434 289 0
-275 -435 290 0
-276 -436 262 0
-276 -437 263 0
-276 -438 264 0
-276 -439 265 0
-276 -440 266 0
-276 -441 267 0
-276 -442 268 0
-276 -443 269 0
-276 -444 270 0
-276 -446 271 0
-276 -447 272 0
-276 -448 273 0
-276 -449 274 0
-276 -450 275 0
-276 -451 277 0
-276 -452 278 0
-276 -453 279 0
-276 -454 280 0
-276 -455 281 0
-276 -456 282 0
-276 -457 283 0
-276 -458 284 0
-276 -459 285 0
-276 -460 286 0
-276 -461 287 0
-276 -462 288 0
-276 -463 289 0
-276 -464 290 0
-277 -465 262 0
-277 -466 263 0
-277 -467 264 0
-277 -468 265 0
-277 -469 266 0
-277 -470 267 0
-277 -471 268 0
-277 -472 269 0
-277 -473 270 0
-277 -475 271 0
-277 -476 272 0
-277 -477 273 0
-277 -478 274 0
-277 -479 275 0
-277 -480 276 0
-277 -481 278 0
-277 -482 279 0
-277 -483 280 0
-277 -484 281 0
-277 -485 282 0
-277 -486 283 0
-277 -487 284 0
-277 -488 285 0
-277 -489 286 0
-277 -490 287 0
-277 -491 288 0
-277 -492 289 0
-277 -493 290 0
-278 -494 262 0
-278 -495 263 0
-278 -496 264 0
-278 -497 265 0
-278 -498 266 0
-278 -499 267 0
-278 -500 268 0
-278 -501 269 0
-278 -502 270 0
-278 -504 271 0
-278 -505 272 0
-278 -506 273 0
-278 -507 274 0
-278 -508 275 0
-278 -509 276 0
-278 -510 277 0
-278 -511 279 0
-278 -512 280 0
-278 -513 281 0
-278 -514 282 0
-278 -515 283 0
-278 -516 284 0
-278 -517 285 0
-278 -518 286 0
-278 -519 287 0
-278 -520 288 0
-278 -521 289 0
-278 -522 290 0
-279 -523 262 0
-279 -524 263 0
-279 -525 264 0
-279 -526 265 0
-279 -527 266 0
-279 -528 267 0
-279 -529 268 0
-279 -530 269 0
-279 -531 270 0
-279 -533 271 0
-279 -534 272 0
-279 -535 273 0
-279 -536 274 0
-279 -537 275 0
-279 -538 276 0
-279 -539 277 0
-279 -540 278 0
-279 -541 280 0
-279 -542 281 0
-279 -543 282 0
-279 -544 283 0
-279 -545 284 0
-279 -546 285 0
-279 -547 286 0
-279 -548 287 0
-279 -549 288 0
-279 -550 289 0
-279 -551 290 0
-280 -552 262 0
-280 -553 263 0
-280 -554 264 0
-280 -555 265 0
-280 -556 266 0
-280 -557 267 0
-280 -558 268 0
-280 -559 269 0
-280 -560 270 0
-280 -562 271 0
-280 -563 272 0
-280 -564 273 0
-280 -565 274 0
-280 -566 275 0
-280 -567 276 0
-280 -568 277 0
-280 -569 278 0
-280 -570 279 0
-280 -571 281 0
-280 -572 282 0
-280 -573 283 0
-280 -574 284 0
-280 -575 285 0
-280 -576 286 0
-280 -577 287 0
-280 -578 288 0
-280 -579 289 0
-280 -580 290 0
-281 -581 262 0
-281 -582 263 0
-281 -583 264 0
-281 -584 265 0
-281 -585 266 0
-281 -586 267 0
-281 -587 268 0
-281 -588 269 0
-281 -589 270 0
-281 -591 271 0
-281 -592 272 0
-281 -593 273 0
-281 -594 274 0
-281 -595 275 0
-281 -596 276 0
-281 -597 277 0
-281 -598 278 0
-281 -599 279 0
-281 -600 280 0
-281 -601 282 0
-281 -602 283 0
-281 -603 284 0
-281 -604 285 0
-281 -605 286 0
-281 -606 287 0
-281 -607 288 0
-281 -608 289 0
-281 -609 290 0
-282 -610 262 0
-282 -611 263 0
-282 -612 264 0
-282 -613 265 0
-282 -614 266 0
-282 -615 267 0
-282 -616 268 0
-282 -617 269 0
-282 -618 270 0
-282 -620 271 0
-282 -621 272 0
-282 -622 273 0
-282 -623 274 0
-282 -624 275 0
-282 -625 276 0
-282 -626 277 0
-282 -627 278 0
-282 -628 279 0
-282 -629 280 0
-282 -630 281 0
-282 -631 283 0
-282 -632 284 0
-282 -633 285 0
-282 -634 286 0
-282 -635 287 0
-282 -636 288 0
-282 -637 289 0
-282 -638 290 0
-283 -639 262 0
-283 -640 263 0
-283 -641 264 0
-283 -642 265 0
-283 -643 266 0
-283 -644 267 0
-283 -645 268 0
-283 -646 269 0
-283 -647 270 0
-283 -649 271 0
-283 -650 272 0
-283 -651 273 0
-283 -652 274 0
-283 -653 275 0
-283 -654 276 0
-283 -655 277 0
-283 -656 278 0
-283 -657 279 0
-283 -658 280 0
-283 -659 281 0
-283 -660 282 0
-283 -661 284 0
-283 -662 285 0
-283 -663 286 0
-283 -664 287 0
-283 -665 288 0
-283 -666 289 0
-283 -667 290 0
-284 -668 262 0
-284 -669 263 0
-284 -670 264 0
-284 -671 265 0
-284 -672 266 0
-284 -673 267 0
-284 -674 268 0
-284 -675 269 0
-284 -676 270 0
-284 -678 271 0
-284 -679 272 0
-284 -680 273 0
-284 -681 274 0
-284 -682 275 0
-284 -683 276 0
-284 -684 277 0
-284 -685 278 0
-284 -686 279 0
-284 -687 280 0
-284 -688 281 0
-284 -689 282 0
-284 -690 283 0
-284 -691 285 0
-284 -692 286 0
-284 -693 287 0
-284 -694 288 0
-284 -695 289 0
-284 -696 290 0
-285 -697 262 0
-285 -698 263 0
-285 -699 264 0
-285 -700 265 0
-285 -701 266 0
-285 -702 267 0
-285 -703 268 0
-285 -704 269 0
-285 -705 270 0
-285 -707 271 0
-285 -708 272 0
-285 -709 273 0
-285 -710 274 0
-285 -711 275 0
-285 -712 276 0
-285 -713 277 0
-285 -714 278 0
-285 -715 279 0
-285 -716 280 0
-285 -717 281 0
-285 -718 282 0
-285 -719 283 0
-285 -720 284 0
-285 -721 286 0
-285 -722 287 0
-285 -723 288 0
-285 -724 289 0
-285 -725 290 0
-286 -726 262 0
-286 -727 263 0
-286 -728 264 0
-286 -729 265 0
-286 -730 266 0
-286 -731 267 0
-286 -732 268 0
-286 -733 269 0
-286 -734 270 0
-286 -736 271 0
-286 -737 272 0
-286 -738 273 0
-286 -739 274 0
-286 -740 275 0
-286 -741 276 0
-286 -742 277 0
-286 -743 278 0
-286 -744 279 0
-286 -745 280 0
-286 -746 281 0
-286 -747 282 0
-286 -748 283 0
-286 -749 284 0
-286 -750 285 0
-286 -751 287 0
-286 -752 288 0
-286 -753 289 0
-286 -754 290 0
-287 -755 262 0
-287 -756 263 0
-287 -757 264 0
-287 -758 265 0
-287 -759 266 0
-287 -760 267 0
-287 -761 268 0
-287 -762 269 0
-287 -763 270 0
-287 -765 271 0
-287 -766 272 0
-287 -767 273 0
-287 -768 274 0
-287 -769 275 0
-287 -770 276 0
-287 -771 277 0
-287 -772 278 0
-287 -773 279 0
-287 -774 280 0
-287 -775 281 0
-287 -776 282 0
-287 -777 283 0
-287 -778 284 0
-287 -779 285 0
-287 -780 286 0
-287 -781 288 0
-287 -782 289 0
-287 -783 290 0
-288 -784 262 0
-288 -785 263 0
-288 -786 264 0
-288 -787 265 0
-288 -788 266 0
-288 -789 267 0
-288 -790 268 0
-288 -791 269 0
-288 -792 270 0
-288 -794 271 0
-288 -795 272 0
-288 -796 273 0
-288 -797 274 0
-288 -798 275 0
-288 -799 276 0
-288 -800 277 0
-288 -801 278 0
-288 -802 279 0
-288 -803 280 0
-288 -804 281 0
-288 -805 282 0
-288 -806 283 0
-288 -807 284 0
-288 -808 285 0
-288 -809 286 0
-288 -810 287 0
-288 -811 289 0
-288 -812 290 0
-289 -813 262 0
-289 -814 263 0
-289 -815 264 0
-289 -816 265 0
-289 -817 266 0
-289 -818 267 0
-289 -819 268 0
-289 -820 269 0
-289 -821 270 0
-289 -823 271 0
-289 -824 272 0
-289 -825 273 0
-289 -826 274 0
-289 -827 275 0
-289 -828 276 0
-289 -829 277 0
-289 -830 278 0
-289 -831 279 0
-289 -832 280 0
-289 -833 281 0
-289 -834 282 0
-289 -835 283 0
-289 -836 284 0
-289 -837 285 0
-289 -838 286 0
-289 -839 287 0
-289 -840 288 0
-289 -841 290 0
-290 -842 262 0
-290 -843 263 0
-290 -844 264 0
-290 -845 265 0
-290 -846 266 0
-290 -847 267 0
-290 -848 268 0
-290 -849 269 0
-290 -850 270 0
-290 -852 271 0
-290 -853 272 0
-290 -854 273 0
-290 -855 274 0
-290 -856 275 0
-290 -857 276 0
-290 -858 277 0
-290 -859 278 0
-290 -860 279 0
-290 -861 280 0
-290 -862 281 0
-290 -863 282 0
-290 -864 283 0
-290 -865 284 0
-290 -866 285 0
-290 -867 286 0
-290 -868 287 0
-290 -869 288 0
-290 -870 289 0
-291 -1 292 0
-291 -2 293 0
-291 -3 294 0
-291 -4 295 0
-291 -5 296 0
-291 -6 297 0
-291 -7 298 0
-291 -8 299 0
-291 -9 300 0
-291 -11 301 0
-291 -12 302 0
-291 -13 303 0
-291 -14 304 0
-291 -15 305 0
-291 -16 306 0
-291 -17 307 0
-291 -18 308 0
-291 -19 309 0
-291 -20 310 0
-291 -21 311 0
-291 -22 312 0
-291 -23 313 0
-291 -24 314 0
-291 -25 315 0
-291 -26 316 0
-291 -27 317 0
-291 -28 318 0
-291 -29 319 0
-292 -30 291 0
-292 -31 293 0
-292 -32 294 0
-292 -33 295 0
-292 -34 296 0
-292 -35 297 0
-292 -36 298 0
-292 -37 299 0
-292 -38 300 0
-292 -40 301 0
-292 -41 302 0
-292 -42 303 0
-292 -43 304 0
-292 -44 305 0
-292 -45 306 0
-292 -46 307 0
-292 -47 308 0
-292 -48 309 0
-292 -49 310 0
-292 -50 311 0
-292 -51 312 0
-292 -52 313 0
-292 -53 314 0
-292 -54 315 0
-292 -55 316 0
-292 -56 317 0
-292 -57 318 0
-292 -58 319 0
-293 -59 291 0
-293 -60 292 0
-293 -61 294 0
-293 -62 295 0
-293 -63 296 0
-293 -64 297 0
-293 -65 298 0
-293 -66 299 0
-293 -67 300 0
-293 -69 301 0
-293 -70 302 0
-293 -71 303 0
-293 -72 304 0
-293 -73 305 0
-293 -74 306 0
-293 -75 307 0
-293 -76 308 0
-293 -77 309 0
-293 -78 310 0
-293 -79 311 0
-293 -80 312 0
-293 -81 313 0
-293 -82 314 0
-293 -83 315 0
-293 -84 316 0
-293 -85 317 0
-293 -86 318 0
-293 -87 319 0
-294 -88 291 0
-294 -89 292 0
-294 -90 293 0
-294 -91 295 0
-294 -92 296 0
-294 -93 297 0
-294 -94 298 0
-294 -95 299 0
-294 -96 300 0
-294 -98 301 0
-294 -99 302 0
-294 -100 303 0
-294 -101 304 0
-294 -102 305 0
-294 -103 306 0
-294 -104 307 0
-294 -105 308 0
-294 -106 309 0
-294 -107 310 0
-294 -108 311 0
-294 -109 312 0
-294 -110 313 0
-294 -111 314 0
-294 -112 315 0
-294 -113 316 0
-294 -114 317 0
-294 -115 318 0
-294 -116 319 0
-295 -117 291 0
-295 -118 292 0
-295 -119 293 0
-295 -120 294 0
-295 -121 296 0
-295 -122 297 0
-295 -123 298 0
-295 -124 299 0
-295 -125 300 0
-295 -127 301 0
-295 -128 302 0
-295 -129 303 0
-295 -130 304 0
-295 -131 305 0
-295 -132 306 0
-295 -133 307 0
-295 -134 308 0
-295 -135 309 0
-295 -136 310 0
-295 -137 311 0
-295 -138 312 0
-295 -139 313 0
-295 -140 314 0
-295 -141 315 0
-295 -142 316 0
-295 -143 317 0
-295 -144 318 0
-295 -145 319 0
-296 -146 291 0
-296 -147 292 0
-296 -148 293 0
-296 -149 294 0
-296 -150 295 0
-296 -151 297 0
-296 -152 298 0
-296 -153 299 0
-296 -154 300 0
-296 -156 301 0
-296 -157 302 0
-296 -158 303 0
-296 -159 304 0
-296 -160 305 0
-296 -161 306 0
-296 -162 307 0
-296 -163 308 0
-296 -164 309 0
-296 -165 310 0
-296 -166 311 0
-296 -167 312 0
-296 -168 313 0
-296 -169 314 0
-296 -170 315 0
-296 -171 316 0
-296 -172 317 0
-296 -173 318 0
-296 -174 319 0
-297 -175 291 0
-297 -176 292 0
-297 -177 293 0
-297 -178 294 0
-297 -179 295 0
-297 -180 296 0
-297 -181 298 0
-297 -182 299 0
-297 -183 300 0
-297 -185 301 0
-297 -186 302 0
-297 -187 303 0
-297 -188 304 0
-297 -189 305 0
-297 -190 306 0
-297 -191 307 0
-297 -192 308 0
-297 -193 309 0
-297 -194 310 0
-297 -195 311 0
-297 -196 312 0
-297 -197 313 0
-297 -198 314 0
-297 -199 315 0
-297 -200 316 0
-297 -201 317 0
-297 -202 318 0
-297 -203 319 0
-298 -204 291 0
-298 -205 292 0
-298 -206 293 0
-298 -207 294 0
-298 -208 295 0
-298 -209 296 0
-298 -210 297 0
-298 -211 299 0
-298 -212 300 0
-298 -214 301 0
-298 -215 302 0
-298 -216 303 0
-298 -217 304 0
-298 -218 305 0
-298 -219 306 0
-298 -220 307 0
-298 -221 308 0
-298 -222 309 0
-298 -223 310 0
-298 -224 311 0
-298 -225 312 0
-298 -226 313 0
-298 -227 314 0
-298 -228 315 0
-298 -229 316 0
-298 -230 317 0
-298 -231 318 0
-298 -232 319 0
-299 -233 291 0
-299 -234 292 0
-299 -235 293 0
-299 -236 294 0
-299 -237 295 0
-299 -238 296 0
-299 -239 297 0
-299 -240 298 0
-299 -241 300 0
-299 -243 301 0
-299 -244 302 0
-299 -245 303 0
-299 -246 304 0
-299 -247 305 0
-299 -248 306 0
-299 -249 307 0
-299 -250 308 0
-299 -251 309 0
-299 -252 310 0
-299 -253 311 0
-299 -254 312 0
-299 -255 313 0
-299 -256 314 0
-299 -257 315 0
-299 -258 316 0
-299 -259 317 0
-299 -260 318 0
-299 -261 319 0
-300 -262 291 0
-300 -263 292 0
-300 -264 293 0
-300 -265 294 0
-300 -266 295 0
-300 -267 296 0
-300 -268 297 0
-300 -269 298 0
-300 -270 299 0
-300 -272 301 0
-300 -273 302 0
-300 -274 303 0
-300 -275 304 0
-300 -276 305 0
-300 -277 306 0
-300 -278 307 0
-300 -279 308 0
-300 -280 309 0
-300 -281 310 0
-300 -282 311 0
-300 -283 312 0
-300 -284 313 0
-300 -285 314 0
-300 -286 315 0
-300 -287 316 0
-300 -288 317 0
-300 -289 318 0
-300 -290 319 0
-301 -320 291 0
-301 -321 292 0
-301 -322 293 0
-301 -323 294 0
-301 -324 295 0
-301 -325 296 0
-301 -326 297 0
-301 -327 298 0
-301 -328 299 0
-301 -329 300 0
-301 -331 302 0
-301 -332 303 0
-301 -333 304 0
-301 -334 305 0
-301 -335 306 0
-301 -336 307 0
-301 -337 308 0
-301 -338 309 0
-301 -339 310 0
-301 -340 311 0
-301 -341 312 0
-301 -342 313 0
-301 -343 314 0
-301 -344 315 0
-301 -345 316 0
-301 -346 317 0
-301 -347 318 0
-301 -348 319 0
-302 -349 291 0
-302 -350 292 0
-302 -351 293 0
-302 -352 294 0
-302 -353 295 0
-302 -354 296 0
-302 -355 297 0
-302 -356 298 0
-302 -357 299 0
-302 -358 300 0
-302 -360 301 0
-302 -361 303 0
-302 -362 304 0
-302 -363 305 0
-302 -364 306 0
-302 -365 307 0
-302 -366 308 0
-302 -367 309 0
-302 -368 310 0
-302 -369 311 0
-302 -370 312 0
-302 -371 313 0
-302 -372 314 0
-302 -373 315 0
-302 -374 316 0
-302 -375 317 0
-302 -376 318 0
-302 -377 319 0
-303 -378 291 0
-303 -379 292 0
-303 -380 293 0
-303 -381 294 0
-303 -382 295 0
-303 -383 296 0
-303 -384 297 0
-303 -385 298 0
-303 -386 299 0
-303 -387 300 0
-303 -389 301 0
-303 -390 302 0
-303 -391 304 0
-303 -392 305 0
-303 -393 306 0
-303 -394 307 0
-303 -395 308 0
-303 -396 309 0
-303 -397 310 0
-303 -398 311 0
-303 -399 312 0
-303 -400 313 0
-303 -401 314 0
-303 -402 315 0
-303 -403 316 0
-303 -404 317 0
-303 -405 318 0
-303 -406 319 0
-304 -407 291 0
-304 -408 292 0
-304 -409 293 0
-304 -410 294 0
-304 -411 295 0
-304 -412 296 0
-304 -413 297 0
-304 -414 298 0
-304 -415 299 0
-304 -416 300 0
-304 -418 301 0
-304 -419 302 0
-304 -420 303 0
-304 -421 305 0
-304 -422 306 0
-304 -423 307 0
-304 -424 308 0
-304 -425 309 0
-304 -426 310 0
-304 -427 311 0
-304 -428 312 0
-304 -429 313 0
-304 -430 314 0
-304 -431 315 0
-304 -432 316 0
-304 -433 317 0
-304 -434 318 0
-304 -435 319 0
-305 -436 291 0
-305 -437 292 0
-305 -438 293 0
-305 -439 294 0
-305 -440 295 0
-305 -441 296 0
-305 -442 297 0
-305 -443 298 0
-305 -444 299 0
-305 -445 300 0
-305 -447 301 0
-305 -448 302 0
-305 -449 303 0
-305 -450 304 0
-305 -451 306 0
-305 -452 307 0
-305 -453 308 0
-305 -454 309 0
-305 -455 310 0
-305 -456 311 0
-305 -457 312 0
-305 -458 313 0
-305 -459 314 0
-305 -460 315 0
-305 -461 316 0
-305 -462 317 0
-305 -463 318 0
-305 -464 319 0
-306 -465 291 0
-306 -466 292 0
-306 -467 293 0
-306 -468 294 0
-306 -469 295 0
-306 -470 296 0
-306 -471 297 0
-306 -472 298 0
-306 -473 299 0
-306 -474 300 0
-306 -476 301 0
-306 -477 302 0
-306 -478 303 0
-306 -479 304 0
-306 -480 305 0
-306 -481 307 0
-306 -482 308 0
-306 -483 309 0
-306 -484 310 0
-306 -485 311 0
-306 -486 312 0
-306 -487 313 0
-306 -488 314 0
-306 -489 315 0
-306 -490 316 0
-306 -491 317 0
-306 -492 318 0
-306 -493 319 0
-307 -494 291 0
-307 -495 292 0
-307 -496 293 0
-307 -497 294 0
-307 -498 295 0
-307 -499 296 0
-307 -500 297 0
-307 -501 298 0
-307 -502 299 0
-307 -503 300 0
-307 -505 301 0
-307 -506 302 0
-307 -507 303 0
-307 -508 304 0
-307 -509 305 0
-307 -510 306 0
-307 -511 308 0
-307 -512 309 0
-307 -513 310 0
-307 -514 311 0
-307 -515 312 0
-307 -516 313 0
-307 -517 314 0
-307 -518 315 0
-307 -519 316 0
-307 -520 317 0
-307 -521 318 0
-307 -522 319 0
-308 -523 291 0
-308 -524 292 0
-308 -525 293 0
-308 -526 294 0
-308 -527 295 0
-308 -528 296 0
-308 -529 297 0
-308 -530 298 0
-308 -531 299 0
-308 -532 300 0
-308 -534 301 0
-308 -535 302 0
-308 -536 303 0
-308 -537 304 0
-308 -538 305 0
-308 -539 306 0
-308 -540 307 0
-308 -541 309 0
-308 -542 310 0
-308 -543 311 0
-308 -544 312 0
-308 -545 313 0
-308 -546 314 0
-308 -547 315 0
-308 -548 316 0
-308 -549 317 0
-308 -550 318 0
-308 -551 319 0
-309 -552 291 0
-309 -553 292 0
-309 -554 293 0
-309 -555 294 0
-309 -556 295 0
-309 -557 296 0
-309 -558 297 0
-309 -559 298 0
-309 -560 299 0
-309 -561 300 0
-309 -563 301 0
-309 -564 302 0
-309 -565 303 0
-309 -566 304 0
-309 -567 305 0
-309 -568 306 0
-309 -569 307 0
-309 -570 308 0
-309 -571 310 0
-309 -572 311 0
-309 -573 312 0
-309 -574 313 0
-309 -575 314 0
-309 -576 315 0
-309 -577 316 0
-309 -578 317 0
-309 -579 318 0
-309 -580 319 0
-310 -581 291 0
-310 -582 292 0
-310 -583 293 0
-310 -584 294 0
-310 -585 295 0
-310 -586 296 0
-310 -587 297 0
-310 -588 298 0
-310 -589 299 0
-310 -590 300 0
-310 -592 301 0
-310 -593 302 0
-310 -594 303 0
-310 -595 304 0
-310 -596 305 0
-310 -597 306 0
-310 -598 307 0
-310 -599 308 0
-310 -600 309 0
-310 -601 311 0
-310 -602 312 0
-310 -603 313 0
-310 -604 314 0
-310 -605 315 0
-310 -606 316 0
-310 -607 317 0
-310 -608 318 0
-310 -609 319 0
-311 -610 291 0
-311 -611 292 0
-311 -612 293 0
-311 -613 294 0
-311 -614 295 0
-311 -615 296 0
-311 -616 297 0
-311 -617 298 0
-311 -618 299 0
-311 -619 300 0
-311 -621 301 0
-311 -622 302 0
-311 -623 303 0
-311 -624 304 0
-311 -625 305 0
-311 -626 306 0
-311 -627 307 0
-311 -628 308 0
-311 -629 309 0
-311 -630 310 0
-311 -631 312 0
-311 -632 313 0
-311 -633 314 0
-311 -634 315 0
-311 -635 316 0
-311 -636 317 0
-311 -637 318 0
-311 -638 319 0
-312 -639 291 0
-312 -640 292 0
-312 -641 293 0
-312 -642 294 0
-312 -643 295 0
-312 -644 296 0
-312 -645 297 0
-312 -646 298 0
-312 -647 299 0
-312 -648 300 0
-312 -650 301 0
-312 -651 302 0
-312 -652 303 0
-312 -653 304 0
-312 -654 305 0
-312 -655 306 0
-312 -656 307 0
-312 -657 308 0
-312 -658 309 0
-312 -659 310 0
-312 -660 311 0
-312 -661 313 0
-312 -662 314 0
-312 -663 315 0
-312 -664 316 0
-312 -665 317 0
-312 -666 318 0
-312 -667 319 0
-313 -668 291 0
-313 -669 292 0
-313 -670 293 0
-313 -671 294 0
-313 -672 295 0
-313 -673 296 0
-313 -674 297 0
-313 -675 298 0
-313 -676 299 0
-313 -677 300 0
-313 -679 301 0
-313 -680 302 0
-313 -681 303 0
-313 -682 304 0
-313 -683 305 0
-313 -684 306 0
-313 -685 307 0
-313 -686 308 0
-313 -687 309 0
-313 -688 310 0
-313 -689 311 0
-313 -690 312 0
-313 -691 314 0
-313 -692 315 0
-313 -693 316 0
-313 -694 317 0
-313 -695 318 0
-313 -696 319 0
-314 -697 291 0
-314 -698 292 0
-314 -699 293 0
-314 -700 294 0
-314 -701 295 0
-314 -702 296 0
-314 -703 297 0
-314 -704 298 0
-314 -705 299 0
-314 -706 300 0
-314 -708 301 0
-314 -709 302 0
-314 -710 303 0
-314 -711 304 0
-314 -712 305 0
-314 -713 306 0
-314 -714 307 0
-314 -715 308 0
-314 -716 309 0
-314 -717 310 0
-314 -718 311 0
-314 -719 312 0
-314 -720 313 0
-314 -721 315 0
-314 -722 316 0
-314 -723 317 0
-314 -724 318 0
-314 -725 319 0
-315 -726 291 0
-315 -727 292 0
-315 -728 293 0
-315 -729 294 0
-315 -730 295 0
-315 -731 296 0
-315 -732 297 0
-315 -733 298 0
-315 -734 299 0
-315 -735 300 0
-315 -737 301 0
-315 -738 302 0
-315 -739 303 0
-315 -740 304 0
-315 -741 305 0
-315 -742 306 0
-315 -743 307 0
-315 -744 308 0
-315 -745 309 0
-315 -746 310 0
-315 -747 311 0
-315 -748 312 0
-315 -749 313 0
-315 -750 314 0
-315 -751 316 0
-315 -752 317 0
-315 -753 318 0
-315 -754 319 0
-316 -755 291 0
-316 -756 292 0
-316 -757 293 0
-316 -758 294 0
-316 -759 295 0
-316 -760 296 0
-316 -761 297 0
-316 -762 298 0
-316 -763 299 0
-316 -764 300 0
-316 -766 301 0
-316 -767 302 0
-316 -768 303 0
-316 -769 304 0
-316 -770 305 0
-316 -771 306 0
-316 -772 307 0
-316 -773 308 0
-316 -774 309 0
-316 -775 310 0
-316 -776 311 0
-316 -777 312 0
-316 -778 313 0
-316 -779 314 0
-316 -780 315 0
-316 -781 317 0
-316 -782 318 0
-316 -783 319 0
-317 -784 291 0
-317 -785 292 0
-317 -786 293 0
-317 -787 294 0
-317 -788 295 0
-317 -789 296 0
-317 -790 297 0
-317 -791 298 0
-317 -792 299 0
-317 -793 300 0
-317 -795 301 0
-317 -796 302 0
-317 -797 303 0
-317 -798 304 0
-317 -799 305 0
-317 -800 306 0
-317 -801 307 0
-317 -802 308 0
-317 -803 309 0
-317 -804 310 0
-317 -805 311 0
-317 -806 312 0
-317 -807 313 0
-317 -808 314 0
-317 -809 315 0
-317 -810 316 0
-317 -811 318 0
-317 -812 319 0
-318 -813 291 0
-318 -814 292 0
-318 -815 293 0
-318 -816 294 0
-318 -817 295 0
-318 -818 296 0
-318 -819 297 0
-318 -820 298 0
-318 -821 299 0
-318 -822 300 0
-318 -824 301 0
-318 -825 302 0
-318 -826 303 0
-318 -827 304 0
-318 -828 305 0
-318 -829 306 0
-318 -830 307 0
-318 -831 308 0
-318 -832 309 0
-318 -833 310 0
-318 -834 311 0
-318 -835 312 0
-318 -836 313 0
-318 -837 314 0
-318 -838 315 0
-318 -839 316 0
-318 -840 317 0
-318 -841 319 0
-319 -842 291 0
-319 -843 292 0
-319 -844 293 0
-319 -845 294 0
-319 -846 295 0
-319 -847 296 0
-319 -848 297 0
-319 -849 298 0
-319 -850 299 0
-319 -851 300 0
-319 -853 301 0
-319 -854 302 0
-319 -855 303 0
-319 -856 304 0
-319 -857 305 0
-319 -858 306 0
-319 -859 307 0
-319 -860 308 0
-319 -861 309 0
-319 -862 310 0
-319 -863 311 0
-319 -864 312 0
-319 -865 313 0
-319 -866 314 0
-319 -867 315 0
-319 -868 316 0
-319 -869 317 0
-319 -870 318 0
-320 -1 321 0
-320 -2 322 0
-320 -3 323 0
-320 -4 324 0
-320 -5 325 0
-320 -6 326 0
-320 -7 327 0
-320 -8 328 0
-320 -9 329 0
-320 -10 330 0
-320 -12 331 0
-320 -13 332 0
-320 -14 333 0
-320 -15 334 0
-320 -16 335 0
-320 -17 336 0
-320 -18 337 0
-320 -19 338 0
-320 -20 339 0
-320 -21 340 0
-320 -22 341 0
-320 -23 342 0
-320 -24 343 0
-320 -25 344 0
-320 -26 345 0
-320 -27 346 0
-320 -28 347 0
-320 -29 348 0
-321 -30 320 0
-321 -31 322 0
-321 -32 323 0
-321 -33 324 0
-321 -34 325 0
-321 -35 326 0
-321 -36 327 0
-321 -37 328 0
-321 -38 329 0
-321 -39 330 0
-321 -41 331 0
-321 -42 332 0
-321 -43 333 0
-321 -44 334 0
-321 -45 335 0
-321 -46 336 0
-321 -47 337 0
-321 -48 338 0
-321 -49 339 0
-321 -50 340 0
-321 -51 341 0
-321 -52 342 0
-321 -53 343 0
-321 -54 344 0
-321 -55 345 0
-321 -56 346 0
-321 -57 347 0
-321 -58 348 0
-322 -59 320 0
-322 -60 321 0
-322 -61 323 0
-322 -62 324 0
-322 -63 325 0
-322 -64 326 0
-322 -65 327 0
-322 -66 328 0
-322 -67 329 0
-322 -68 330 0
-322 -70 331 0
-322 -71 332 0
-322 -72 333 0
-322 -73 334 0
-322 -74 335 0
-322 -75 336 0
-322 -76 337 0
-322 -77 338 0
-322 -78 339 0
-322 -79 340 0
-322 -80 341 0
-322 -81 342 0
-322 -82 343 0
-322 -83 344 0
-322 -84 345 0
-322 -85 346 0
-322 -86 347 0
-322 -87 348 0
-323 -88 320 0
-323 -89 321 0
-323 -90 322 0
-323 -91 324 0
-323 -92 325 0
-323 -93 326 0
-323 -94 327 0
-323 -95 328 0
-323 -96 329 0
-323 -97 330 0
-323 -99 331 0
-323 -100 332 0
-323 -101 333 0
-323 -102 334 0
-323 -103 335 0
-323 -104 336 0
-323 -105 337 0
-323 -106 338 0
-323 -107 339 0
-323 -108 340 0
-323 -109 341 0
-323 -110 342 0
-323 -111 343 0
-323 -112 344 0
-323 -113 345 0
-323 -114 346 0
-323 -115 347 0
-323 -116 348 0
-324 -117 320 0
-324 -118 321 0
-324 -119 322 0
-324 -120 323 0
-324 -121 325 0
-324 -122 326 0
-324 -123 327 0
-324 -124 328 0
-324 -125 329 0
-324 -126 330 0
-324 -128 331 0
-324 -129 332 0
-324 -130 333 0
-324 -131 334 0
-324 -132 335 0
-324 -133 336 0
-324 -134 337 0
-324 -135 338 0
-324 -136 339 0
-324 -137 340 0
-324 -138 341 0
-324 -139 342 0
-324 -140 343 0
-324 -141 344 0
-324 -142 345 0
-324 -143 346 0
-324 -144 347 0
-324 -145 348 0
-325 -146 320 0
-325 -147 321 0
-325 -148 322 0
-325 -149 323 0
-325 -150 324 0
-325 -151 326 0
-325 -152 327 0
-325 -153 328 0
-325 -154 329 0
-325 -155 330 0
-325 -157 331 0
-325 -158 332 0
-325 -159 333 0
-325 -160 334 0
-325 -161 335 0
-325 -162 336 0
-325 -163 337 0
-325 -164 338 0
-325 -165 339 0
-325 -166 340 0
-325 -167 341 0
-325 -168 342 0
-325 -169 343 0
-325 -170 344 0
-325 -171 345 0
-325 -172 346 0
-325 -173 347 0
-325 -174 348 0
-326 -175 320 0
-326 -176 321 0
-326 -177 322 0
-326 -178 323 0
-326 -179 324 0
-326 -180 325 0
-326 -181 327 0
-326 -182 328 0
-326 -183 329 0
-326 -184 330 0
-326 -186 331 0
-326 -187 332 0
-326 -188 333 0
-326 -189 334 0
-326 -190 335 0
-326 -191 336 0
-326 -192 337 0
-326 -193 338 0
-326 -194 339 0
-326 -195 340 0
-326 -196 341 0
-326 -197 342 0
-326 -198 343 0
-326 -199 344 0
-326 -200 345 0
-326 -201 346 0
-326 -202 347 0
-326 -203 348 0
-327 -204 320 0
-327 -205 321 0
-327 -206 322 0
-327 -207 323 0
-327 -208 324 0
-327 -209 325 0
-327 -210 326 0
-327 -211 328 0
-327 -212 329 0
-327 -213 330 0
-327 -215 331 0
-327 -216 332 0
-327 -217 333 0
-327 -218 334 0
-327 -219 335 0
-327 -220 336 0
-327 -221 337 0
-327 -222 338 0
-327 -223 339 0
-327 -224 340 0
-327 -225 341 0
-327 -226 342 0
-327 -227 343 0
-327 -228 344 0
-327 -229 345 0
-327 -230 346 0
-327 -231 347 0
-327 -232 348 0
-328 -233 320 0
-328 -234 321 0
-328 -235 322 0
-328 -236 323 0
-328 -237 324 0
-328 -238 325 0
-328 -239 326 0
-328 -240 327 0
-328 -241 329 0
-328 -242 330 0
-328 -244 331 0
-328 -245 332 0
-328 -246 333 0
-328 -247 334 0
-328 -248 335 0
-328 -249 336 0
-328 -250 337 0
-328 -251 338 0
-328 -252 339 0
-328 -253 340 0
-328 -254 341 0
-328 -255 342 0
-328 -256 343 0
-328 -257 344 0
-328 -258 345 0
-328 -259 346 0
-328 -260 347 0
-328 -261 348 0
-329 -262 320 0
-329 -263 321 0
-329 -264 322 0
-329 -265 323 0
-329 -266 324 0
-329 -267 325 0
-329 -268 326 0
-329 -269 327 0
-329 -270 328 0
-329 -271 330 0
-329 -273 331 0
-329 -274 332 0
-329 -275 333 0
-329 -276 334 0
-329 -277 335 0
-329 -278 336 0
-329 -279 337 0
-329 -280 338 0
-329 -281 339 0
-329 -282 340 0
-329 -283 341 0
-329 -284 342 0
-329 -285 343 0
-329 -286 344 0
-329 -287 345 0
-329 -288 346 0
-329 -289 347 0
-329 -290 348 0
-330 -291 320 0
-330 -292 321 0
-330 -293 322 0
-330 -294 323 0
-330 -295 324 0
-330 -296 325 0
-330 -297 326 0
-330 -298 327 0
-330 -299 328 0
-330 -300 329 0
-330 -302 331 0
-330 -303 332 0
-330 -304 333 0
-330 -305 334 0
-330 -306 335 0
-330 -307 336 0
-330 -308 337 0
-330 -309 338 0
-330 -310 339 0
-330 -311 340 0
-330 -312 341 0
-330 -313 342 0
-330 -314 343 0
-330 -315 344 0
-330 -316 345 0
-330 -317 346 0
-330 -318 347 0
-330 -319 348 0
-331 -349 320 0
-331 -350 321 0
-331 -351 322 0
-331 -352 323 0
-331 -353 324 0
-331 -354 325 0
-331 -355 326 0
-331 -356 327 0
-331 -357 328 0
-331 -358 329 0
-331 -359 330 0
-331 -361 332 0
-331 -362 333 0
-331 -363 334 0
-331 -364 335 0
-331 -365 336 0
-331 -366 337 0
-331 -367 338 0
-331 -368 339 0
-331 -369 340 0
-331 -370 341 0
-331 -371 342 0
-331 -372 343 0
-331 -373 344 0
-331 -374 345 0
-331 -375 346 0
-331 -376 347 0
-331 -377 348 0
-332 -378 320 0
-332 -379 321 0
-332 -380 322 0
-332 -381 323 0
-332 -382 324 0
-332 -383 325 0
-332 -384 326 0
-332 -385 327 0
-332 -386 328 0
-332 -387 329 0
-332 -388 330 0
-332 -390 331 0
-332 -391 333 0
-332 -392 334 0
-332 -393 335 0
-332 -394 336 0
-332 -395 337 0
-332 -396 338 0
-332 -397 339 0
-332 -398 340 0
-332 -399 341 0
-332 -400 342 0
-332 -401 343 0
-332 -402 344 0
-332 -403 345 0
-332 -404 346 0
-332 -405 347 0
-332 -406 348 0
-333 -407 320 0
-333 -408 321 0
-333 -409 322 0
-333 -410 323 0
-333 -411 324 0
-333 -412 325 0
-333 -413 326 0
-333 -414 327 0
-333 -415 328 0
-333 -416 329 0
-333 -417 330 0
-333 -419 331 0
-333 -420 332 0
-333 -421 334 0
-333 -422 335 0
-333 -423 336 0
-333 -424 337 0
-333 -425 338 0
-333 -426 339 0
-333 -427 340 0
-333 -428 341 0
-333 -429 342 0
-333 -430 343 0
-333 -431 344 0
-333 -432 345 0
-333 -433 346 0
-333 -434 347 0
-333 -435 348 0
-334 -436 320 0
-334 -437 321 0
-334 -438 322 0
-334 -439 323 0
-334 -440 324 0
-334 -441 325 0
-334 -442 326 0
-334 -443 327 0
-334 -444 328 0
-334 -445 329 0
-334 -446 330 0
-334 -448 331 0
-334 -449 332 0
-334 -450 333 0
-334 -451 335 0
-334 -452 336 0
-334 -453 337 0
-334 -454 338 0
-334 -455 339 0
-334 -456 340 0
-334 -457 341 0
-334 -458 342 0
-334 -459 343 0
-334 -460 344 0
-334 -461 345 0
-334 -462 346 0
-334 -463 347 0
-334 -464 348 0
-335 -465 320 0
-335 -466 321 0
-335 -467 322 0
-335 -468 323 0
-335 -469 324 0
-335 -470 325 0
-335 -471 326 0
-335 -472 327 0
-335 -473 328 0
-335 -474 329 0
-335 -475 330 0
-335 -477 331 0
-335 -478 332 0
-335 -479 333 0
-335 -480 334 0
-335 -481 336 0
-335 -482 337 0
-335 -483 338 0
-335 -484 339 0
-335 -485 340 0
-335 -486 341 0
-335 -487 342 0
-335 -488 343 0
-335 -489 344 0
-335 -490 345 0
-335 -491 346 0
-335 -492 347 0
-335 -493 348 0
-336 -494 320 0
-336 -495 321 0
-336 -496 322 0
-336 -497 323 0
-336 -498 324 0
-336 -499 325 0
-336 -500 326 0
-336 -501 327 0
-336 -502 328 0
-336 -503 329 0
-336 -504 330 0
-336 -506 331 0
-336 -507 332 0
-336 -508 333 0
-336 -509 334 0
-336 -510 335 0
-336 -511 337 0
-336 -512 338 0
-336 -513 339 0
-336 -514 340 0
-336 -515 341 0
-336 -516 342 0
-336 -517 343 0
-336 -518 344 0
-336 -519 345 0
-336 -520 346 0
-336 -521 347 0
-336 -522 348 0
-337 -523 320 0
-337 -524 321 0
-337 -525 322 0
-337 -526 323 0
-337 -527 324 0
-337 -528 325 0
-337 -529 326 0
-337 -530 327 0
-337 -531 328 0
-337 -532 329 0
-337 -533 330 0
-337 -535 331 0
-337 -536 332 0
-337 -537 333 0
-337 -538 334 0
-337 -539 335 0
-337 -540 336 0
-337 -541 338 0
-337 -542 339 0
-337 -543 340 0
-337 -544 341 0
-337 -545 342 0
-337 -546 343 0
-337 -547 344 0
-337 -548 345 0
-337 -549 346 0
-337 -550 347 0
-337 -551 348 0
-338 -552 320 0
-338 -553 321 0
-338 -554 322 0
-338 -555 323 0
-338 -556 324 0
-338 -557 325 0
-338 -558 326 0
-338 -559 327 0
-338 -560 328 0
-338 -561 329 0
-338 -562 330 0
-338 -564 331 0
-338 -565 332 0
-338 -566 333 0
-338 -567 334 0
-338 -568 335 0
-338 -569 336 0
-338 -570 337 0
-338 -571 339 0
-338 -572 340 0
-338 -573 341 0
-338 -574 342 0
-338 -575 343 0
-338 -576 344 0
-338 -577 345 0
-338 -578 346 0
-338 -579 347 0
-338 -580 348 0
-339 -581 320 0
-339 -582 321 0
-339 -583 322 0
-339 -584 323 0
-339 -585 324 0
-339 -586 325 0
-339 -587 326 0
-339 -588 327 0
-339 -589 328 0
-339 -590 329 0
-339 -591 330 0
-339 -593 331 0
-339 -594 332 0
-339 -595 333 0
-339 -596 334 0
-339 -597 335 0
-339 -598 336 0
-339 -599 337 0
-339 -600 338 0
-339 -601 340 0
-339 -602 341 0
-339 -603 342 0
-339 -604 343 0
-339 -605 344 0
-339 -606 345 0
-339 -607 346 0
-339 -608 347 0
-339 -609 348 0
-340 -610 320 0
-340 -611 321 0
-340 -612 322 0
-340 -613 323 0
-340 -614 324 0
-340 -615 325 0
-340 -616 326 0
-340 -617 327 0
-340 -618 328 0
-340 -619 329 0
-340 -620 330 0
-340 -622 331 0
-340 -623 332 0
-340 -624 333 0
-340 -625 334 0
-340 -626 335 0
-340 -627 336 0
-340 -628 337 0
-340 -629 338 0
-340 -630 339 0
-340 -631 341 0
-340 -632 342 0
-340 -633 343 0
-340 -634 344 0
-340 -635 345 0
-340 -636 346 0
-340 -637 347 0
-340 -638 348 0
-341 -639 320 0
-341 -640 321 0
-341 -641 322 0
-341 -642 323 0
-341 -643 324 0
-341 -644 325 0
-341 -645 326 0
-341 -646 327 0
-341 -647 328 0
-341 -648 329 0
-341 -649 330 0
-341 -651 331 0
-341 -652 332 0
-341 -653 333 0
-341 -654 334 0
-341 -655 335 0
-341 -656 336 0
-341 -657 337 0
-341 -658 338 0
-341 -659 339 0
-341 -660 340 0
-341 -661 342 0
-341 -662 343 0
-341 -663 344 0
-341 -664 345 0
-341 -665 346 0
-341 -666 347 0
-341 -667 348 0
-342 -668 320 0
-342 -669 321 0
-342 -670 322 0
-342 -671 323 0
-342 -672 324 0
-342 -673 325 0
-342 -674 326 0
-342 -675 327 0
-342 -676 328 0
-342 -677 329 0
-342 -678 330 0
-342 -680 331 0
-342 -681 332 0
-342 -682 333 0
-342 -683 334 0
-342 -684 335 0
-342 -685 336 0
-342 -686 337 0
-342 -687 338 0
-342 -688 339 0
-342 -689 340 0
-342 -690 341 0
-342 -691 343 0
-342 -692 344 0
-342 -693 345 0
-342 -694 346 0
-342 -695 347 0
-342 -696 348 0
-343 -697 320 0
-343 -698 321 0
-343 -699 322 0
-343 -700 323 0
-343 -701 324 0
-343 -702 325 0
-343 -703 326 0
-343 -704 327 0
-343 -705 328 0
-343 -706 329 0
-343 -707 330 0
-343 -709 331 0
-343 -710 332 0
-343 -711 333 0
-343 -712 334 0
-343 -713 335 0
-343 -714 336 0
-343 -715 337 0
-343 -716 338 0
-343 -717 339 0
-343 -718 340 0
-343 -719 341 0
-343 -720 342 0
-343 -721 344 0
-343 -722 345 0
-343 -723 346 0
-343 -724 347 0
-343 -725 348 0
-344 -726 320 0
-344 -727 321 0
-344 -728 322 0
-344 -729 323 0
-344 -730 324 0
-344 -731 325 0
-344 -732 326 0
-344 -733 327 0
-344 -734 328 0
-344 -735 329 0
-344 -736 330 0
-344 -738 331 0
-344 -739 332 0
-344 -740 333 0
-344 -741 334 0
-344 -742 335 0
-344 -743 336 0
-344 -744 337 0
-344 -745 338 0
-344 -746 339 0
-344 -747 340 0
-344 -748 341 0
-344 -749 342 0
-344 -750 343 0
-344 -751 345 0
-344 -752 346 0
-344 -753 347 0
-344 -754 348 0
-345 -755 320 0
-345 -756 321 0
-345 -757 322 0
-345 -758 323 0
-345 -759 324 0
-345 -760 325 0
-345 -761 326 0
-345 -762 327 0
-345 -763 328 0
-345 -764 329 0
-345 -765 330 0
-345 -767 331 0
-345 -768 332 0
-345 -769 333 0
-345 -770 334 0
-345 -771 335 0
-345 -772 336 0
-345 -773 337 0
-345 -774 338 0
-345 -775 339 0
-345 -776 340 0
-345 -777 341 0
-345 -778 342 0
-345 -779 343 0
-345 -780 344 0
-345 -781 346 0
-345 -782 347 0
-345 -783 348 0
-346 -784 320 0
-346 -785 321 0
-346 -786 322 0
-346 -787 323 0
-346 -788 324 0
-346 -789 325 0
-346 -790 326 0
-346 -791 327 0
-346 -792 328 0
-346 -793 329 0
-346 -794 330 0
-346 -796 331 0
-346 -797 332 0
-346 -798 333 0
-346 -799 334 0
-346 -800 335 0
-346 -801 336 0
-346 -802 337 0
-346 -803 338 0
-346 -804 339 0
-346 -805 340 0
-346 -806 341 0
-346 -807 342 0
-346 -808 343 0
-346 -809 344 0
-346 -810 345 0
-346 -811 347 0
-346 -812 348 0
-347 -813 320 0
-347 -814 321 0
-347 -815 322 0
-347 -816 323 0
-347 -817 324 0
-347 -818 325 0
-347 -819 326 0
-347 -820 327 0
-347 -821 328 0
-347 -822 329 0
-347 -823 330 0
-347 -825 331 0
-347 -826 332 0
-347 -827 333 0
-347 -828 334 0
-347 -829 335 0
-347 -830 336 0
-347 -831 337 0
-347 -832 338 0
-347 -833 339 0
-347 -834 340 0
-347 -835 341 0
-347 -836 342 0
-347 -837 343 0
-347 -838 344 0
-347 -839 345 0
-347 -840 346 0
-347 -841 348 0
-348 -842 320 0
-348 -843 321 0
-348 -844 322 0
-348 -845 323 0
-348 -846 324 0
-348 -847 325 0
-348 -848 326 0
-348 -849 327 0
-348 -850 328 0
-348 -851 329 0
-348 -852 330 0
-348 -854 331 0
-348 -855 332 0
-348 -856 333 0
-348 -857 334 0
-348 -858 335 0
-348 -859 336 0
-348 -860 337 0
-348 -861 338 0
-348 -862 339 0
-348 -863 340 0
-348 -864 341 0
-348 -865 342 0
-348 -866 343 0
-348 -867 344 0
-348 -868 345 0
-348 -869 346 0
-348 -870 347 0
-349 -1 350 0
-349 -2 351 0
-349 -3 352 0
-349 -4 353 0
-349 -5 354 0
-349 -6 355 0
-349 -7 356 0
-349 -8 357 0
-349 -9 358 0
-349 -10 359 0
-349 -11 360 0
-349 -13 361 0
-349 -14 362 0
-349 -15 363 0
-349 -16 364 0
-349 -17 365 0
-349 -18 366 0
-349 -19 367 0
-349 -20 368 0
-349 -21 369 0
-349 -22 370 0
-349 -23 371 0
-349 -24 372 0
-349 -25 373 0
-349 -26 374 0
-349 -27 375 0
-349 -28 376 0
-349 -29 377 0
-350 -30 349 0
-350 -31 351 0
-350 -32 352 0
-350 -33 353 0
-350 -34 354 0
-350 -35 355 0
-350 -36 356 0
-350 -37 357 0
-350 -38 358 0
-350 -39 359 0
-350 -40 360 0
-350 -42 361 0
-350 -43 362 0
-350 -44 363 0
-350 -45 364 0
-350 -46 365 0
-350 -47 366 0
-350 -48 367 0
-350 -49 368 0
-350 -50 369 0
-350 -51 370 0
-350 -52 371 0
-350 -53 372 0
-350 -54 373 0
-350 -55 374 0
-350 -56 375 0
-350 -57 376 0
-350 -58 377 0
-351 -59 349 0
-351 -60 350 0
-351 -61 352 0
-351 -62 353 0
-351 -63 354 0
-351 -64 355 0
-351 -65 356 0
-351 -66 357 0
-351 -67 358 0
-351 -68 359 0
-351 -69 360 0
-351 -71 361 0
-351 -72 362 0
-351 -73 363 0
-351 -74 364 0
-351 -75 365 0
-351 -76 366 0
-351 -77 367 0
-351 -78 368 0
-351 -79 369 0
-351 -80 370 0
-351 -81 371 0
-351 -82 372 0
-351 -83 373 0
-351 -84 374 0
-351 -85 375 0
-351 -86 376 0
-351 -87 377 0
-352 -88 349 0
-352 -89 350 0
-352 -90 351 0
-352 -91 353 0
-352 -92 354 0
-352 -93 355 0
-352 -94 356 0
-352 -95 357 0
-352 -96 358 0
-352 -97 359 0
-352 -98 360 0
-352 -100 361 0
-352 -101 362 0
-352 -102 363 0
-352 -103 364 0
-352 -104 365 0
-352 -105 366 0
-352 -106 367 0
-352 -107 368 0
-352 -108 369 0
-352 -109 370 0
-352 -110 371 0
-352 -111 372 0
-352 -112 373 0
-352 -113 374 0
-352 -114 375 0
-352 -115 376 0
-352 -116 377 0
-353 -117 349 0
-353 -118 350 0
-353 -119 351 0
-353 -120 352 0
-353 -121 354 0
-353 -122 355 0
-353 -123 356 0
-353 -124 357 0
-353 -125 358 0
-353 -126 359 0
-353 -127 360 0
-353 -129 361 0
-353 -130 362 0
-353 -131 363 0
-353 -132 364 0
-353 -133 365 0
-353 -134 366 0
-353 -135 367 0
-353 -136 368 0
-353 -137 369 0
-353 -138 370 0
-353 -139 371 0
-353 -140 372 0
-353 -141 373 0
-353 -142 374 0
-353 -143 375 0
-353 -144 376 0
-353 -145 377 0
-354 -146 349 0
-354 -147 350 0
-354 -148 351 0
-354 -149 352 0
-354 -150 353 0
-354 -151 355 0
-354 -152 356 0
-354 -153 357 0
-354 -154 358 0
-354 -155 359 0
-354 -156 360 0
-354 -158 361 0
-354 -159 362 0
-354 -160 363 0
-354 -161 364 0
-354 -162 365 0
-354 -163 366 0
-354 -164 367 0
-354 -165 368 0
-354 -166 369 0
-354 -167 370 0
-354 -168 371 0
-354 -169 372 0
-354 -170 373 0
-354 -171 374 0
-354 -172 375 0
-354 -173 376 0
-354 -174 377 0
-355 -175 349 0
-355 -176 350 0
-355 -177 351 0
-355 -178 352 0
-355 -179 353 0
-355 -180 354 0
-355 -181 356 0
-355 -182 357 0
-355 -183 358 0
-355 -184 359 0
-355 -185 360 0
-355 -187 361 0
-355 -188 362 0
-355 -189 363 0
-355 -190 364 0
-355 -191 365 0
-355 -192 366 0
-355 -193 367 0
-355 -194 368 0
-355 -195 369 0
-355 -196 370 0
-355 -197 371 0
-355 -198 372 0
-355 -199 373 0
-355 -200 374 0
-355 -201 375 0
-355 -202 376 0
-355 -203 377 0
-356 -204 349 0
-356 -205 350 0
-356 -206 351 0
-356 -207 352 0
-356 -208 353 0
-356 -209 354 0
-356 -210 355 0
-356 -211 357 0
-356 -212 358 0
-356 -213 359 0
-356 -214 360 0
-356 -216 361 0
-356 -217 362 0
-356 -218 363 0
-356 -219 364 0
-356 -220 365 0
-356 -221 366 0
-356 -222 367 0
-356 -223 368 0
-356 -224 369 0
-356 -225 370 0
-356 -226 371 0
-356 -227 372 0
-356 -228 373 0
-356 -229 374 0
-356 -230 375 0
-356 -231 376 0
-356 -232 377 0
-357 -233 349 0
-357 -234 350 0
-357 -235 351 0
-357 -236 352 0
-357 -237 353 0
-357 -238 354 0
-357 -239 355 0
-357 -240 356 0
-357 -241 358 0
-357 -242 359 0
-357 -243 360 0
-357 -245 361 0
-357 -246 362 0
-357 -247 363 0
-357 -248 364 0
-357 -249 365 0
-357 -250 366 0
-357 -251 367 0
-357 -252 368 0
-357 -253 369 0
-357 -254 370 0
-357 -255 371 0
-357 -256 372 0
-357 -257 373 0
-357 -258 374 0
-357 -259 375 0
-357 -260 376 0
-357 -261 377 0
-358 -262 349 0
-358 -263 350 0
-358 -264 351 0
-358 -265 352 0
-358 -266 353 0
-358 -267 354 0
-358 -268 355 0
-358 -269 356 0
-358 -270 357 0
-358 -271 359 0
-358 -272 360 0
-358 -274 361 0
-358 -275 362 0
-358 -276 363 0
-358 -277 364 0
-358 -278 365 0
-358 -279 366 0
-358 -280 367 0
-358 -281 368 0
-358 -282 369 0
-358 -283 370 0
-358 -284 371 0
-358 -285 372 0
-358 -286 373 0
-358 -287 374 0
-358 -288 375 0
-358 -289 376 0
-358 -290 377 0
-359 -291 349 0
-359 -292 350 0
-359 -293 351 0
-359 -294 352 0
-359 -295 353 0
-359 -296 354 0
-359 -297 355 0
-359 -298 356 0
-359 -299 357 0
-359 -300 358 0
-359 -301 360 0
-359 -303 361 0
-359 -304 362 0
-359 -305 363 0
-359 -306 364 0
-359 -307 365 0
-359 -308 366 0
-359 -309 367 0
-359 -310 368 0
-359 -311 369 0
-359 -312 370 0
-359 -313 371 0
-359 -314 372 0
-359 -315 373 0
-359 -316 374 0
-359 -317 375 0
-359 -318 376 0
-359 -319 377 0
-360 -320 349 0
-360 -321 350 0
-360 -322 351 0
-360 -323 352 0
-360 -324 353 0
-360 -325 354 0
-360 -326 355 0
-360 -327 356 0
-360 -328 357 0
-360 -329 358 0
-360 -330 359 0
-360 -332 361 0
-360 -333 362 0
-360 -334 363 0
-360 -335 364 0
-360 -336 365 0
-360 -337 366 0
-360 -338 367 0
-360 -339 368 0
-360 -340 369 0
-360 -341 370 0
-360 -342 371 0
-360 -343 372 0
-360 -344 373 0
-360 -345 374 0
-360 -346 375 0
-360 -347 376 0
-360 -348 377 0
-361 -378 349 0
-361 -379 350 0
-361 -380 351 0
-361 -381 352 0
-361 -382 353 0
-361 -383 354 0
-361 -384 355 0
-361 -385 356 0
-361 -386 357 0
-361 -387 358 0
-361 -388 359 0
-361 -389 360 0
-361 -391 362 0
-361 -392 363 0
-361 -393 364 0
-361 -394 365 0
-361 -395 366 0
-361 -396 367 0
-361 -397 368 0
-361 -398 369 0
-361 -399 370 0
-361 -400 371 0
-361 -401 372 0
-361 -402 373 0
-361 -403 374 0
-361 -404 375 0
-361 -405 376 0
-361 -406 377 0
-362 -407 349 0
-362 -408 350 0
-362 -409 351 0
-362 -410 352 0
-362 -411 353 0
-362 -412 354 0
-362 -413 355 0
-362 -414 356 0
-362 -415 357 0
-362 -416 358 0
-362 -417 359 0
-362 -418 360 0
-362 -420 361 0
-362 -421 363 0
-362 -422 364 0
-362 -423 365 0
-362 -424 366 0
-362 -425 367 0
-362 -426 368 0
-362 -427 369 0
-362 -428 370 0
-362 -429 371 0
-362 -430 372 0
-362 -431 373 0
-362 -432 374 0
-362 -433 375 0
-362 -434 376 0
-362 -435 377 0
-363 -436 349 0
-363 -437 350 0
-363 -438 351 0
-363 -439 352 0
-363 -440 353 0
-363 -441 354 0
-363 -442 355 0
-363 -443 356 0
-363 -444 357 0
-363 -445 358 0
-363 -446 359 0
-363 -447 360 0
-363 -449 361 0
-363 -450 362 0
-363 -451 364 0
-363 -452 365 0
-363 -453 366 0
-363 -454 367 0
-363 -455 368 0
-363 -456 369 0
-363 -457 370 0
-363 -458 371 0
-363 -459 372 0
-363 -460 373 0
-363 -461 374 0
-363 -462 375 0
-363 -463 376 0
-363 -464 377 0
-364 -465 349 0
-364 -466 350 0
-364 -467 351 0
-364 -468 352 0
-364 -469 353 0
-364 -470 354 0
-364 -471 355 0
-364 -472 356 0
-364 -473 357 0
-364 -474 358 0
-364 -475 359 0
-364 -476 360 0
-364 -478 361 0
-364 -479 362 0
-364 -480 363 0
-364 -481 365 0
-364 -482 366 0
-364 -483 367 0
-364 -484 368 0
-364 -485 369 0
-364 -486 370 0
-364 -487 371 0
-364 -488 372 0
-364 -489 373 0
-364 -490 374 0
-364 -491 375 0
-364 -492 376 0
-364 -493 377 0
-365 -494 349 0
-365 -495 350 0
-365 -496 351 0
-365 -497 352 0
-365 -498 353 0
-365 -499 354 0
-365 -500 355 0
-365 -501 356 0
-365 -502 357 0
-365 -503 358 0
-365 -504 359 0
-365 -505 360 0
-365 -507 361 0
-365 -508 362 0
-365 -509 363 0
-365 -510 364 0
-365 -511 366 0
-365 -512 367 0
-365 -513 368 0
-365 -514 369 0
-365 -515 370 0
-365 -516 371 0
-365 -517 372 0
-365 -518 373 0
-365 -519 374 0
-365 -520 375 0
-365 -521 376 0
-365 -522 377 0
-366 -523 349 0
-366 -524 350 0
-366 -525 351 0
-366 -526 352 0
-366 -527 353 0
-366 -528 354 0
-366 -529 355 0
-366 -530 356 0
-366 -531 357 0
-366 -532 358 0
-366 -533 359 0
-366 -534 360 0
-366 -536 361 0
-366 -537 362 0
-366 -538 363 0
-366 -539 364 0
-366 -540 365 0
-366 -541 367 0
-366 -542 368 0
-366 -543 369 0
-366 -544 370 0
-366 -545 371 0
-366 -546 372 0
-366 -547 373 0
-366 -548 374 0
-366 -549 375 0
-366 -550 376 0
-366 -551 377 0
-367 -552 349 0
-367 -553 350 0
-367 -554 351 0
-367 -555 352 0
-367 -556 353 0
-367 -557 354 0
-367 -558 355 0
-367 -559 356 0
-367 -560 357 0
-367 -561 358 0
-367 -562 359 0
-367 -563 360 0
-367 -565 361 0
-367 -566 362 0
-367 -567 363 0
-367 -568 364 0
-367 -569 365 0
-367 -570 366 0
-367 -571 368 0
-367 -572 369 0
-367 -573 370 0
-367 -574 371 0
-367 -575 372 0
-367 -576 373 0
-367 -577 374 0
-367 -578 375 0
-367 -579 376 0
-367 -580 377 0
-368 -581 349 0
-368 -582 350 0
-368 -583 351 0
-368 -584 352 0
-368 -585 353 0
-368 -586 354 0
-368 -587 355 0
-368 -588 356 0
-368 -589 357 0
-368 -590 358 0
-368 -591 359 0
-368 -592 360 0
-368 -594 361 0
-368 -595 362 0
-368 -596 363 0
-368 -597 364 0
-368 -598 365 0
-368 -599 366 0
-368 -600 367 0
-368 -601 369 0
-368 -602 370 0
-368 -603 371 0
-368 -604 372 0
-368 -605 373 0
-368 -606 374 0
-368 -607 375 0
-368 -608 376 0
-368 -609 377 0
-369 -610 349 0
-369 -611 350 0
-369 -612 351 0
-369 -613 352 0
-369 -614 353 0
-369 -615 354 0
-369 -616 355 0
-369 -617 356 0
-369 -618 357 0
-369 -619 358 0
-369 -620 359 0
-369 -621 360 0
-369 -623 361 0
-369 -624 362 0
-369 -625 363 0
-369 -626 364 0
-369 -627 365 0
-369 -628 366 0
-369 -629 367 0
-369 -630 368 0
-369 -631 370 0
-369 -632 371 0
-369 -633 372 0
-369 -634 373 0
-369 -635 374 0
-369 -636 375 0
-369 -637 376 0
-369 -638 377 0
-370 -639 349 0
-370 -640 350 0
-370 -641 351 0
-370 -642 352 0
-370 -643 353 0
-370 -644 354 0
-370 -645 355 0
-370 -646 356 0
-370 -647 357 0
-370 -648 358 0
-370 -649 359 0
-370 -650 360 0
-370 -652 361 0
-370 -653 362 0
-370 -654 363 0
-370 -655 364 0
-370 -656 365 0
-370 -657 366 0
-370 -658 367 0
-370 -659 368 0
-370 -660 369 0
-370 -661 371 0
-370 -662 372 0
-370 -663 373 0
-370 -664 374 0
-370 -665 375 0
-370 -666 376 0
-370 -667 377 0
-371 -668 349 0
-371 -669 350 0
-371 -670 351 0
-371 -671 352 0
-371 -672 353 0
-371 -673 354 0
-371 -674 355 0
-371 -675 356 0
-371 -676 357 0
-371 -677 358 0
-371 -678 359 0
-371 -679 360 0
-371 -681 361 0
-371 -682 362 0
-371 -683 363 0
-371 -684 364 0
-371 -685 365 0
-371 -686 366 0
-371 -687 367 0
-371 -688 368 0
-371 -689 369 0
-371 -690 370 0
-371 -691 372 0
-371 -692 373 0
-371 -693 374 0
-371 -694 375 0
-371 -695 376 0
-371 -696 377 0
-372 -697 349 0
-372 -698 350 0
-372 -699 351 0
-372 -700 352 0
-372 -701 353 0
-372 -702 354 0
-372 -703 355 0
-372 -704 356 0
-372 -705 357 0
-372 -706 358 0
-372 -707 359 0
-372 -708 360 0
-372 -710 361 0
-372 -711 362 0
-372 -712 363 0
-372 -713 364 0
-372 -714 365 0
-372 -715 366 0
-372 -716 367 0
-372 -717 368 0
-372 -718 369 0
-372 -719 370 0
-372 -720 371 0
-372 -721 373 0
-372 -722 374 0
-372 -723 375 0
-372 -724 376 0
-372 -725 377 0
-373 -726 349 0
-373 -727 350 0
-373 -728 351 0
-373 -729 352 0
-373 -730 353 0
-373 -731 354 0
-373 -732 355 0
-373 -733 356 0
-373 -734 357 0
-373 -735 358 0
-373 -736 359 0
-373 -737 360 0
-373 -739 361 0
-373 -740 362 0
-373 -741 363 0
-373 -742 364 0
-373 -743 365 0
-373 -744 366 0
-373 -745 367 0
-373 -746 368 0
-373 -747 369 0
-373 -748 370 0
-373 -749 371 0
-373 -750 372 0
-373 -751 374 0
-373 -752 375 0
-373 -753 376 0
-373 -754 377 0
-374 -755 349 0
-374 -756 350 0
-374 -757 351 0
-374 -758 352 0
-374 -759 353 0
-374 -760 354 0
-374 -761 355 0
-374 -762 356 0
-374 -763 357 0
-374 -764 358 0
-374 -765 359 0
-374 -766 360 0
-374 -768 361 0
-374 -769 362 0
-374 -770 363 0
-374 -771 364 0
-374 -772 365 0
-374 -773 366 0
-374 -774 367 0
-374 -775 368 0
-374 -776 369 0
-374 -777 370 0
-374 -778 371 0
-374 -779 372 0
-374 -780 373 0
-374 -781 375 0
-374 -782 376 0
-374 -783 377 0
-375 -784 349 0
-375 -785 350 0
-375 -786 351 0
-375 -787 352 0
-375 -788 353 0
-375 -789 354 0
-375 -790 355 0
-375 -791 356 0
-375 -792 357 0
-375 -793 358 0
-375 -794 359 0
-375 -795 360 0
-375 -797 361 0
-375 -798 362 0
-375 -799 363 0
-375 -800 364 0
-375 -801 365 0
-375 -802 366 0
-375 -803 367 0
-375 -804 368 0
-375 -805 369 0
-375 -806 370 0
-375 -807 371 0
-375 -808 372 0
-375 -809 373 0
-375 -810 374 0
-375 -811 376 0
-375 -812 377 0
-376 -813 349 0
-376 -814 350 0
-376 -815 351 0
-376 -816 352 0
-376 -817 353 0
-376 -818 354 0
-376 -819 355 0
-376 -820 356 0
-376 -821 357 0
-376 -822 358 0
-376 -823 359 0
-376 -824 360 0
-376 -826 361 0
-376 -827 362 0
-376 -828 363 0
-376 -829 364 0
-376 -830 365 0
-376 -831 366 0
-376 -832 367 0
-376 -833 368 0
-376 -834 369 0
-376 -835 370 0
-376 -836 371 0
-376 -837 372 0
-376 -838 373 0
-376 -839 374 0
-376 -840 375 0
-376 -841 377 0
-377 -842 349 0
-377 -843 350 0
-377 -844 351 0
-377 -845 352 0
-377 -846 353 0
-377 -847 354 0
-377 -848 355 0
-377 -849 356 0
-377 -850 357 0
-377 -851 358 0
-377 -852 359 0
-377 -853 360 0
-377 -855 361 0
-377 -856 362 0
-377 -857 363 0
-377 -858 364 0
-377 -859 365 0
-377 -860 366 0
-377 -861 367 0
-377 -862 368 0
-377 -863 369 0
-377 -864 370 0
-377 -865 371 0
-377 -866 372 0
-377 -867 373 0
-377 -868 374 0
-377 -869 375 0
-377 -870 376 0
-378 -1 379 0
-378 -2 380 0
-378 -3 381 0
-378 -4 382 0
-378 -5 383 0
-378 -6 384 0
-378 -7 385 0
-378 -8 386 0
-378 -9 387 0
-378 -10 388 0
-378 -11 389 0
-378 -12 390 0
-378 -14 391 0
-378 -15 392 0
-378 -16 393 0
-378 -17 394 0
-378 -18 395 0
-378 -19 396 0
-378 -20 397 0
-378 -21 398 0
-378 -22 399 0
-378 -23 400 0
-378 -24 401 0
-378 -25 402 0
-378 -26 403 0
-378 -27 404 0
-378 -28 405 0
-378 -29 406 0
-379 -30 378 0
-379 -31 380 0
-379 -32 381 0
-379 -33 382 0
-379 -34 383 0
-379 -35 384 0
-379 -36 385 0
-379 -37 386 0
-379 -38 387 0
-379 -39 388 0
-379 -40 389 0
-379 -41 390 0
-379 -43 391 0
-379 -44 392 0
-379 -45 393 0
-379 -46 394 0
-379 -47 395 0
-379 -48 396 0
-379 -49 397 0
-379 -50 398 0
-379 -51 399 0
-379 -52 400 0
-379 -53 401 0
-379 -54 402 0
-379 -55 403 0
-379 -56 404 0
-379 -57 405 0
-379 -58 406 0
-380 -59 378 0
-380 -60 379 0
-380 -61 381 0
-380 -62 382 0
-380 -63 383 0
-380 -64 384 0
-380 -65 385 0
-380 -66 386 0
-380 -67 387 0
-380 -68 388 0
-380 -69 389 0
-380 -70 390 0
-380 -72 391 0
-380 -73 392 0
-380 -74 393 0
-380 -75 394 0
-380 -76 395 0
-380 -77 396 0
-380 -78 397 0
-380 -79 398 0
-380 -80 399 0
-380 -81 400 0
-380 -82 401 0
-380 -83 402 0
-380 -84 403 0
-380 -85 404 0
-380 -86 405 0
-380 -87 406 0
-381 -88 378 0
-381 -89 379 0
-381 -90 380 0
-381 -91 382 0
-381 -92 383 0
-381 -93 384 0
-381 -94 385 0
-381 -95 386 0
-381 -96 387 0
-381 -97 388 0
-381 -98 389 0
-381 -99 390 0
-381 -101 391 0
-381 -102 392 0
-381 -103 393 0
-381 -104 394 0
-381 -105 395 0
-381 -106 396 0
-381 -107 397 0
-381 -108 398 0
-381 -109 399 0
-381 -110 400 0
-381 -111 401 0
-381 -112 402 0
-381 -113 403 0
-381 -114 404 0
-381 -115 405 0
-381 -116 406 0
-382 -117 378 0
-382 -118 379 0
-382 -119 380 0
-382 -120 381 0
-382 -121 383 0
-382 -122 384 0
-382 -123 385 0
-382 -124 386 0
-382 -125 387 0
-382 -126 388 0
-382 -127 389 0
-382 -128 390 0
-382 -130 391 0
-382 -131 392 0
-382 -132 393 0
-382 -133 394 0
-382 -134 395 0
-382 -135 396 0
-382 -136 397 0
-382 -137 398 0
-382 -138 399 0
-382 -139 400 0
-382 -140 401 0
-382 -141 402 0
-382 -142 403 0
-382 -143 404 0
-382 -144 405 0
-382 -145 406 0
-383 -146 378 0
-383 -147 379 0
-383 -148 380 0
-383 -149 381 0
-383 -150 382 0
-383 -151 384 0
-383 -152 385 0
-383 -153 386 0
-383 -154 387 0
-383 -155 388 0
-383 -156 389 0
-383 -157 390 0
-383 -159 391 0
-383 -160 392 0
-383 -161 393 0
-383 -162 394 0
-383 -163 395 0
-383 -164 396 0
-383 -165 397 0
-383 -166 398 0
-383 -167 399 0
-383 -168 400 0
-383 -169 401 0
-383 -170 402 0
-383 -171 403 0
-383 -172 404 0
-383 -173 405 0
-383 -174 406 0
-384 -175 378 0
-384 -176 379 0
-384 -177 380 0
-384 -178 381 0
-384 -179 382 0
-384 -180 383 0
-384 -181 385 0
-384 -182 386 0
-384 -183 387 0
-384 -184 388 0
-384 -185 389 0
-384 -186 390 0
-384 -188 391 0
-384 -189 392 0
-384 -190 393 0
-384 -191 394 0
-384 -192 395 0
-384 -193 396 0
-384 -194 397 0
-384 -195 398 0
-384 -196 399 0
-384 -197 400 0
-384 -198 401 0
-384 -199 402 0
-384 -200 403 0
-384 -201 404 0
-384 -202 405 0
-384 -203 406 0
-385 -204 378 0
-385 -205 379 0
-385 -206 380 0
-385 -207 381 0
-385 -208 382 0
-385 -209 383 0
-385 -210 384 0
-385 -211 386 0
-385 -212 387 0
-385 -213 388 0
-385 -214 389 0
-385 -215 390 0
-385 -217 391 0
-385 -218 392 0
-385 -219 393 0
-385 -220 394 0
-385 -221 395 0
-385 -222 396 0
-385 -223 397 0
-385 -224 398 0
-385 -225 399 0
-385 -226 400 0
-385 -227 401 0
-385 -228 402 0
-385 -229 403 0
-385 -230 404 0
-385 -231 405 0
-385 -232 406 0
-386 -233 378 0
-386 -234 379 0
-386 -235 380 0
-386 -236 381 0
-386 -237 382 0
-386 -238 383 0
-386 -239 384 0
-386 -240 385 0
-386 -241 387 0
-386 -242 388 0
-386 -243 389 0
-386 -244 390 0
-386 -246 391 0
-386 -247 392 0
-386 -248 393 0
-386 -249 394 0
-386 -250 395 0
-386 -251 396 0
-386 -252 397 0
-386 -253 398 0
-386 -254 399 0
-386 -255 400 0
-386 -256 401 0
-386 -257 402 0
-386 -258 403 0
-386 -259 404 0
-386 -260 405 0
-386 -261 406 0
-387 -262 378 0
-387 -263 379 0
-387 -264 380 0
-387 -265 381 0
-387 -266 382 0
-387 -267 383 0
-387 -268 384 0
-387 -269 385 0
-387 -270 386 0
-387 -271 388 0
-387 -272 389 0
-387 -273 390 0
-387 -275 391 0
-387 -276 392 0
-387 -277 393 0
-387 -278 394 0
-387 -279 395 0
-387 -280 396 0
-387 -281 397 0
-387 -282 398 0
-387 -283 399 0
-387 -284 400 0
-387 -285 401 0
-387 -286 402 0
-387 -287 403 0
-387 -288 404 0
-387 -289 405 0
-387 -290 406 0
-388 -291 378 0
-388 -292 379 0
-388 -293 380 0
-388 -294 381 0
-388 -295 382 0
-388 -296 383 0
-388 -297 384 0
-388 -298 385 0
-388 -299 386 0
-388 -300 387 0
-388 -301 389 0
-388 -302 390 0
-388 -304 391 0
-388 -305 392 0
-388 -306 393 0
-388 -307 394 0
-388 -308 395 0
-388 -309 396 0
-388 -310 397 0
-388 -311 398 0
-388 -312 399 0
-388 -313 400 0
-388 -314 401 0
-388 -315 402 0
-388 -316 403 0
-388 -317 404 0
-388 -318 405 0
-388 -319 406 0
-389 -320 378 0
-389 -321 379 0
-389 -322 380 0
-389 -323 381 0
-389 -324 382 0
-389 -325 383 0
-389 -326 384 0
-389 -327 385 0
-389 -328 386 0
-389 -329 387 0
-389 -330 388 0
-389 -331 390 0
-389 -333 391 0
-389 -334 392 0
-389 -335 393 0
-389 -336 394 0
-389 -337 395 0
-389 -338 396 0
-389 -339 397 0
-389 -340 398 0
-389 -341 399 0
-389 -342 400 0
-389 -343 401 0
-389 -344 402 0
-389 -345 403 0
-389 -346 404 0
-389 -347 405 0
-389 -348 406 0
-390 -349 378 0
-390 -350 379 0
-390 -351 380 0
-390 -352 381 0
-390 -353 382 0
-390 -354 383 0
-390 -355 384 0
-390 -356 385 0
-390 -357 386 0
-390 -358 387 0
-390 -359 388 0
-390 -360 389 0
-390 -362 391 0
-390 -363 392 0
-390 -364 393 0
-390 -365 394 0
-390 -366 395 0
-390 -367 396 0
-390 -368 397 0
-390 -369 398 0
-390 -370 399 0
-390 -371 400 0
-390 -372 401 0
-390 -373 402 0
-390 -374 403 0
-390 -375 404 0
-390 -376 405 0
-390 -377 406 0
-391 -407 378 0
-391 -408 379 0
-391 -409 380 0
-391 -410 381 0
-391 -411 382 0
-391 -412 383 0
-391 -413 384 0
-391 -414 385 0
-391 -415 386 0
-391 -416 387 0
-391 -417 388 0
-391 -418 389 0
-391 -419 390 0
-391 -421 392 0
-391 -422 393 0
-391 -423 394 0
-391 -424 395 0
-391 -425 396 0
-391 -426 397 0
-391 -427 398 0
-391 -428 399 0
-391 -429 400 0
-391 -430 401 0
-391 -431 402 0
-391 -432 403 0
-391 -433 404 0
-391 -434 405 0
-391 -435 406 0
-392 -436 378 0
-392 -437 379 0
-392 -438 380 0
-392 -439 381 0
-392 -440 382 0
-392 -441 383 0
-392 -442 384 0
-392 -443 385 0
-392 -444 386 0
-392 -445 387 0
-392 -446 388 0
-392 -447 389 0
-392 -448 390 0
-392 -450 391 0
-392 -451 393 0
-392 -452 394 0
-392 -453 395 0
-392 -454 396 0
-392 -455 397 0
-392 -456 398 0
-392 -457 399 0
-392 -458 400 0
-392 -459 401 0
-392 -460 402 0
-392 -461 403 0
-392 -462 404 0
-392 -463 405 0
-392 -464 406 0
-393 -465 378 0
-393 -466 379 0
-393 -467 380 0
-393 -468 381 0
-393 -469 382 0
-393 -470 383 0
-393 -471 384 0
-393 -472 385 0
-393 -473 386 0
-393 -474 387 0
-393 -475 388 0
-393 -476 389 0
-393 -477 390 0
-393 -479 391 0
-393 -480 392 0
-393 -481 394 0
-393 -482 395 0
-393 -483 396 0
-393 -484 397 0
-393 -485 398 0
-393 -486 399 0
-393 -487 400 0
-393 -488 401 0
-393 -489 402 0
-393 -490 403 0
-393 -491 404 0
-393 -492 405 0
-393 -493 406 0
-394 -494 378 0
-394 -495 379 0
-394 -496 380 0
-394 -497 381 0
-394 -498 382 0
-394 -499 383 0
-394 -500 384 0
-394 -501 385 0
-394 -502 386 0
-394 -503 387 0
-394 -504 388 0
-394 -505 389 0
-394 -506 390 0
-394 -508 391 0
-394 -509 392 0
-394 -510 393 0
-394 -511 395 0
-394 -512 396 0
-394 -513 397 0
-394 -514 398 0
-394 -515 399 0
-394 -516 400 0
-394 -517 401 0
-394 -518 402 0
-394 -519 403 0
-394 -520 404 0
-394 -521 405 0
-394 -522 406 0
-395 -523 378 0
-395 -524 379 0
-395 -525 380 0
-395 -526 381 0
-395 -527 382 0
-395 -528 383 0
-395 -529 384 0
-395 -530 385 0
-395 -531 386 0
-395 -532 387 0
-395 -533 388 0
-395 -534 389 0
-395 -535 390 0
-395 -537 391 0
-395 -538 392 0
-395 -539 393 0
-395 -540 394 0
-395 -541 396 0
-395 -542 397 0
-395 -543 398 0
-395 -544 399 0
-395 -545 400 0
-395 -546 401 0
-395 -547 402 0
-395 -548 403 0
-395 -549 404 0
-395 -550 405 0
-395 -551 406 0
-396 -552 378 0
-396 -553 379 0
-396 -554 380 0
-396 -555 381 0
-396 -556 382 0
-396 -557 383 0
-396 -558 384 0
-396 -559 385 0
-396 -560 386 0
-396 -561 387 0
-396 -562 388 0
-396 -563 389 0
-396 -564 390 0
-396 -566 391 0
-396 -567 392 0
-396 -568 393 0
-396 -569 394 0
-396 -570 395 0
-396 -571 397 0
-396 -572 398 0
-396 -573 399 0
-396 -574 400 0
-396 -575 401 0
-396 -576 402 0
-396 -577 403 0
-396 -578 404 0
-396 -579 405 0
-396 -580 406 0
-397 -581 378 0
-397 -582 379 0
-397 -583 380 0
-397 -584 381 0
-397 -585 382 0
-397 -586 383 0
-397 -587 384 0
-397 -588 385 0
-397 -589 386 0
-397 -590 387 0
-397 -591 388 0
-397 -592 389 0
-397 -593 390 0
-397 -595 391 0
-397 -596 392 0
-397 -597 393 0
-397 -598 394 0
-397 -599 395 0
-397 -600 396 0
-397 -601 398 0
-397 -602 399 0
-397 -603 400 0
-397 -604 401 0
-397 -605 402 0
-397 -606 403 0
-397 -607 404 0
-397 -608 405 0
-397 -609 406 0
-398 -610 378 0
-398 -611 379 0
-398 -612 380 0
-398 -613 381 0
-398 -614 382 0
-398 -615 383 0
-398 -616 384 0
-398 -617 385 0
-398 -618 386 0
-398 -619 387 0
-398 -620 388 0
-398 -621 389 0
-398 -622 390 0
-398 -624 391 0
-398 -625 392 0
-398 -626 393 0
-398 -627 394 0
-398 -628 395 0
-398 -629 396 0
-398 -630 397 0
-398 -631 399 0
-398 -632 400 0
-398 -633 401 0
-398 -634 402 0
-398 -635 403 0
-398 -636 404 0
-398 -637 405 0
-398 -638 406 0
-399 -639 378 0
-399 -640 379 0
-399 -641 380 0
-399 -642 381 0
-399 -643 382 0
-399 -644 383 0
-399 -645 384 0
-399 -646 385 0
-399 -647 386 0
-399 -648 387 0
-399 -649 388 0
-399 -650 389 0
-399 -651 390 0
-399 -653 391 0
-399 -654 392 0
-399 -655 393 0
-399 -656 394 0
-399 -657 395 0
-399 -658 396 0
-399 -659 397 0
-399 -660 398 0
-399 -661 400 0
-399 -662 401 0
-399 -663 402 0
-399 -664 403 0
-399 -665 404 0
-399 -666 405 0
-399 -667 406 0
-400 -668 378 0
-400 -669 379 0
-400 -670 380 0
-400 -671 381 0
-400 -672 382 0
-400 -673 383 0
-400 -674 384 0
-400 -675 385 0
-400 -676 386 0
-400 -677 387 0
-400 -678 388 0
-400 -679 389 0
-400 -680 390 0
-400 -682 391 0
-400 -683 392 0
-400 -684 393 0
-400 -685 394 0
-400 -686 395 0
-400 -687 396 0
-400 -688 397 0
-400 -689 398 0
-400 -690 399 0
-400 -691 401 0
-400 -692 402 0
-400 -693 403 0
-400 -694 404 0
-400 -695 405 0
-400 -696 406 0
-401 -697 378 0
-401 -698 379 0
-401 -699 380 0
-401 -700 381 0
-401 -701 382 0
-401 -702 383 0
-401 -703 384 0
-401 -704 385 0
-401 -705 386 0
-401 -706 387 0
-401 -707 388 0
-401 -708 389 0
-401 -709 390 0
-401 -711 391 0
-401 -712 392 0
-401 -713 393 0
-401 -714 394 0
-401 -715 395 0
-401 -716 396 0
-401 -717 397 0
-401 -718 398 0
-401 -719 399 0
-401 -720 400 0
-401 -721 402 0
-401 -722 403 0
-401 -723 404 0
-401 -724 405 0
-401 -725 406 0
-402 -726 378 0
-402 -727 379 0
-402 -728 380 0
-402 -729 381 0
-402 -730 382 0
-402 -731 383 0
-402 -732 384 0
-402 -733 385 0
-402 -734 386 0
-402 -735 387 0
-402 -736 388 0
-402 -737 389 0
-402 -738 390 0
-402 -740 391 0
-402 -741 392 0
-402 -742 393 0
-402 -743 394 0
-402 -744 395 0
-402 -745 396 0
-402 -746 397 0
-402 -747 398 0
-402 -748 399 0
-402 -749 400 0
-402 -750 401 0
-402 -751 403 0
-402 -752 404 0
-402 -753 405 0
-402 -754 406 0
-403 -755 378 0
-403 -756 379 0
-403 -757 380 0
-403 -758 381 0
-403 -759 382 0
-403 -760 383 0
-403 -761 384 0
-403 -762 385 0
-403 -763 386 0
-403 -764 387 0
-403 -765 388 0
-403 -766 389 0
-403 -767 390 0
-403 -769 391 0
-403 -770 392 0
-403 -771 393 0
-403 -772 394 0
-403 -773 395 0
-403 -774 396 0
-403 -775 397 0
-403 -776 398 0
-403 -777 399 0
-403 -778 400 0
-403 -779 401 0
-403 -780 402 0
-403 -781 404 0
-403 -782 405 0
-403 -783 406 0
-404 -784 378 0
-404 -785 379 0
-404 -786 380 0
-404 -787 381 0
-404 -788 382 0
-404 -789 383 0
-404 -790 384 0
-404 -791 385 0
-404 -792 386 0
-404 -793 387 0
-404 -794 388 0
-404 -795 389 0
-404 -796 390 0
-404 -798 391 0
-404 -799 392 0
-404 -800 393 0
-404 -801 394 0
-404 -802 395 0
-404 -803 396 0
-404 -804 397 0
-404 -805 398 0
-404 -806 399 0
-404 -807 400 0
-404 -808 401 0
-404 -809 402 0
-404 -810 403 0
-404 -811 405 0
-404 -812 406 0
-405 -813 378 0
-405 -814 379 0
-405 -815 380 0
-405 -816 381 0
-405 -817 382 0
-405 -818 383 0
-405 -819 384 0
-405 -820 385 0
-405 -821 386 0
-405 -822 387 0
-405 -823 388 0
-405 -824 389 0
-405 -825 390 0
-405 -827 391 0
-405 -828 392 0
-405 -829 393 0
-405 -830 394 0
-405 -831 395 0
-405 -832 396 0
-405 -833 397 0
-405 -834 398 0
-405 -835 399 0
-405 -836 400 0
-405 -837 401 0
-405 -838 402 0
-405 -839 403 0
-405 -840 404 0
-405 -841 406 0
-406 -842 378 0
-406 -843 379 0
-406 -844 380 0
-406 -845 381 0
-406 -846 382 0
-406 -847 383 0
-406 -848 384 0
-406 -849 385 0
-406 -850 386 0
-406 -851 387 0
-406 -852 388 0
-406 -853 389 0
-406 -854 390 0
-406 -856 391 0
-406 -857 392 0
-406 -858 393 0
-406 -859 394 0
-406 -860 395 0
-406 -861 396 0
-406 -862 397 0
-406 -863 398 0
-406 -864 399 0
-406 -865 400 0
-406 -866 401 0
-406 -867 402 0
-406 -868 403 0
-406 -869 404 0
-406 -870 405 0
-407 -1 408 0
-407 -2 409 0
-407 -3 410 0
-407 -4 411 0
-407 -5 412 0
-407 -6 413 0
-407 -7 414 0
-407 -8 415 0
-407 -9 416 0
-407 -10 417 0
-407 -11 418 0
-407 -12 419 0
-407 -13 420 0
-407 -15 421 0
-407 -16 422 0
-407 -17 423 0
-407 -18 424 0
-407 -19 425 0
-407 -20 426 0
-407 -21 427 0
-407 -22 428 0
-407 -23 429 0
-407 -24 430 0
-407 -25 431 0
-407 -26 432 0
-407 -27 433 0
-407 -28 434 0
-407 -29 435 0
-408 -30 407 0
-408 -31 409 0
-408 -32 410 0
-408 -33 411 0
-408 -34 412 0
-408 -35 413 0
-408 -36 414 0
-408 -37 415 0
-408 -38 416 0
-408 -39 417 0
-408 -40 418 0
-408 -41 419 0
-408 -42 420 0
-408 -44 421 0
-408 -45 422 0
-408 -46 423 0
-408 -47 424 0
-408 -48 425 0
-408 -49 426 0
-408 -50 427 0
-408 -51 428 0
-408 -52 429 0
-408 -53 430 0
-408 -54 431 0
-408 -55 432 0
-408 -56 433 0
-408 -57 434 0
-408 -58 435 0
-409 -59 407 0
-409 -60 408 0
-409 -61 410 0
-409 -62 411 0
-409 -63 412 0
-409 -64 413 0
-409 -65 414 0
-409 -66 415 0
-409 -67 416 0
-409 -68 417 0
-409 -69 418 0
-409 -70 419 0
-409 -71 420 0
-409 -73 421 0
-409 -74 422 0
-409 -75 423 0
-409 -76 424 0
-409 -77 425 0
-409 -78 426 0
-409 -79 427 0
-409 -80 428 0
-409 -81 429 0
-409 -82 430 0
-409 -83 431 0
-409 -84 432 0
-409 -85 433 0
-409 -86 434 0
-409 -87 435 0
-410 -88 407 0
-410 -89 408 0
-410 -90 409 0
-410 -91 411 0
-410 -92 412 0
-410 -93 413 0
-410 -94 414 0
-410 -95 415 0
-410 -96 416 0
-410 -97 417 0
-410 -98 418 0
-410 -99 419 0
-410 -100 420 0
-410 -102 421 0
-410 -103 422 0
-410 -104 423 0
-410 -105 424 0
-410 -106 425 0
-410 -107 426 0
-410 -108 427 0
-410 -109 428 0
-410 -110 429 0
-410 -111 430 0
-410 -112 431 0
-410 -113 432 0
-410 -114 433 0
-410 -115 434 0
-410 -116 435 0
-411 -117 407 0
-411 -118 408 0
-411 -119 409 0
-411 -120 410 0
-411 -121 412 0
-411 -122 413 0
-411 -123 414 0
-411 -124 415 0
-411 -125 416 0
-411 -126 417 0
-411 -127 418 0
-411 -128 419 0
-411 -129 420 0
-411 -131 421 0
-411 -132 422 0
-411 -133 423 0
-411 -134 424 0
-411 -135 425 0
-411 -136 426 0
-411 -137 427 0
-411 -138 428 0
-411 -139 429 0
-411 -140 430 0
-411 -141 431 0
-411 -142 432 0
-411 -143 433 0
-411 -144 434 0
-411 -145 435 0
-412 -146 407 0
-412 -147 408 0
-412 -148 409 0
-412 -149 410 0
-412 -150 411 0
-412 -151 413 0
-412 -152 414 0
-412 -153 415 0
-412 -154 416 0
-412 -155 417 0
-412 -156 418 0
-412 -157 419 0
-412 -158 420 0
-412 -160 421 0
-412 -161 422 0
-412 -162 423 0
-412 -163 424 0
-412 -164 425 0
-412 -165 426 0
-412 -166 427 0
-412 -167 428 0
-412 -168 429 0
-412 -169 430 0
-412 -170 431 0
-412 -171 432 0
-412 -172 433 0
-412 -173 434 0
-412 -174 435 0
-413 -175 407 0
-413 -176 408 0
-413 -177 409 0
-413 -178 410 0
-413 -179 411 0
-413 -180 412 0
-413 -181 414 0
-413 -182 415 0
-413 -183 416 0
-413 -184 417 0
-413 -185 418 0
-413 -186 419 0
-413 -187 420 0
-413 -189 421 0
-413 -190 422 0
-413 -191 423 0
-413 -192 424 0
-413 -193 425 0
-413 -194 426 0
-413 -195 427 0
-413 -196 428 0
-413 -197 429 0
-413 -198 430 0
-413 -199 431 0
-413 -200 432 0
-413 -201 433 0
-413 -202 434 0
-413 -203 435 0
-414 -204 407 0
-414 -205 408 0
-414 -206 409 0
-414 -207 410 0
-414 -208 411 0
-414 -209 412 0
-414 -210 413 0
-414 -211 415 0
-414 -212 416 0
-414 -213 417 0
-414 -214 418 0
-414 -215 419 0
-414 -216 420 0
-414 -218 421 0
-414 -219 422 0
-414 -220 423 0
-414 -221 424 0
-414 -222 425 0
-414 -223 426 0
-414 -224 427 0
-414 -225 428 0
-414 -226 429 0
-414 -227 430 0
-414 -228 431 0
-414 -229 432 0
-414 -230 433 0
-414 -231 434 0
-414 -232 435 0
-415 -233 407 0
-415 -234 408 0
-415 -235 409 0
-415 -236 410 0
-415 -237 411 0
-415 -238 412 0
-415 -239 413 0
-415 -240 414 0
-415 -241 416 0
-415 -242 417 0
-415 -243 418 0
-415 -244 419 0
-415 -245 420 0
-415 -247 421 0
-415 -248 422 0
-415 -249 423 0
-415 -250 424 0
-415 -251 425 0
-415 -252 426 0
-415 -253 427 0
-415 -254 428 0
-415 -255 429 0
-415 -256 430 0
-415 -257 431 0
-415 -258 432 0
-415 -259 433 0
-415 -260 434 0
-415 -261 435 0
-416 -262 407 0
-416 -263 408 0
-416 -264 409 0
-416 -265 410 0
-416 -266 411 0
-416 -267 412 0
-416 -268 413 0
-416 -269 414 0
-416 -270 415 0
-416 -271 417 0
-416 -272 418 0
-416 -273 419 0
-416 -274 420 0
-416 -276 421 0
-416 -277 422 0
-416 -278 423 0
-416 -279 424 0
-416 -280 425 0
-416 -281 426 0
-416 -282 427 0
-416 -283 428 0
-416 -284 429 0
-416 -285 430 0
-416 -286 431 0
-416 -287 432 0
-416 -288 433 0
-416 -289 434 0
-416 -290 435 0
-417 -291 407 0
-417 -292 408 0
-417 -293 409 0
-417 -294 410 0
-417 -295 411 0
-417 -296 412 0
-417 -297 413 0
-417 -298 414 0
-417 -299 415 0
-417 -300 416 0
-417 -301 418 0
-417 -302 419 0
-417 -303 420 0
-417 -305 421 0
-417 -306 422 0
-417 -307 423 0
-417 -308 424 0
-417 -309 425 0
-417 -310 426 0
-417 -311 427 0
-417 -312 428 0
-417 -313 429 0
-417 -314 430 0
-417 -315 431 0
-417 -316 432 0
-417 -317 433 0
-417 -318 434 0
-417 -319 435 0
-418 -320 407 0
-418 -321 408 0
-418 -322 409 0
-418 -323 410 0
-418 -324 411 0
-418 -325 412 0
-418 -326 413 0
-418 -327 414 0
-418 -328 415 0
-418 -329 416 0
-418 -330 417 0
-418 -331 419 0
-418 -332 420 0
-418 -334 421 0
-418 -335 422 0
-418 -336 423 0
-418 -337 424 0
-418 -338 425 0
-418 -339 426 0
-418 -340 427 0
-418 -341 428 0
-418 -342 429 0
-418 -343 430 0
-418 -344 431 0
-418 -345 432 0
-418 -346 433 0
-418 -347 434 0
-418 -348 435 0
-419 -349 407 0
-419 -350 408 0
-419 -351 409 0
-419 -352 410 0
-419 -353 411 0
-419 -354 412 0
-419 -355 413 0
-419 -356 414 0
-419 -357 415 0
-419 -358 416 0
-419 -359 417 0
-419 -360 418 0
-419 -361 420 0
-419 -363 421 0
-419 -364 422 0
-419 -365 423 0
-419 -366 424 0
-419 -367 425 0
-419 -368 426 0
-419 -369 427 0
-419 -370 428 0
-419 -371 429 0
-419 -372 430 0
-419 -373 431 0
-419 -374 432 0
-419 -375 433 0
-419 -376 434 0
-419 -377 435 0
-420 -378 407 0
-420 -379 408 0
-420 -380 409 0
-420 -381 410 0
-420 -382 411 0
-420 -383 412 0
-420 -384 413 0
-420 -385 414 0
-420 -386 415 0
-420 -387 416 0
-420 -388 417 0
-420 -389 418 0
-420 -390 419 0
-420 -392 421 0
-420 -393 422 0
-420 -394 423 0
-420 -395 424 0
-420 -396 425 0
-420 -397 426 0
-420 -398 427 0
-420 -399 428 0
-420 -400 429 0
-420 -401 430 0
-420 -402 431 0
-420 -403 432 0
-420 -404 433 0
-420 -405 434 0
-420 -406 435 0
-421 -436 407 0
-421 -437 408 0
-421 -438 409 0
-421 -439 410 0
-421 -440 411 0
-421 -441 412 0
-421 -442 413 0
-421 -443 414 0
-421 -444 415 0
-421 -445 416 0
-421 -446 417 0
-421 -447 418 0
-421 -448 419 0
-421 -449 420 0
-421 -451 422 0
-421 -452 423 0
-421 -453 424 0
-421 -454 425 0
-421 -455 426 0
-421 -456 427 0
-421 -457 428 0
-421 -458 429 0
-421 -459 430 0
-421 -460 431 0
-421 -461 432 0
-421 -462 433 0
-421 -463 434 0
-421 -464 435 0
-422 -465 407 0
-422 -466 408 0
-422 -467 409 0
-422 -468 410 0
-422 -469 411 0
-422 -470 412 0
-422 -471 413 0
-422 -472 414 0
-422 -473 415 0
-422 -474 416 0
-422 -475 417 0
-422 -476 418 0
-422 -477 419 0
-422 -478 420 0
-422 -480 421 0
-422 -481 423 0
-422 -482 424 0
-422 -483 425 0
-422 -484 426 0
-422 -485 427 0
-422 -486 428 0
-422 -487 429 0
-422 -488 430 0
-422 -489 431 0
-422 -490 432 0
-422 -491 433 0
-422 -492 434 0
-422 -493 435 0
-423 -494 407 0
-423 -495 408 0
-423 -496 409 0
-423 -497 410 0
-423 -498 411 0
-423 -499 412 0
-423 -500 413 0
-423 -501 414 0
-423 -502 415 0
-423 -503 416 0
-423 -504 417 0
-423 -505 418 0
-423 -506 419 0
-423 -507 420 0
-423 -509 421 0
-423 -510 422 0
-423 -511 424 0
-423 -512 425 0
-423 -513 426 0
-423 -514 427 0
-423 -515 428 0
-423 -516 429 0
-423 -517 430 0
-423 -518 431 0
-423 -519 432 0
-423 -520 433 0
-423 -521 434 0
-423 -522 435 0
-424 -523 407 0
-424 -524 408 0
-424 -525 409 0
-424 -526 410 0
-424 -527 411 0
-424 -528 412 0
-424 -529 413 0
-424 -530 414 0
-424 -531 415 0
-424 -532 416 0
-424 -533 417 0
-424 -534 418 0
-424 -535 419 0
-424 -536 420 0
-424 -538 421 0
-424 -539 422 0
-424 -540 423 0
-424 -541 425 0
-424 -542 426 0
-424 -543 427 0
-424 -544 428 0
-424 -545 429 0
-424 -546 430 0
-424 -547 431 0
-424 -548 432 0
-424 -549 433 0
-424 -550 434 0
-424 -551 435 0
-425 -552 407 0
-425 -553 408 0
-425 -554 409 0
-425 -555 410 0
-425 -556 411 0
-425 -557 412 0
-425 -558 413 0
-425 -559 414 0
-425 -560 415 0
-425 -561 416 0
-425 -562 417 0
-425 -563 418 0
-425 -564 419 0
-425 -565 420 0
-425 -567 421 0
-425 -568 422 0
-425 -569 423 0
-425 -570 424 0
-425 -571 426 0
-425 -572 427 0
-425 -573 428 0
-425 -574 429 0
-425 -575 430 0
-425 -576 431 0
-425 -577 432 0
-425 -578 433 0
-425 -579 434 0
-425 -580 435 0
-426 -581 407 0
-426 -582 408 0
-426 -583 409 0
-426 -584 410 0
-426 -585 411 0
-426 -586 412 0
-426 -587 413 0
-426 -588 414 0
-426 -589 415 0
-426 -590 416 0
-426 -591 417 0
-426 -592 418 0
-426 -593 419 0
-426 -594 420 0
-426 -596 421 0
-426 -597 422 0
-426 -598 423 0
-426 -599 424 0
-426 -600 425 0
-426 -601 427 0
-426 -602 428 0
-426 -603 429 0
-426 -604 430 0
-426 -605 431 0
-426 -606 432 0
-426 -607 433 0
-426 -608 434 0
-426 -609 435 0
-427 -610 407 0
-427 -611 408 0
-427 -612 409 0
-427 -613 410 0
-427 -614 411 0
-427 -615 412 0
-427 -616 413 0
-427 -617 414 0
-427 -618 415 0
-427 -619 416 0
-427 -620 417 0
-427 -621 418 0
-427 -622 419 0
-427 -623 420 0
-427 -625 421 0
-427 -626 422 0
-427 -627 423 0
-427 -628 424 0
-427 -629 425 0
-427 -630 426 0
-427 -631 428 0
-427 -632 429 0
-427 -633 430 0
-427 -634 431 0
-427 -635 432 0
-427 -636 433 0
-427 -637 434 0
-427 -638 435 0
-428 -639 407 0
-428 -640 408 0
-428 -641 409 0
-428 -642 410 0
-428 -643 411 0
-428 -644 412 0
-428 -645 413 0
-428 -646 414 0
-428 -647 415 0
-428 -648 416 0
-428 -649 417 0
-428 -650 418 0
-428 -651 419 0
-428 -652 420 0
-428 -654 421 0
-428 -655 422 0
-428 -656 423 0
-428 -657 424 0
-428 -658 425 0
-428 -659 426 0
-428 -660 427 0
-428 -661 429 0
-428 -662 430 0
-428 -663 431 0
-428 -664 432 0
-428 -665 433 0
-428 -666 434 0
-428 -667 435 0
-429 -668 407 0
-429 -669 408 0
-429 -670 409 0
-429 -671 410 0
-429 -672 411 0
-429 -673 412 0
-429 -674 413 0
-429 -675 414 0
-429 -676 415 0
-429 -677 416 0
-429 -678 417 0
-429 -679 418 0
-429 -680 419 0
-429 -681 420 0
-429 -683 421 0
-429 -684 422 0
-429 -685 423 0
-429 -686 424 0
-429 -687 425 0
-429 -688 426 0
-429 -689 427 0
-429 -690 428 0
-429 -691 430 0
-429 -692 431 0
-429 -693 432 0
-429 -694 433 0
-429 -695 434 0
-429 -696 435 0
-430 -697 407 0
-430 -698 408 0
-430 -699 409 0
-430 -700 410 0
-430 -701 411 0
-430 -702 412 0
-430 -703 413 0
-430 -704 414 0
-430 -705 415 0
-430 -706 416 0
-430 -707 417 0
-430 -708 418 0
-430 -709 419 0
-430 -710 420 0
-430 -712 421 0
-430 -713 422 0
-430 -714 423 0
-430 -715 424 0
-430 -716 425 0
-430 -717 426 0
-430 -718 427 0
-430 -719 428 0
-430 -720 429 0
-430 -721 431 0
-430 -722 432 0
-430 -723 433 0
-430 -724 434 0
-430 -725 435 0
-431 -726 407 0
-431 -727 408 0
-431 -728 409 0
-431 -729 410 0
-431 -730 411 0
-431 -731 412 0
-431 -732 413 0
-431 -733 414 0
-431 -734 415 0
-431 -735 416 0
-431 -736 417 0
-431 -737 418 0
-431 -738 419 0
-431 -739 420 0
-431 -741 421 0
-431 -742 422 0
-431 -743 423 0
-431 -744 424 0
-431 -745 425 0
-431 -746 426 0
-431 -747 427 0
-431 -748 428 0
-431 -749 429 0
-431 -750 430 0
-431 -751 432 0
-431 -752 433 0
-431 -753 434 0
-431 -754 435 0
-432 -755 407 0
-432 -756 408 0
-432 -757 409 0
-432 -758 410 0
-432 -759 411 0
-432 -760 412 0
-432 -761 413 0
-432 -762 414 0
-432 -763 415 0
-432 -764 416 0
-432 -765 417 0
-432 -766 418 0
-432 -767 419 0
-432 -768 420 0
-432 -770 421 0
-432 -771 422 0
-432 -772 423 0
-432 -773 424 0
-432 -774 425 0
-432 -775 426 0
-432 -776 427 0
-432 -777 428 0
-432 -778 429 0
-432 -779 430 0
-432 -780 431 0
-432 -781 433 0
-432 -782 434 0
-432 -783 435 0
-433 -784 407 0
-433 -785 408 0
-433 -786 409 0
-433 -787 410 0
-433 -788 411 0
-433 -789 412 0
-433 -790 413 0
-433 -791 414 0
-433 -792 415 0
-433 -793 416 0
-433 -794 417 0
-433 -795 418 0
-433 -796 419 0
-433 -797 420 0
-433 -799 421 0
-433 -800 422 0
-433 -801 423 0
-433 -802 424 0
-433 -803 425 0
-433 -804 426 0
-433 -805 427 0
-433 -806 428 0
-433 -807 429 0
-433 -808 430 0
-433 -809 431 0
-433 -810 432 0
-433 -811 434 0
-433 -812 435 0
-434 -813 407 0
-434 -814 408 0
-434 -815 409 0
-434 -816 410 0
-434 -817 411 0
-434 -818 412 0
-434 -819 413 0
-434 -820 414 0
-434 -821 415 0
-434 -822 416 0
-434 -823 417 0
-434 -824 418 0
-434 -825 419 0
-434 -826 420 0
-434 -828 421 0
-434 -829 422 0
-434 -830 423 0
-434 -831 424 0
-434 -832 425 0
-434 -833 426 0
-434 -834 427 0
-434 -835 428 0
-434 -836 429 0
-434 -837 430 0
-434 -838 431 0
-434 -839 432 0
-434 -840 433 0
-434 -841 435 0
-435 -842 407 0
-435 -843 408 0
-435 -844 409 0
-435 -845 410 0
-435 -846 411 0
-435 -847 412 0
-435 -848 413 0
-435 -849 414 0
-435 -850 415 0
-435 -851 416 0
-435 -852 417 0
-435 -853 418 0
-435 -854 419 0
-435 -855 420 0
-435 -857 421 0
-435 -858 422 0
-435 -859 423 0
-435 -860 424 0
-435 -861 425 0
-435 -862 426 0
-435 -863 427 0
-435 -864 428 0
-435 -865 429 0
-435 -866 430 0
-435 -867 431 0
-435 -868 432 0
-435 -869 433 0
-435 -870 434 0
-436 -1 437 0
-436 -2 438 0
-436 -3 439 0
-436 -4 440 0
-436 -5 441 0
-436 -6 442 0
-436 -7 443 0
-436 -8 444 0
-436 -9 445 0
-436 -10 446 0
-436 -11 447 0
-436 -12 448 0
-436 -13 449 0
-436 -14 450 0
-436 -16 451 0
-436 -17 452 0
-436 -18 453 0
-436 -19 454 0
-436 -20 455 0
-436 -21 456 0
-436 -22 457 0
-436 -23 458 0
-436 -24 459 0
-436 -25 460 0
-436 -26 461 0
-436 -27 462 0
-436 -28 463 0
-436 -29 464 0
-437 -30 436 0
-437 -31 438 0
-437 -32 439 0
-437 -33 440 0
-437 -34 441 0
-437 -35 442 0
-437 -36 443 0
-437 -37 444 0
-437 -38 445 0
-437 -39 446 0
-437 -40 447 0
-437 -41 448 0
-437 -42 449 0
-437 -43 450 0
-437 -45 451 0
-437 -46 452 0
-437 -47 453 0
-437 -48 454 0
-437 -49 455 0
-437 -50 456 0
-437 -51 457 0
-437 -52 458 0
-437 -53 459 0
-437 -54 460 0
-437 -55 461 0
-437 -56 462 0
-437 -57 463 0
-437 -58 464 0
-438 -59 436 0
-438 -60 437 0
-438 -61 439 0
-438 -62 440 0
-438 -63 441 0
-438 -64 442 0
-438 -65 443 0
-438 -66 444 0
-438 -67 445 0
-438 -68 446 0
-438 -69 447 0
-438 -70 448 0
-438 -71 449 0
-438 -72 450 0
-438 -74 451 0
-438 -75 452 0
-438 -76 453 0
-438 -77 454 0
-438 -78 455 0
-438 -79 456 0
-438 -80 457 0
-438 -81 458 0
-438 -82 459 0
-438 -83 460 0
-438 -84 461 0
-438 -85 462 0
-438 -86 463 0
-438 -87 464 0
-439 -88 436 0
-439 -89 437 0
-439 -90 438 0
-439 -91 440 0
-439 -92 441 0
-439 -93 442 0
-439 -94 443 0
-439 -95 444 0
-439 -96 445 0
-439 -97 446 0
-439 -98 447 0
-439 -99 448 0
-439 -100 449 0
-439 -101 450 0
-439 -103 451 0
-439 -104 452 0
-439 -105 453 0
-439 -106 454 0
-439 -107 455 0
-439 -108 456 0
-439 -109 457 0
-439 -110 458 0
-439 -111 459 0
-439 -112 460 0
-439 -113 461 0
-439 -114 462 0
-439 -115 463 0
-439 -116 464 0
-440 -117 436 0
-440 -118 437 0
-440 -119 438 0
-440 -120 439 0
-440 -121 441 0
-440 -122 442 0
-440 -123 443 0
-440 -124 444 0
-440 -125 445 0
-440 -126 446 0
-440 -127 447 0
-440 -128 448 0
-440 -129 449 0
-440 -130 450 0
-440 -132 451 0
-440 -133 452 0
-440 -134 453 0
-440 -135 454 0
-440 -136 455 0
-440 -137 456 0
-440 -138 457 0
-440 -139 458 0
-440 -140 459 0
-440 -141 460 0
-440 -142 461 0
-440 -143 462 0
-440 -144 463 0
-440 -145 464 0
-441 -146 436 0
-441 -147 437 0
-441 -148 438 0
-441 -149 439 0
-441 -150 440 0
-441 -151 442 0
-441 -152 443 0
-441 -153 444 0
-441 -154 445 0
-441 -155 446 0
-441 -156 447 0
-441 -157 448 0
-441 -158 449 0
-441 -159 450 0
-441 -161 451 0
-441 -162 452 0
-441 -163 453 0
-441 -164 454 0
-441 -165 455 0
-441 -166 456 0
-441 -167 457 0
-441 -168 458 0
-441 -169 459 0
-441 -170 460 0
-441 -171 461 0
-441 -172 462 0
-441 -173 463 0
-441 -174 464 0
-442 -175 436 0
-442 -176 437 0
-442 -177 438 0
-442 -178 439 0
-442 -179 440 0
-442 -180 441 0
-442 -181 443 0
-442 -182 444 0
-442 -183 445 0
-442 -184 446 0
-442 -185 447 0
-442 -186 448 0
-442 -187 449 0
-442 -188 450 0
-442 -190 451 0
-442 -191 452 0
-442 -192 453 0
-442 -193 454 0
-442 -194 455 0
-442 -195 456 0
-442 -196 457 0
-442 -197 458 0
-442 -198 459 0
-442 -199 460 0
-442 -200 461 0
-442 -201 462 0
-442 -202 463 0
-442 -203 464 0
-443 -204 436 0
-443 -205 437 0
-443 -206 438 0
-443 -207 439 0
-443 -208 440 0
-443 -209 441 0
-443 -210 442 0
-443 -211 444 0
-443 -212 445 0
-443 -213 446 0
-443 -214 447 0
-443 -215 448 0
-443 -216 449 0
-443 -217 450 0
-443 -219 451 0
-443 -220 452 0
-443 -221 453 0
-443 -222 454 0
-443 -223 455 0
-443 -224 456 0
-443 -225 457 0
-443 -226 458 0
-443 -227 459 0
-443 -228 460 0
-443 -229 461 0
-443 -230 462 0
-443 -231 463 0
-443 -232 464 0
-444 -233 436 0
-444 -234 437 0
-444 -235 438 0
-444 -236 439 0
-444 -237 440 0
-444 -238 441 0
-444 -239 442 0
-444 -240 443 0
-444 -241 445 0
-444 -242 446 0
-444 -243 447 0
-444 -244 448 0
-444 -245 449 0
-444 -246 450 0
-444 -248 451 0
-444 -249 452 0
-444 -250 453 0
-444 -251 454 0
-444 -252 455 0
-444 -253 456 0
-444 -254 457 0
-444 -255 458 0
-444 -256 459 0
-444 -257 460 0
-444 -258 461 0
-444 -259 462 0
-444 -260 463 0
-444 -261 464 0
-445 -262 436 0
-445 -263 437 0
-445 -264 438 0
-445 -265 439 0
-445 -266 440 0
-445 -267 441 0
-445 -268 442 0
-445 -269 443 0
-445 -270 444 0
-445 -271 446 0
-445 -272 447 0
-445 -273 448 0
-445 -274 449 0
-445 -275 450 0
-445 -277 451 0
-445 -278 452 0
-445 -279 453 0
-445 -280 454 0
-445 -281 455 0
-445 -282 456 0
-445 -283 457 0
-445 -284 458 0
-445 -285 459 0
-445 -286 460 0
-445 -287 461 0
-445 -288 462 0
-445 -289 463 0
-445 -290 464 0
-446 -291 436 0
-446 -292 437 0
-446 -293 438 0
-446 -294 439 0
-446 -295 440 0
-446 -296 441 0
-446 -297 442 0
-446 -298 443 0
-446 -299 444 0
-446 -300 445 0
-446 -301 447 0
-446 -302 448 0
-446 -303 449 0
-446 -304 450 0
-446 -306 451 0
-446 -307 452 0
-446 -308 453 0
-446 -309 454 0
-446 -310 455 0
-446 -311 456 0
-446 -312 457 0
-446 -313 458 0
-446 -314 459 0
-446 -315 460 0
-446 -316 461 0
-446 -317 462 0
-446 -318 463 0
-446 -319 464 0
-447 -320 436 0
-447 -321 437 0
-447 -322 438 0
-447 -323 439 0
-447 -324 440 0
-447 -325 441 0
-447 -326 442 0
-447 -327 443 0
-447 -328 444 0
-447 -329 445 0
-447 -330 446 0
-447 -331 448 0
-447 -332 449 0
-447 -333 450 0
-447 -335 451 0
-447 -336 452 0
-447 -337 453 0
-447 -338 454 0
-447 -339 455 0
-447 -340 456 0
-447 -341 457 0
-447 -342 458 0
-447 -343 459 0
-447 -344 460 0
-447 -345 461 0
-447 -346 462 0
-447 -347 463 0
-447 -348 464 0
-448 -349 436 0
-448 -350 437 0
-448 -351 438 0
-448 -352 439 0
-448 -353 440 0
-448 -354 441 0
-448 -355 442 0
-448 -356 443 0
-448 -357 444 0
-448 -358 445 0
-448 -359 446 0
-448 -360 447 0
-448 -361 449 0
-448 -362 450 0
-448 -364 451 0
-448 -365 452 0
-448 -366 453 0
-448 -367 454 0
-448 -368 455 0
-448 -369 456 0
-448 -370 457 0
-448 -371 458 0
-448 -372 459 0
-448 -373 460 0
-448 -374 461 0
-448 -375 462 0
-448 -376 463 0
-448 -377 464 0
-449 -378 436 0
-449 -379 437 0
-449 -380 438 0
-449 -381 439 0
-449 -382 440 0
-449 -383 441 0
-449 -384 442 0
-449 -385 443 0
-449 -386 444 0
-449 -387 445 0
-449 -388 446 0
-449 -389 447 0
-449 -390 448 0
-449 -391 450 0
-449 -393 451 0
-449 -394 452 0
-449 -395 453 0
-449 -396 454 0
-449 -397 455 0
-449 -398 456 0
-449 -399 457 0
-449 -400 458 0
-449 -401 459 0
-449 -402 460 0
-449 -403 461 0
-449 -404 462 0
-449 -405 463 0
-449 -406 464 0
-450 -407 436 0
-450 -408 437 0
-450 -409 438 0
-450 -410 439 0
-450 -411 440 0
-450 -412 441 0
-450 -413 442 0
-450 -414 443 0
-450 -415 444 0
-450 -416 445 0
-450 -417 446 0
-450 -418 447 0
-450 -419 448 0
-450 -420 449 0
-450 -422 451 0
-450 -423 452 0
-450 -424 453 0
-450 -425 454 0
-450 -426 455 0
-450 -427 456 0
-450 -428 457 0
-450 -429 458 0
-450 -430 459 0
-450 -431 460 0
-450 -432 461 0
-450 -433 462 0
-450 -434 463 0
-450 -435 464 0
-451 -465 436 0
-451 -466 437 0
-451 -467 438 0
-451 -468 439 0
-451 -469 440 0
-451 -470 441 0
-451 -471 442 0
-451 -472 443 0
-451 -473 444 0
-451 -474 445 0
-451 -475 446 0
-451 -476 447 0
-451 -477 448 0
-451 -478 449 0
-451 -479 450 0
-451 -481 452 0
-451 -482 453 0
-451 -483 454 0
-451 -484 455 0
-451 -485 456 0
-451 -486 457 0
-451 -487 458 0
-451 -488 459 0
-451 -489 460 0
-451 -490 461 0
-451 -491 462 0
-451 -492 463 0
-451 -493 464 0
-452 -494 436 0
-452 -495 437 0
-452 -496 438 0
-452 -497 439 0
-452 -498 440 0
-452 -499 441 0
-452 -500 442 0
-452 -501 443 0
-452 -502 444 0
-452 -503 445 0
-452 -504 446 0
-452 -505 447 0
-452 -506 448 0
-452 -507 449 0
-452 -508 450 0
-452 -510 451 0
-452 -511 453 0
-452 -512 454 0
-452 -513 455 0
-452 -514 456 0
-452 -515 457 0
-452 -516 458 0
-452 -517 459 0
-452 -518 460 0
-452 -519 461 0
-452 -520 462 0
-452 -521 463 0
-452 -522 464 0
-453 -523 436 0
-453 -524 437 0
-453 -525 438 0
-453 -526 439 0
-453 -527 440 0
-453 -528 441 0
-453 -529 442 0
-453 -530 443 0
-453 -531 444 0
-453 -532 445 0
-453 -533 446 0
-453 -534 447 0
-453 -535 448 0
-453 -536 449 0
-453 -537 450 0
-453 -539 451 0
-453 -540 452 0
-453 -541 454 0
-453 -542 455 0
-453 -543 456 0
-453 -544 457 0
-453 -545 458 0
-453 -546 459 0
-453 -547 460 0
-453 -548 461 0
-453 -549 462 0
-453 -550 463 0
-453 -551 464 0
-454 -552 436 0
-454 -553 437 0
-454 -554 438 0
-454 -555 439 0
-454 -556 440 0
-454 -557 441 0
-454 -558 442 0
-454 -559 443 0
-454 -560 444 0
-454 -561 445 0
-454 -562 446 0
-454 -563 447 0
-454 -564 448 0
-454 -565 449 0
-454 -566 450 0
-454 -568 451 0
-454 -569 452 0
-454 -570 453 0
-454 -571 455 0
-454 -572 456 0
-454 -573 457 0
-454 -574 458 0
-454 -575 459 0
-454 -576 460 0
-454 -577 461 0
-454 -578 462 0
-454 -579 463 0
-454 -580 464 0
-455 -581 436 0
-455 -582 437 0
-455 -583 438 0
-455 -584 439 0
-455 -585 440 0
-455 -586 441 0
-455 -587 442 0
-455 -588 443 0
-455 -589 444 0
-455 -590 445 0
-455 -591 446 0
-455 -592 447 0
-455 -593 448 0
-455 -594 449 0
-455 -595 450 0
-455 -597 451 0
-455 -598 452 0
-455 -599 453 0
-455 -600 454 0
-455 -601 456 0
-455 -602 457 0
-455 -603 458 0
-455 -604 459 0
-455 -605 460 0
-455 -606 461 0
-455 -607 462 0
-455 -608 463 0
-455 -609 464 0
-456 -610 436 0
-456 -611 437 0
-456 -612 438 0
-456 -613 439 0
-456 -614 440 0
-456 -615 441 0
-456 -616 442 0
-456 -617 443 0
-456 -618 444 0
-456 -619 445 0
-456 -620 446 0
-456 -621 447 0
-456 -622 448 0
-456 -623 449 0
-456 -624 450 0
-456 -626 451 0
-456 -627 452 0
-456 -628 453 0
-456 -629 454 0
-456 -630 455 0
-456 -631 457 0
-456 -632 458 0
-456 -633 459 0
-456 -634 460 0
-456 -635 461 0
-456 -636 462 0
-456 -637 463 0
-456 -638 464 0
-457 -639 436 0
-457 -640 437 0
-457 -641 438 0
-457 -642 439 0
-457 -643 440 0
-457 -644 441 0
-457 -645 442 0
-457 -646 443 0
-457 -647 444 0
-457 -648 445 0
-457 -649 446 0
-457 -650 447 0
-457 -651 448 0
-457 -652 449 0
-457 -653 450 0
-457 -655 451 0
-457 -656 452 0
-457 -657 453 0
-457 -658 454 0
-457 -659 455 0
-457 -660 456 0
-457 -661 458 0
-457 -662 459 0
-457 -663 460 0
-457 -664 461 0
-457 -665 462 0
-457 -666 463 0
-457 -667 464 0
-458 -668 436 0
-458 -669 437 0
-458 -670 438 0
-458 -671 439 0
-458 -672 440 0
-458 -673 441 0
-458 -674 442 0
-458 -675 443 0
-458 -676 444 0
-458 -677 445 0
-458 -678 446 0
-458 -679 447 0
-458 -680 448 0
-458 -681 449 0
-458 -682 450 0
-458 -684 451 0
-458 -685 452 0
-458 -686 453 0
-458 -687 454 0
-458 -688 455 0
-458 -689 456 0
-458 -690 457 0
-458 -691 459 0
-458 -692 460 0
-458 -693 461 0
-458 -694 462 0
-458 -695 463 0
-458 -696 464 0
-459 -697 436 0
-459 -698 437 0
-459 -699 438 0
-459 -700 439 0
-459 -701 440 0
-459 -702 441 0
-459 -703 442 0
-459 -704 443 0
-459 -705 444 0
-459 -706 445 0
-459 -707 446 0
-459 -708 447 0
-459 -709 448 0
-459 -710 449 0
-459 -711 450 0
-459 -713 451 0
-459 -714 452 0
-459 -715 453 0
-459 -716 454 0
-459 -717 455 0
-459 -718 456 0
-459 -719 457 0
-459 -720 458 0
-459 -721 460 0
-459 -722 461 0
-459 -723 462 0
-459 -724 463 0
-459 -725 464 0
-460 -726 436 0
-460 -727 437 0
-460 -728 438 0
-460 -729 439 0
-460 -730 440 0
-460 -731 441 0
-460 -732 442 0
-460 -733 443 0
-460 -734 444 0
-460 -735 445 0
-460 -736 446 0
-460 -737 447 0
-460 -738 448 0
-460 -739 449 0
-460 -740 450 0
-460 -742 451 0
-460 -743 452 0
-460 -744 453 0
-460 -745 454 0
-460 -746 455 0
-460 -747 456 0
-460 -748 457 0
-460 -749 458 0
-460 -750 459 0
-460 -751 461 0
-460 -752 462 0
-460 -753 463 0
-460 -754 464 0
-461 -755 436 0
-461 -756 437 0
-461 -757 438 0
-461 -758 439 0
-461 -759 440 0
-461 -760 441 0
-461 -761 442 0
-461 -762 443 0
-461 -763 444 0
-461 -764 445 0
-461 -765 446 0
-461 -766 447 0
-461 -767 448 0
-461 -768 449 0
-461 -769 450 0
-461 -771 451 0
-461 -772 452 0
-461 -773 453 0
-461 -774 454 0
-461 -775 455 0
-461 -776 456 0
-461 -777 457 0
-461 -778 458 0
-461 -779 459 0
-461 -780 460 0
-461 -781 462 0
-461 -782 463 0
-461 -783 464 0
-462 -784 436 0
-462 -785 437 0
-462 -786 438 0
-462 -787 439 0
-462 -788 440 0
-462 -789 441 0
-462 -790 442 0
-462 -791 443 0
-462 -792 444 0
-462 -793 445 0
-462 -794 446 0
-462 -795 447 0
-462 -796 448 0
-462 -797 449 0
-462 -798 450 0
-462 -800 451 0
-462 -801 452 0
-462 -802 453 0
-462 -803 454 0
-462 -804 455 0
-462 -805 456 0
-462 -806 457 0
-462 -807 458 0
-462 -808 459 0
-462 -809 460 0
-462 -810 461 0
-462 -811 463 0
-462 -812 464 0
-463 -813 436 0
-463 -814 437 0
-463 -815 438 0
-463 -816 439 0
-463 -817 440 0
-463 -818 441 0
-463 -819 442 0
-463 -820 443 0
-463 -821 444 0
-463 -822 445 0
-463 -823 446 0
-463 -824 447 0
-463 -825 448 0
-463 -826 449 0
-463 -827 450 0
-463 -829 451 0
-463 -830 452 0
-463 -831 453 0
-463 -832 454 0
-463 -833 455 0
-463 -834 456 0
-463 -835 457 0
-463 -836 458 0
-463 -837 459 0
-463 -838 460 0
-463 -839 461 0
-463 -840 462 0
-463 -841 464 0
-464 -842 436 0
-464 -843 437 0
-464 -844 438 0
-464 -845 439 0
-464 -846 440 0
-464 -847 441 0
-464 -848 442 0
-464 -849 443 0
-464 -850 444 0
-464 -851 445 0
-464 -852 446 0
-464 -853 447 0
-464 -854 448 0
-464 -855 449 0
-464 -856 450 0
-464 -858 451 0
-464 -859 452 0
-464 -860 453 0
-464 -861 454 0
-464 -862 455 0
-464 -863 456 0
-464 -864 457 0
-464 -865 458 0
-464 -866 459 0
-464 -867 460 0
-464 -868 461 0
-464 -869 462 0
-464 -870 463 0
-465 -1 466 0
-465 -2 467 0
-465 -3 468 0
-465 -4 469 0
-465 -5 470 0
-465 -6 471 0
-465 -7 472 0
-465 -8 473 0
-465 -9 474 0
-465 -10 475 0
-465 -11 476 0
-465 -12 477 0
-465 -13 478 0
-465 -14 479 0
-465 -15 480 0
-465 -17 481 0
-465 -18 482 0
-465 -19 483 0
-465 -20 484 0
-465 -21 485 0
-465 -22 486 0
-465 -23 487 0
-465 -24 488 0
-465 -25 489 0
-465 -26 490 0
-465 -27 491 0
-465 -28 492 0
-465 -29 493 0
-466 -30 465 0
-466 -31 467 0
-466 -32 468 0
-466 -33 469 0
-466 -34 470 0
-466 -35 471 0
-466 -36 472 0
-466 -37 473 0
-466 -38 474 0
-466 -39 475 0
-466 -40 476 0
-466 -41 477 0
-466 -42 478 0
-466 -43 479 0
-466 -44 480 0
-466 -46 481 0
-466 -47 482 0
-466 -48 483 0
-466 -49 484 0
-466 -50 485 0
-466 -51 486 0
-466 -52 487 0
-466 -53 488 0
-466 -54 489 0
-466 -55 490 0
-466 -56 491 0
-466 -57 492 0
-466 -58 493 0
-467 -59 465 0
-467 -60 466 0
-467 -61 468 0
-467 -62 469 0
-467 -63 470 0
-467 -64 471 0
-467 -65 472 0
-467 -66 473 0
-467 -67 474 0
-467 -68 475 0
-467 -69 476 0
-467 -70 477 0
-467 -71 478 0
-467 -72 479 0
-467 -73 480 0
-467 -75 481 0
-467 -76 482 0
-467 -77 483 0
-467 -78 484 0
-467 -79 485 0
-467 -80 486 0
-467 -81 487 0
-467 -82 488 0
-467 -83 489 0
-467 -84 490 0
-467 -85 491 0
-467 -86 492 0
-467 -87 493 0
-468 -88 465 0
-468 -89 466 0
-468 -90 467 0
-468 -91 469 0
-468 -92 470 0
-468 -93 471 0
-468 -94 472 0
-468 -95 473 0
-468 -96 474 0
-468 -97 475 0
-468 -98 476 0
-468 -99 477 0
-468 -100 478 0
-468 -101 479 0
-468 -102 480 0
-468 -104 481 0
-468 -105 482 0
-468 -106 483 0
-468 -107 484 0
-468 -108 485 0
-468 -109 486 0
-468 -110 487 0
-468 -111 488 0
-468 -112 489 0
-468 -113 490 0
-468 -114 491 0
-468 -115 492 0
-468 -116 493 0
-469 -117 465 0
-469 -118 466 0
-469 -119 467 0
-469 -120 468 0
-469 -121 470 0
-469 -122 471 0
-469 -123 472 0
-469 -124 473 0
-469 -125 474 0
-469 -126 475 0
-469 -127 476 0
-469 -128 477 0
-469 -129 478 0
-469 -130 479 0
-469 -131 480 0
-469 -133 481 0
-469 -134 482 0
-469 -135 483 0
-469 -136 484 0
-469 -137 485 0
-469 -138 486 0
-469 -139 487 0
-469 -140 488 0
-469 -141 489 0
-469 -142 490 0
-469 -143 491 0
-469 -144 492 0
-469 -145 493 0
-470 -146 465 0
-470 -147 466 0
-470 -148 467 0
-470 -149 468 0
-470 -150 469 0
-470 -151 471 0
-470 -152 472 0
-470 -153 473 0
-470 -154 474 0
-470 -155 475 0
-470 -156 476 0
-470 -157 477 0
-470 -158 478 0
-470 -159 479 0
-470 -160 480 0
-470 -162 481 0
-470 -163 482 0
-470 -164 483 0
-470 -165 484 0
-470 -166 485 0
-470 -167 486 0
-470 -168 487 0
-470 -169 488 0
-470 -170 489 0
-470 -171 490 0
-470 -172 491 0
-470 -173 492 0
-470 -174 493 0
-471 -175 465 0
-471 -176 466 0
-471 -177 467 0
-471 -178 468 0
-471 -179 469 0
-471 -180 470 0
-471 -181 472 0
-471 -182 473 0
-471 -183 474 0
-471 -184 475 0
-471 -185 476 0
-471 -186 477 0
-471 -187 478 0
-471 -188 479 0
-471 -189 480 0
-471 -191 481 0
-471 -192 482 0
-471 -193 483 0
-471 -194 484 0
-471 -195 485 0
-471 -196 486 0
-471 -197 487 0
-471 -198 488 0
-471 -199 489 0
-471 -200 490 0
-471 -201 491 0
-471 -202 492 0
-471 -203 493 0
-472 -204 465 0
-472 -205 466 0
-472 -206 467 0
-472 -207 468 0
-472 -208 469 0
-472 -209 470 0
-472 -210 471 0
-472 -211 473 0
-472 -212 474 0
-472 -213 475 0
-472 -214 476 0
-472 -215 477 0
-472 -216 478 0
-472 -217 479 0
-472 -218 480 0
-472 -220 481 0
-472 -221 482 0
-472 -222 483 0
-472 -223 484 0
-472 -224 485 0
-472 -225 486 0
-472 -226 487 0
-472 -227 488 0
-472 -228 489 0
-472 -229 490 0
-472 -230 491 0
-472 -231 492 0
-472 -232 493 0
-473 -233 465 0
-473 -234 466 0
-473 -235 467 0
-473 -236 468 0
-473 -237 469 0
-473 -238 470 0
-473 -239 471 0
-473 -240 472 0
-473 -241 474 0
-473 -242 475 0
-473 -243 476 0
-473 -244 477 0
-473 -245 478 0
-473 -246 479 0
-473 -247 480 0
-473 -249 481 0
-473 -250 482 0
-473 -251 483 0
-473 -252 484 0
-473 -253 485 0
-473 -254 486 0
-473 -255 487 0
-473 -256 488 0
-473 -257 489 0
-473 -258 490 0
-473 -259 491 0
-473 -260 492 0
-473 -261 493 0
-474 -262 465 0
-474 -263 466 0
-474 -264 467 0
-474 -265 468 0
-474 -266 469 0
-474 -267 470 0
-474 -268 471 0
-474 -269 472 0
-474 -270 473 0
-474 -271 475 0
-474 -272 476 0
-474 -273 477 0
-474 -274 478 0
-474 -275 479 0
-474 -276 480 0
-474 -278 481 0
-474 -279 482 0
-474 -280 483 0
-474 -281 484 0
-474 -282 485 0
-474 -283 486 0
-474 -284 487 0
-474 -285 488 0
-474 -286 489 0
-474 -287 490 0
-474 -288 491 0
-474 -289 492 0
-474 -290 493 0
-475 -291 465 0
-475 -292 466 0
-475 -293 467 0
-475 -294 468 0
-475 -295 469 0
-475 -296 470 0
-475 -297 471 0
-475 -298 472 0
-475 -299 473 0
-475 -300 474 0
-475 -301 476 0
-475 -302 477 0
-475 -303 478 0
-475 -304 479 0
-475 -305 480 0
-475 -307 481 0
-475 -308 482 0
-475 -309 483 0
-475 -310 484 0
-475 -311 485 0
-475 -312 486 0
-475 -313 487 0
-475 -314 488 0
-475 -315 489 0
-475 -316 490 0
-475 -317 491 0
-475 -318 492 0
-475 -319 493 0
-476 -320 465 0
-476 -321 466 0
-476 -322 467 0
-476 -323 468 0
-476 -324 469 0
-476 -325 470 0
-476 -326 471 0
-476 -327 472 0
-476 -328 473 0
-476 -329 474 0
-476 -330 475 0
-476 -331 477 0
-476 -332 478 0
-476 -333 479 0
-476 -334 480 0
-476 -336 481 0
-476 -337 482 0
-476 -338 483 0
-476 -339 484 0
-476 -340 485 0
-476 -341 486 0
-476 -342 487 0
-476 -343 488 0
-476 -344 489 0
-476 -345 490 0
-476 -346 491 0
-476 -347 492 0
-476 -348 493 0
-477 -349 465 0
-477 -350 466 0
-477 -351 467 0
-477 -352 468 0
-477 -353 469 0
-477 -354 470 0
-477 -355 471 0
-477 -356 472 0
-477 -357 473 0
-477 -358 474 0
-477 -359 475 0
-477 -360 476 0
-477 -361 478 0
-477 -362 479 0
-477 -363 480 0
-477 -365 481 0
-477 -366 482 0
-477 -367 483 0
-477 -368 484 0
-477 -369 485 0
-477 -370 486 0
-477 -371 487 0
-477 -372 488 0
-477 -373 489 0
-477 -374 490 0
-477 -375 491 0
-477 -376 492 0
-477 -377 493 0
-478 -378 465 0
-478 -379 466 0
-478 -380 467 0
-478 -381 468 0
-478 -382 469 0
-478 -383 470 0
-478 -384 471 0
-478 -385 472 0
-478 -386 473 0
-478 -387 474 0
-478 -388 475 0
-478 -389 476 0
-478 -390 477 0
-478 -391 479 0
-478 -392 480 0
-478 -394 481 0
-478 -395 482 0
-478 -396 483 0
-478 -397 484 0
-478 -398 485 0
-478 -399 486 0
-478 -400 487 0
-478 -401 488 0
-478 -402 489 0
-478 -403 490 0
-478 -404 491 0
-478 -405 492 0
-478 -406 493 0
-479 -407 465 0
-479 -408 466 0
-479 -409 467 0
-479 -410 468 0
-479 -411 469 0
-479 -412 470 0
-479 -413 471 0
-479 -414 472 0
-479 -415 473 0
-479 -416 474 0
-479 -417 475 0
-479 -418 476 0
-479 -419 477 0
-479 -420 478 0
-479 -421 480 0
-479 -423 481 0
-479 -424 482 0
-479 -425 483 0
-479 -426 484 0
-479 -427 485 0
-479 -428 486 0
-479 -429 487 0
-479 -430 488 0
-479 -431 489 0
-479 -432 490 0
-479 -433 491 0
-479 -434 492 0
-479 -435 493 0
-480 -436 465 0
-480 -437 466 0
-480 -438 467 0
-480 -439 468 0
-480 -440 469 0
-480 -441 470 0
-480 -442 471 0
-480 -443 472 0
-480 -444 473 0
-480 -445 474 0
-480 -446 475 0
-480 -447 476 0
-480 -448 477 0
-480 -449 478 0
-480 -450 479 0
-480 -452 481 0
-480 -453 482 0
-480 -454 483 0
-480 -455 484 0
-480 -456 485 0
-480 -457 486 0
-480 -458 487 0
-480 -459 488 0
-480 -460 489 0
-480 -461 490 0
-480 -462 491 0
-480 -463 492 0
-480 -464 493 0
-481 -494 465 0
-481 -495 466 0
-481 -496 467 0
-481 -497 468 0
-481 -498 469 0
-481 -499 470 0
-481 -500 471 0
-481 -501 472 0
-481 -502 473 0
-481 -503 474 0
-481 -504 475 0
-481 -505 476 0
-481 -506 477 0
-481 -507 478 0
-481 -508 479 0
-481 -509 480 0
-481 -511 482 0
-481 -512 483 0
-481 -513 484 0
-481 -514 485 0
-481 -515 486 0
-481 -516 487 0
-481 -517 488 0
-481 -518 489 0
-481 -519 490 0
-481 -520 491 0
-481 -521 492 0
-481 -522 493 0
-482 -523 465 0
-482 -524 466 0
-482 -525 467 0
-482 -526 468 0
-482 -527 469 0
-482 -528 470 0
-482 -529 471 0
-482 -530 472 0
-482 -531 473 0
-482 -532 474 0
-482 -533 475 0
-482 -534 476 0
-482 -535 477 0
-482 -536 478 0
-482 -537 479 0
-482 -538 480 0
-482 -540 481 0
-482 -541 483 0
-482 -542 484 0
-482 -543 485 0
-482 -544 486 0
-482 -545 487 0
-482 -546 488 0
-482 -547 489 0
-482 -548 490 0
-482 -549 491 0
-482 -550 492 0
-482 -551 493 0
-483 -552 465 0
-483 -553 466 0
-483 -554 467 0
-483 -555 468 0
-483 -556 469 0
-483 -557 470 0
-483 -558 471 0
-483 -559 472 0
-483 -560 473 0
-483 -561 474 0
-483 -562 475 0
-483 -563 476 0
-483 -564 477 0
-483 -565 478 0
-483 -566 479 0
-483 -567 480 0
-483 -569 481 0
-483 -570 482 0
-483 -571 484 0
-483 -572 485 0
-483 -573 486 0
-483 -574 487 0
-483 -575 488 0
-483 -576 489 0
-483 -577 490 0
-483 -578 491 0
-483 -579 492 0
-483 -580 493 0
-484 -581 465 0
-484 -582 466 0
-484 -583 467 0
-484 -584 468 0
-484 -585 469 0
-484 -586 470 0
-484 -587 471 0
-484 -588 472 0
-484 -589 473 0
-484 -590 474 0
-484 -591 475 0
-484 -592 476 0
-484 -593 477 0
-484 -594 478 0
-484 -595 479 0
-484 -596 480 0
-484 -598 481 0
-484 -599 482 0
-484 -600 483 0
-484 -601 485 0
-484 -602 486 0
-484 -603 487 0
-484 -604 488 0
-484 -605 489 0
-484 -606 490 0
-484 -607 491 0
-484 -608 492 0
-484 -609 493 0
-485 -610 465 0
-485 -611 466 0
-485 -612 467 0
-485 -613 468 0
-485 -614 469 0
-485 -615 470 0
-485 -616 471 0
-485 -617 472 0
-485 -618 473 0
-485 -619 474 0
-485 -620 475 0
-485 -621 476 0
-485 -622 477 0
-485 -623 478 0
-485 -624 479 0
-485 -625 480 0
-485 -627 481 0
-485 -628 482 0
-485 -629 483 0
-485 -630 484 0
-485 -631 486 0
-485 -632 487 0
-485 -633 488 0
-485 -634 489 0
-485 -635 490 0
-485 -636 491 0
-485 -637 492 0
-485 -638 493 0
-486 -639 465 0
-486 -640 466 0
-486 -641 467 0
-486 -642 468 0
-486 -643 469 0
-486 -644 470 0
-486 -645 471 0
-486 -646 472 0
-486 -647 473 0
-486 -648 474 0
-486 -649 475 0
-486 -650 476 0
-486 -651 477 0
-486 -652 478 0
-486 -653 479 0
-486 -654 480 0
-486 -656 481 0
-486 -657 482 0
-486 -658 483 0
-486 -659 484 0
-486 -660 485 0
-486 -661 487 0
-486 -662 488 0
-486 -663 489 0
-486 -664 490 0
-486 -665 491 0
-486 -666 492 0
-486 -667 493 0
-487 -668 465 0
-487 -669 466 0
-487 -670 467 0
-487 -671 468 0
-487 -672 469 0
-487 -673 470 0
-487 -674 471 0
-487 -675 472 0
-487 -676 473 0
-487 -677 474 0
-487 -678 475 0
-487 -679 476 0
-487 -680 477 0
-487 -681 478 0
-487 -682 479 0
-487 -683 480 0
-487 -685 481 0
-487 -686 482 0
-487 -687 483 0
-487 -688 484 0
-487 -689 485 0
-487 -690 486 0
-487 -691 488 0
-487 -692 489 0
-487 -693 490 0
-487 -694 491 0
-487 -695 492 0
-487 -696 493 0
-488 -697 465 0
-488 -698 466 0
-488 -699 467 0
-488 -700 468 0
-488 -701 469 0
-488 -702 470 0
-488 -703 471 0
-488 -704 472 0
-488 -705 473 0
-488 -706 474 0
-488 -707 475 0
-488 -708 476 0
-488 -709 477 0
-488 -710 478 0
-488 -711 479 0
-488 -712 480 0
-488 -714 481 0
-488 -715 482 0
-488 -716 483 0
-488 -717 484 0
-488 -718 485 0
-488 -719 486 0
-488 -720 487 0
-488 -721 489 0
-488 -722 490 0
-488 -723 491 0
-488 -724 492 0
-488 -725 493 0
-489 -726 465 0
-489 -727 466 0
-489 -728 467 0
-489 -729 468 0
-489 -730 469 0
-489 -731 470 0
-489 -732 471 0
-489 -733 472 0
-489 -734 473 0
-489 -735 474 0
-489 -736 475 0
-489 -737 476 0
-489 -738 477 0
-489 -739 478 0
-489 -740 479 0
-489 -741 480 0
-489 -743 481 0
-489 -744 482 0
-489 -745 483 0
-489 -746 484 0
-489 -747 485 0
-489 -748 486 0
-489 -749 487 0
-489 -750 488 0
-489 -751 490 0
-489 -752 491 0
-489 -753 492 0
-489 -754 493 0
-490 -755 465 0
-490 -756 466 0
-490 -757 467 0
-490 -758 468 0
-490 -759 469 0
-490 -760 470 0
-490 -761 471 0
-490 -762 472 0
-490 -763 473 0
-490 -764 474 0
-490 -765 475 0
-490 -766 476 0
-490 -767 477 0
-490 -768 478 0
-490 -769 479 0
-490 -770 480 0
-490 -772 481 0
-490 -773 482 0
-490 -774 483 0
-490 -775 484 0
-490 -776 485 0
-490 -777 486 0
-490 -778 487 0
-490 -779 488 0
-490 -780 489 0
-490 -781 491 0
-490 -782 492 0
-490 -783 493 0
-491 -784 465 0
-491 -785 466 0
-491 -786 467 0
-491 -787 468 0
-491 -788 469 0
-491 -789 470 0
-491 -790 471 0
-491 -791 472 0
-491 -792 473 0
-491 -793 474 0
-491 -794 475 0
-491 -795 476 0
-491 -796 477 0
-491 -797 478 0
-491 -798 479 0
-491 -799 480 0
-491 -801 481 0
-491 -802 482 0
-491 -803 483 0
-491 -804 484 0
-491 -805 485 0
-491 -806 486 0
-491 -807 487 0
-491 -808 488 0
-491 -809 489 0
-491 -810 490 0
-491 -811 492 0
-491 -812 493 0
-492 -813 465 0
-492 -814 466 0
-492 -815 467 0
-492 -816 468 0
-492 -817 469 0
-492 -818 470 0
-492 -819 471 0
-492 -820 472 0
-492 -821 473 0
-492 -822 474 0
-492 -823 475 0
-492 -824 476 0
-492 -825 477 0
-492 -826 478 0
-492 -827 479 0
-492 -828 480 0
-492 -830 481 0
-492 -831 482 0
-492 -832 483 0
-492 -833 484 0
-492 -834 485 0
-492 -835 486 0
-492 -836 487 0
-492 -837 488 0
-492 -838 489 0
-492 -839 490 0
-492 -840 491 0
-492 -841 493 0
-493 -842 465 0
-493 -843 466 0
-493 -844 467 0
-493 -845 468 0
-493 -846 469 0
-493 -847 470 0
-493 -848 471 0
-493 -849 472 0
-493 -850 473 0
-493 -851 474 0
-493 -852 475 0
-493 -853 476 0
-493 -854 477 0
-493 -855 478 0
-493 -856 479 0
-493 -857 480 0
-493 -859 481 0
-493 -860 482 0
-493 -861 483 0
-493 -862 484 0
-493 -863 485 0
-493 -864 486 0
-493 -865 487 0
-493 -866 488 0
-493 -867 489 0
-493 -868 490 0
-493 -869 491 0
-493 -870 492 0
-494 -1 495 0
-494 -2 496 0
-494 -3 497 0
-494 -4 498 0
-494 -5 499 0
-494 -6 500 0
-494 -7 501 0
-494 -8 502 0
-494 -9 503 0
-494 -10 504 0
-494 -11 505 0
-494 -12 506 0
-494 -13 507 0
-494 -14 508 0
-494 -15 509 0
-494 -16 510 0
-494 -18 511 0
-494 -19 512 0
-494 -20 513 0
-494 -21 514 0
-494 -22 515 0
-494 -23 516 0
-494 -24 517 0
-494 -25 518 0
-494 -26 519 0
-494 -27 520 0
-494 -28 521 0
-494 -29 522 0
-495 -30 494 0
-495 -31 496 0
-495 -32 497 0
-495 -33 498 0
-495 -34 499 0
-495 -35 500 0
-495 -36 501 0
-495 -37 502 0
-495 -38 503 0
-495 -39 504 0
-495 -40 505 0
-495 -41 506 0
-495 -42 507 0
-495 -43 508 0
-495 -44 509 0
-495 -45 510 0
-495 -47 511 0
-495 -48 512 0
-495 -49 513 0
-495 -50 514 0
-495 -51 515 0
-495 -52 516 0
-495 -53 517 0
-495 -54 518 0
-495 -55 519 0
-495 -56 520 0
-495 -57 521 0
-495 -58 522 0
-496 -59 494 0
-496 -60 495 0
-496 -61 497 0
-496 -62 498 0
-496 -63 499 0
-496 -64 500 0
-496 -65 501 0
-496 -66 502 0
-496 -67 503 0
-496 -68 504 0
-496 -69 505 0
-496 -70 506 0
-496 -71 507 0
-496 -72 508 0
-496 -73 509 0
-496 -74 510 0
-496 -76 511 0
-496 -77 512 0
-496 -78 513 0
-496 -79 514 0
-496 -80 515 0
-496 -81 516 0
-496 -82 517 0
-496 -83 518 0
-496 -84 519 0
-496 -85 520 0
-496 -86 521 0
-496 -87 522 0
-497 -88 494 0
-497 -89 495 0
-497 -90 496 0
-497 -91 498 0
-497 -92 499 0
-497 -93 500 0
-497 -94 501 0
-497 -95 502 0
-497 -96 503 0
-497 -97 504 0
-497 -98 505 0
-497 -99 506 0
-497 -100 507 0
-497 -101 508 0
-497 -102 509 0
-497 -103 510 0
-497 -105 511 0
-497 -106 512 0
-497 -107 513 0
-497 -108 514 0
-497 -109 515 0
-497 -110 516 0
-497 -111 517 0
-497 -112 518 0
-497 -113 519 0
-497 -114 520 0
-497 -115 521 0
-497 -116 522 0
-498 -117 494 0
-498 -118 495 0
-498 -119 496 0
-498 -120 497 0
-498 -121 499 0
-498 -122 500 0
-498 -123 501 0
-498 -124 502 0
-498 -125 503 0
-498 -126 504 0
-498 -127 505 0
-498 -128 506 0
-498 -129 507 0
-498 -130 508 0
-498 -131 509 0
-498 -132 510 0
-498 -134 511 0
-498 -135 512 0
-498 -136 513 0
-498 -137 514 0
-498 -138 515 0
-498 -139 516 0
-498 -140 517 0
-498 -141 518 0
-498 -142 519 0
-498 -143 520 0
-498 -144 521 0
-498 -145 522 0
-499 -146 494 0
-499 -147 495 0
-499 -148 496 0
-499 -149 497 0
-499 -150 498 0
-499 -151 500 0
-499 -152 501 0
-499 -153 502 0
-499 -154 503 0
-499 -155 504 0
-499 -156 505 0
-499 -157 506 0
-499 -158 507 0
-499 -159 508 0
-499 -160 509 0
-499 -161 510 0
-499 -163 511 0
-499 -164 512 0
-499 -165 513 0
-499 -166 514 0
-499 -167 515 0
-499 -168 516 0
-499 -169 517 0
-499 -170 518 0
-499 -171 519 0
-499 -172 520 0
-499 -173 521 0
-499 -174 522 0
-500 -175 494 0
-500 -176 495 0
-500 -177 496 0
-500 -178 497 0
-500 -179 498 0
-500 -180 499 0
-500 -181 501 0
-500 -182 502 0
-500 -183 503 0
-500 -184 504 0
-500 -185 505 0
-500 -186 506 0
-500 -187 507 0
-500 -188 508 0
-500 -189 509 0
-500 -190 510 0
-500 -192 511 0
-500 -193 512 0
-500 -194 513 0
-500 -195 514 0
-500 -196 515 0
-500 -197 516 0
-500 -198 517 0
-500 -199 518 0
-500 -200 519 0
-500 -201 520 0
-500 -202 521 0
-500 -203 522 0
-501 -204 494 0
-501 -205 495 0
-501 -206 496 0
-501 -207 497 0
-501 -208 498 0
-501 -209 499 0
-501 -210 500 0
-501 -211 502 0
-501 -212 503 0
-501 -213 504 0
-501 -214 505 0
-501 -215 506 0
-501 -216 507 0
-501 -217 508 0
-501 -218 509 0
-501 -219 510 0
-501 -221 511 0
-501 -222 512 0
-501 -223 513 0
-501 -224 514 0
-501 -225 515 0
-501 -226 516 0
-501 -227 517 0
-501 -228 518 0
-501 -229 519 0
-501 -230 520 0
-501 -231 521 0
-501 -232 522 0
-502 -233 494 0
-502 -234 495 0
-502 -235 496 0
-502 -236 497 0
-502 -237 498 0
-502 -238 499 0
-502 -239 500 0
-502 -240 501 0
-502 -241 503 0
-502 -242 504 0
-502 -243 505 0
-502 -244 506 0
-502 -245 507 0
-502 -246 508 0
-502 -247 509 0
-502 -248 510 0
-502 -250 511 0
-502 -251 512 0
-502 -252 513 0
-502 -253 514 0
-502 -254 515 0
-502 -255 516 0
-502 -256 517 0
-502 -257 518 0
-502 -258 519 0
-502 -259 520 0
-502 -260 521 0
-502 -261 522 0
-503 -262 494 0
-503 -263 495 0
-503 -264 496 0
-503 -265 497 0
-503 -266 498 0
-503 -267 499 0
-503 -268 500 0
-503 -269 501 0
-503 -270 502 0
-503 -271 504 0
-503 -272 505 0
-503 -273 506 0
-503 -274 507 0
-503 -275 508 0
-503 -276 509 0
-503 -277 510 0
-503 -279 511 0
-503 -280 512 0
-503 -281 513 0
-503 -282 514 0
-503 -283 515 0
-503 -284 516 0
-503 -285 517 0
-503 -286 518 0
-503 -287 519 0
-503 -288 520 0
-503 -289 521 0
-503 -290 522 0
-504 -291 494 0
-504 -292 495 0
-504 -293 496 0
-504 -294 497 0
-504 -295 498 0
-504 -296 499 0
-504 -297 500 0
-504 -298 501 0
-504 -299 502 0
-504 -300 503 0
-504 -301 505 0
-504 -302 506 0
-504 -303 507 0
-504 -304 508 0
-504 -305 509 0
-504 -306 510 0
-504 -308 511 0
-504 -309 512 0
-504 -310 513 0
-504 -311 514 0
-504 -312 515 0
-504 -313 516 0
-504 -314 517 0
-504 -315 518 0
-504 -316 519 0
-504 -317 520 0
-504 -318 521 0
-504 -319 522 0
-505 -320 494 0
-505 -321 495 0
-505 -322 496 0
-505 -323 497 0
-505 -324 498 0
-505 -325 499 0
-505 -326 500 0
-505 -327 501 0
-505 -328 502 0
-505 -329 503 0
-505 -330 504 0
-505 -331 506 0
-505 -332 507 0
-505 -333 508 0
-505 -334 509 0
-505 -335 510 0
-505 -337 511 0
-505 -338 512 0
-505 -339 513 0
-505 -340 514 0
-505 -341 515 0
-505 -342 516 0
-505 -343 517 0
-505 -344 518 0
-505 -345 519 0
-505 -346 520 0
-505 -347 521 0
-505 -348 522 0
-506 -349 494 0
-506 -350 495 0
-506 -351 496 0
-506 -352 497 0
-506 -353 498 0
-506 -354 499 0
-506 -355 500 0
-506 -356 501 0
-506 -357 502 0
-506 -358 503 0
-506 -359 504 0
-506 -360 505 0
-506 -361 507 0
-506 -362 508 0
-506 -363 509 0
-506 -364 510 0
-506 -366 511 0
-506 -367 512 0
-506 -368 513 0
-506 -369 514 0
-506 -370 515 0
-506 -371 516 0
-506 -372 517 0
-506 -373 518 0
-506 -374 519 0
-506 -375 520 0
-506 -376 521 0
-506 -377 522 0
-507 -378 494 0
-507 -379 495 0
-507 -380 496 0
-507 -381 497 0
-507 -382 498 0
-507 -383 499 0
-507 -384 500 0
-507 -385 501 0
-507 -386 502 0
-507 -387 503 0
-507 -388 504 0
-507 -389 505 0
-507 -390 506 0
-507 -391 508 0
-507 -392 509 0
-507 -393 510 0
-507 -395 511 0
-507 -396 512 0
-507 -397 513 0
-507 -398 514 0
-507 -399 515 0
-507 -400 516 0
-507 -401 517 0
-507 -402 518 0
-507 -403 519 0
-507 -404 520 0
-507 -405 521 0
-507 -406 522 0
-508 -407 494 0
-508 -408 495 0
-508 -409 496 0
-508 -410 497 0
-508 -411 498 0
-508 -412 499 0
-508 -413 500 0
-508 -414 501 0
-508 -415 502 0
-508 -416 503 0
-508 -417 504 0
-508 -418 505 0
-508 -419 506 0
-508 -420 507 0
-508 -421 509 0
-508 -422 510 0
-508 -424 511 0
-508 -425 512 0
-508 -426 513 0
-508 -427 514 0
-508 -428 515 0
-508 -429 516 0
-508 -430 517 0
-508 -431 518 0
-508 -432 519 0
-508 -433 520 0
-508 -434 521 0
-508 -435 522 0
-509 -436 494 0
-509 -437 495 0
-509 -438 496 0
-509 -439 497 0
-509 -440 498 0
-509 -441 499 0
-509 -442 500 0
-509 -443 501 0
-509 -444 502 0
-509 -445 503 0
-509 -446 504 0
-509 -447 505 0
-509 -448 506 0
-509 -449 507 0
-509 -450 508 0
-509 -451 510 0
-509 -453 511 0
-509 -454 512 0
-509 -455 513 0
-509 -456 514 0
-509 -457 515 0
-509 -458 516 0
-509 -459 517 0
-509 -460 518 0
-509 -461 519 0
-509 -462 520 0
-509 -463 521 0
-509 -464 522 0
-510 -465 494 0
-510 -466 495 0
-510 -467 496 0
-510 -468 497 0
-510 -469 498 0
-510 -470 499 0
-510 -471 500 0
-510 -472 501 0
-510 -473 502 0
-510 -474 503 0
-510 -475 504 0
-510 -476 505 0
-510 -477 506 0
-510 -478 507 0
-510 -479 508 0
-510 -480 509 0
-510 -482 511 0
-510 -483 512 0
-510 -484 513 0
-510 -485 514 0
-510 -486 515 0
-510 -487 516 0
-510 -488 517 0
-510 -489 518 0
-510 -490 519 0
-510 -491 520 0
-510 -492 521 0
-510 -493 522 0
-511 -523 494 0
-511 -524 495 0
-511 -525 496 0
-511 -526 497 0
-511 -527 498 0
-511 -528 499 0
-511 -529 500 0
-511 -530 501 0
-511 -531 502 0
-511 -532 503 0
-511 -533 504 0
-511 -534 505 0
-511 -535 506 0
-511 -536 507 0
-511 -537 508 0
-511 -538 509 0
-511 -539 510 0
-511 -541 512 0
-511 -542 513 0
-511 -543 514 0
-511 -544 515 0
-511 -545 516 0
-511 -546 517 0
-511 -547 518 0
-511 -548 519 0
-511 -549 520 0
-511 -550 521 0
-511 -551 522 0
-512 -552 494 0
-512 -553 495 0
-512 -554 496 0
-512 -555 497 0
-512 -556 498 0
-512 -557 499 0
-512 -558 500 0
-512 -559 501 0
-512 -560 502 0
-512 -561 503 0
-512 -562 504 0
-512 -563 505 0
-512 -564 506 0
-512 -565 507 0
-512 -566 508 0
-512 -567 509 0
-512 -568 510 0
-512 -570 511 0
-512 -571 513 0
-512 -572 514 0
-512 -573 515 0
-512 -574 516 0
-512 -575 517 0
-512 -576 518 0
-512 -577 519 0
-512 -578 520 0
-512 -579 521 0
-512 -580 522 0
-513 -581 494 0
-513 -582 495 0
-513 -583 496 0
-513 -584 497 0
-513 -585 498 0
-513 -586 499 0
-513 -587 500 0
-513 -588 501 0
-513 -589 502 0
-513 -590 503 0
-513 -591 504 0
-513 -592 505 0
-513 -593 506 0
-513 -594 507 0
-513 -595 508 0
-513 -596 509 0
-513 -597 510 0
-513 -599 511 0
-513 -600 512 0
-513 -601 514 0
-513 -602 515 0
-513 -603 516 0
-513 -604 517 0
-513 -605 518 0
-513 -606 519 0
-513 -607 520 0
-513 -608 521 0
-513 -609 522 0
-514 -610 494 0
-514 -611 495 0
-514 -612 496 0
-514 -613 497 0
-514 -614 498 0
-514 -615 499 0
-514 -616 500 0
-514 -617 501 0
-514 -618 502 0
-514 -619 503 0
-514 -620 504 0
-514 -621 505 0
-514 -622 506 0
-514 -623 507 0
-514 -624 508 0
-514 -625 509 0
-514 -626 510 0
-514 -628 511 0
-514 -629 512 0
-514 -630 513 0
-514 -631 515 0
-514 -632 516 0
-514 -633 517 0
-514 -634 518 0
-514 -635 519 0
-514 -636 520 0
-514 -637 521 0
-514 -638 522 0
-515 -639 494 0
-515 -640 495 0
-515 -641 496 0
-515 -642 497 0
-515 -643 498 0
-515 -644 499 0
-515 -645 500 0
-515 -646 501 0
-515 -647 502 0
-515 -648 503 0
-515 -649 504 0
-515 -650 505 0
-515 -651 506 0
-515 -652 507 0
-515 -653 508 0
-515 -654 509 0
-515 -655 510 0
-515 -657 511 0
-515 -658 512 0
-515 -659 513 0
-515 -660 514 0
-515 -661 516 0
-515 -662 517 0
-515 -663 518 0
-515 -664 519 0
-515 -665 520 0
-515 -666 521 0
-515 -667 522 0
-516 -668 494 0
-516 -669 495 0
-516 -670 496 0
-516 -671 497 0
-516 -672 498 0
-516 -673 499 0
-516 -674 500 0
-516 -675 501 0
-516 -676 502 0
-516 -677 503 0
-516 -678 504 0
-516 -679 505 0
-516 -680 506 0
-516 -681 507 0
-516 -682 508 0
-516 -683 509 0
-516 -684 510 0
-516 -686 511 0
-516 -687 512 0
-516 -688 513 0
-516 -689 514 0
-516 -690 515 0
-516 -691 517 0
-516 -692 518 0
-516 -693 519 0
-516 -694 520 0
-516 -695 521 0
-516 -696 522 0
-517 -697 494 0
-517 -698 495 0
-517 -699 496 0
-517 -700 497 0
-517 -701 498 0
-517 -702 499 0
-517 -703 500 0
-517 -704 501 0
-517 -705 502 0
-517 -706 503 0
-517 -707 504 0
-517 -708 505 0
-517 -709 506 0
-517 -710 507 0
-517 -711 508 0
-517 -712 509 0
-517 -713 510 0
-517 -715 511 0
-517 -716 512 0
-517 -717 513 0
-517 -718 514 0
-517 -719 515 0
-517 -720 516 0
-517 -721 518 0
-517 -722 519 0
-517 -723 520 0
-517 -724 521 0
-517 -725 522 0
-518 -726 494 0
-518 -727 495 0
-518 -728 496 0
-518 -729 497 0
-518 -730 498 0
-518 -731 499 0
-518 -732 500 0
-518 -733 501 0
-518 -734 502 0
-518 -735 503 0
-518 -736 504 0
-518 -737 505 0
-518 -738 506 0
-518 -739 507 0
-518 -740 508 0
-518 -741 509 0
-518 -742 510 0
-518 -744 511 0
-518 -745 512 0
-518 -746 513 0
-518 -747 514 0
-518 -748 515 0
-518 -749 516 0
-518 -750 517 0
-518 -751 519 0
-518 -752 520 0
-518 -753 521 0
-518 -754 522 0
-519 -755 494 0
-519 -756 495 0
-519 -757 496 0
-519 -758 497 0
-519 -759 498 0
-519 -760 499 0
-519 -761 500 0
-519 -762 501 0
-519 -763 502 0
-519 -764 503 0
-519 -765 504 0
-519 -766 505 0
-519 -767 506 0
-519 -768 507 0
-519 -769 508 0
-519 -770 509 0
-519 -771 510 0
-519 -773 511 0
-519 -774 512 0
-519 -775 513 0
-519 -776 514 0
-519 -777 515 0
-519 -778 516 0
-519 -779 517 0
-519 -780 518 0
-519 -781 520 0
-519 -782 521 0
-519 -783 522 0
-520 -784 494 0
-520 -785 495 0
-520 -786 496 0
-520 -787 497 0
-520 -788 498 0
-520 -789 499 0
-520 -790 500 0
-520 -791 501 0
-520 -792 502 0
-520 -793 503 0
-520 -794 504 0
-520 -795 505 0
-520 -796 506 0
-520 -797 507 0
-520 -798 508 0
-520 -799 509 0
-520 -800 510 0
-520 -802 511 0
-520 -803 512 0
-520 -804 513 0
-520 -805 514 0
-520 -806 515 0
-520 -807 516 0
-520 -808 517 0
-520 -809 518 0
-520 -810 519 0
-520 -811 521 0
-520 -812 522 0
-521 -813 494 0
-521 -814 495 0
-521 -815 496 0
-521 -816 497 0
-521 -817 498 0
-521 -818 499 0
-521 -819 500 0
-521 -820 501 0
-521 -821 502 0
-521 -822 503 0
-521 -823 504 0
-521 -824 505 0
-521 -825 506 0
-521 -826 507 0
-521 -827 508 0
-521 -828 509 0
-521 -829 510 0
-521 -831 511 0
-521 -832 512 0
-521 -833 513 0
-521 -834 514 0
-521 -835 515 0
-521 -836 516 0
-521 -837 517 0
-521 -838 518 0
-521 -839 519 0
-521 -840 520 0
-521 -841 522 0
-522 -842 494 0
-522 -843 495 0
-522 -844 496 0
-522 -845 497 0
-522 -846 498 0
-522 -847 499 0
-522 -848 500 0
-522 -849 501 0
-522 -850 502 0
-522 -851 503 0
-522 -852 504 0
-522 -853 505 0
-522 -854 506 0
-522 -855 507 0
-522 -856 508 0
-522 -857 509 0
-522 -858 510 0
-522 -860 511 0
-522 -861 512 0
-522 -862 513 0
-522 -863 514 0
-522 -864 515 0
-522 -865 516 0
-522 -866 517 0
-522 -867 518 0
-522 -868 519 0
-522 -869 520 0
-522 -870 521 0
-523 -1 524 0
-523 -2 525 0
-523 -3 526 0
-523 -4 527 0
-523 -5 528 0
-523 -6 529 0
-523 -7 530 0
-523 -8 531 0
-523 -9 532 0
-523 -10 533 0
-523 -11 534 0
-523 -12 535 0
-523 -13 536 0
-523 -14 537 0
-523 -15 538 0
-523 -16 539 0
-523 -17 540 0
-523 -19 541 0
-523 -20 542 0
-523 -21 543 0
-523 -22 544 0
-523 -23 545 0
-523 -24 546 0
-523 -25 547 0
-523 -26 548 0
-523 -27 549 0
-523 -28 550 0
-523 -29 551 0
-524 -30 523 0
-524 -31 525 0
-524 -32 526 0
-524 -33 527 0
-524 -34 528 0
-524 -35 529 0
-524 -36 530 0
-524 -37 531 0
-524 -38 532 0
-524 -39 533 0
-524 -40 534 0
-524 -41 535 0
-524 -42 536 0
-524 -43 537 0
-524 -44 538 0
-524 -45 539 0
-524 -46 540 0
-524 -48 541 0
-524 -49 542 0
-524 -50 543 0
-524 -51 544 0
-524 -52 545 0
-524 -53 546 0
-524 -54 547 0
-524 -55 548 0
-524 -56 549 0
-524 -57 550 0
-524 -58 551 0
-525 -59 523 0
-525 -60 524 0
-525 -61 526 0
-525 -62 527 0
-525 -63 528 0
-525 -64 529 0
-525 -65 530 0
-525 -66 531 0
-525 -67 532 0
-525 -68 533 0
-525 -69 534 0
-525 -70 535 0
-525 -71 536 0
-525 -72 537 0
-525 -73 538 0
-525 -74 539 0
-525 -75 540 0
-525 -77 541 0
-525 -78 542 0
-525 -79 543 0
-525 -80 544 0
-525 -81 545 0
-525 -82 546 0
-525 -83 547 0
-525 -84 548 0
-525 -85 549 0
-525 -86 550 0
-525 -87 551 0
-526 -88 523 0
-526 -89 524 0
-526 -90 525 0
-526 -91 527 0
-526 -92 528 0
-526 -93 529 0
-526 -94 530 0
-526 -95 531 0
-526 -96 532 0
-526 -97 533 0
-526 -98 534 0
-526 -99 535 0
-526 -100 536 0
-526 -101 537 0
-526 -102 538 0
-526 -103 539 0
-526 -104 540 0
-526 -106 541 0
-526 -107 542 0
-526 -108 543 0
-526 -109 544 0
-526 -110 545 0
-526 -111 546 0
-526 -112 547 0
-526 -113 548 0
-526 -114 549 0
-526 -115 550 0
-526 -116 551 0
-527 -117 523 0
-527 -118 524 0
-527 -119 525 0
-527 -120 526 0
-527 -121 528 0
-527 -122 529 0
-527 -123 530 0
-527 -124 531 0
-527 -125 532 0
-527 -126 533 0
-527 -127 534 0
-527 -128 535 0
-527 -129 536 0
-527 -130 537 0
-527 -131 538 0
-527 -132 539 0
-527 -133 540 0
-527 -135 541 0
-527 -136 542 0
-527 -137 543 0
-527 -138 544 0
-527 -139 545 0
-527 -140 546 0
-527 -141 547 0
-527 -142 548 0
-527 -143 549 0
-527 -144 550 0
-527 -145 551 0
-528 -146 523 0
-528 -147 524 0
-528 -148 525 0
-528 -149 526 0
-528 -150 527 0
-528 -151 529 0
-528 -152 530 0
-528 -153 531 0
-528 -154 532 0
-528 -155 533 0
-528 -156 534 0
-528 -157 535 0
-528 -158 536 0
-528 -159 537 0
-528 -160 538 0
-528 -161 539 0
-528 -162 540 0
-528 -164 541 0
-528 -165 542 0
-528 -166 543 0
-528 -167 544 0
-528 -168 545 0
-528 -169 546 0
-528 -170 547 0
-528 -171 548 0
-528 -172 549 0
-528 -173 550 0
-528 -174 551 0
-529 -175 523 0
-529 -176 524 0
-529 -177 525 0
-529 -178 526 0
-529 -179 527 0
-529 -180 528 0
-529 -181 530 0
-529 -182 531 0
-529 -183 532 0
-529 -184 533 0
-529 -185 534 0
-529 -186 535 0
-529 -187 536 0
-529 -188 537 0
-529 -189 538 0
-529 -190 539 0
-529 -191 540 0
-529 -193 541 0
-529 -194 542 0
-529 -195 543 0
-529 -196 544 0
-529 -197 545 0
-529 -198 546 0
-529 -199 547 0
-529 -200 548 0
-529 -201 549 0
-529 -202 550 0
-529 -203 551 0
-530 -204 523 0
-530 -205 524 0
-530 -206 525 0
-530 -207 526 0
-530 -208 527 0
-530 -209 528 0
-530 -210 529 0
-530 -211 531 0
-530 -212 532 0
-530 -213 533 0
-530 -214 534 0
-530 -215 535 0
-530 -216 536 0
-530 -217 537 0
-530 -218 538 0
-530 -219 539 0
-530 -220 540 0
-530 -222 541 0
-530 -223 542 0
-530 -224 543 0
-530 -225 544 0
-530 -226 545 0
-530 -227 546 0
-530 -228 547 0
-530 -229 548 0
-530 -230 549 0
-530 -231 550 0
-530 -232 551 0
-531 -233 523 0
-531 -234 524 0
-531 -235 525 0
-531 -236 526 0
-531 -237 527 0
-531 -238 528 0
-531 -239 529 0
-531 -240 530 0
-531 -241 532 0
-531 -242 533 0
-531 -243 534 0
-531 -244 535 0
-531 -245 536 0
-531 -246 537 0
-531 -247 538 0
-531 -248 539 0
-531 -249 540 0
-531 -251 541 0
-531 -252 542 0
-531 -253 543 0
-531 -254 544 0
-531 -255 545 0
-531 -256 546 0
-531 -257 547 0
-531 -258 548 0
-531 -259 549 0
-531 -260 550 0
-531 -261 551 0
-532 -262 523 0
-532 -263 524 0
-532 -264 525 0
-532 -265 526 0
-532 -266 527 0
-532 -267 528 0
-532 -268 529 0
-532 -269 530 0
-532 -270 531 0
-532 -271 533 0
-532 -272 534 0
-532 -273 535 0
-532 -274 536 0
-532 -275 537 0
-532 -276 538 0
-532 -277 539 0
-532 -278 540 0
-532 -280 541 0
-532 -281 542 0
-532 -282 543 0
-532 -283 544 0
-532 -284 545 0
-532 -285 546 0
-532 -286 547 0
-532 -287 548 0
-532 -288 549 0
-532 -289 550 0
-532 -290 551 0
-533 -291 523 0
-533 -292 524 0
-533 -293 525 0
-533 -294 526 0
-533 -295 527 0
-533 -296 528 0
-533 -297 529 0
-533 -298 530 0
-533 -299 531 0
-533 -300 532 0
-533 -301 534 0
-533 -302 535 0
-533 -303 536 0
-533 -304 537 0
-533 -305 538 0
-533 -306 539 0
-533 -307 540 0
-533 -309 541 0
-533 -310 542 0
-533 -311 543 0
-533 -312 544 0
-533 -313 545 0
-533 -314 546 0
-533 -315 547 0
-533 -316 548 0
-533 -317 549 0
-533 -318 550 0
-533 -319 551 0
-534 -320 523 0
-534 -321 524 0
-534 -322 525 0
-534 -323 526 0
-534 -324 527 0
-534 -325 528 0
-534 -326 529 0
-534 -327 530 0
-534 -328 531 0
-534 -329 532 0
-534 -330 533 0
-534 -331 535 0
-534 -332 536 0
-534 -333 537 0
-534 -334 538 0
-534 -335 539 0
-534 -336 540 0
-534 -338 541 0
-534 -339 542 0
-534 -340 543 0
-534 -341 544 0
-534 -342 545 0
-534 -343 546 0
-534 -344 547 0
-534 -345 548 0
-534 -346 549 0
-534 -347 550 0
-534 -348 551 0
-535 -349 523 0
-535 -350 524 0
-535 -351 525 0
-535 -352 526 0
-535 -353 527 0
-535 -354 528 0
-535 -355 529 0
-535 -356 530 0
-535 -357 531 0
-535 -358 532 0
-535 -359 533 0
-535 -360 534 0
-535 -361 536 0
-535 -362 537 0
-535 -363 538 0
-535 -364 539 0
-535 -365 540 0
-535 -367 541 0
-535 -368 542 0
-535 -369 543 0
-535 -370 544 0
-535 -371 545 0
-535 -372 546 0
-535 -373 547 0
-535 -374 548 0
-535 -375 549 0
-535 -376 550 0
-535 -377 551 0
-536 -378 523 0
-536 -379 524 0
-536 -380 525 0
-536 -381 526 0
-536 -382 527 0
-536 -383 528 0
-536 -384 529 0
-536 -385 530 0
-536 -386 531 0
-536 -387 532 0
-536 -388 533 0
-536 -389 534 0
-536 -390 535 0
-536 -391 537 0
-536 -392 538 0
-536 -393 539 0
-536 -394 540 0
-536 -396 541 0
-536 -397 542 0
-536 -398 543 0
-536 -399 544 0
-536 -400 545 0
-536 -401 546 0
-536 -402 547 0
-536 -403 548 0
-536 -404 549 0
-536 -405 550 0
-536 -406 551 0
-537 -407 523 0
-537 -408 524 0
-537 -409 525 0
-537 -410 526 0
-537 -411 527 0
-537 -412 528 0
-537 -413 529 0
-537 -414 530 0
-537 -415 531 0
-537 -416 532 0
-537 -417 533 0
-537 -418 534 0
-537 -419 535 0
-537 -420 536 0
-537 -421 538 0
-537 -422 539 0
-537 -423 540 0
-537 -425 541 0
-537 -426 542 0
-537 -427 543 0
-537 -428 544 0
-537 -429 545 0
-537 -430 546 0
-537 -431 547 0
-537 -432 548 0
-537 -433 549 0
-537 -434 550 0
-537 -435 551 0
-538 -436 523 0
-538 -437 524 0
-538 -438 525 0
-538 -439 526 0
-538 -440 527 0
-538 -441 528 0
-538 -442 529 0
-538 -443 530 0
-538 -444 531 0
-538 -445 532 0
-538 -446 533 0
-538 -447 534 0
-538 -448 535 0
-538 -449 536 0
-538 -450 537 0
-538 -451 539 0
-538 -452 540 0
-538 -454 541 0
-538 -455 542 0
-538 -456 543 0
-538 -457 544 0
-538 -458 545 0
-538 -459 546 0
-538 -460 547 0
-538 -461 548 0
-538 -462 549 0
-538 -463 550 0
-538 -464 551 0
-539 -465 523 0
-539 -466 524 0
-539 -467 525 0
-539 -468 526 0
-539 -469 527 0
-539 -470 528 0
-539 -471 529 0
-539 -472 530 0
-539 -473 531 0
-539 -474 532 0
-539 -475 533 0
-539 -476 534 0
-539 -477 535 0
-539 -478 536 0
-539 -479 537 0
-539 -480 538 0
-539 -481 540 0
-539 -483 541 0
-539 -484 542 0
-539 -485 543 0
-539 -486 544 0
-539 -487 545 0
-539 -488 546 0
-539 -489 547 0
-539 -490 548 0
-539 -491 549 0
-539 -492 550 0
-539 -493 551 0
-540 -494 523 0
-540 -495 524 0
-540 -496 525 0
-540 -497 526 0
-540 -498 527 0
-540 -499 528 0
-540 -500 529 0
-540 -501 530 0
-540 -502 531 0
-540 -503 532 0
-540 -504 533 0
-540 -505 534 0
-540 -506 535 0
-540 -507 536 0
-540 -508 537 0
-540 -509 538 0
-540 -510 539 0
-540 -512 541 0
-540 -513 542 0
-540 -514 543 0
-540 -515 544 0
-540 -516 545 0
-540 -517 546 0
-540 -518 547 0
-540 -519 548 0
-540 -520 549 0
-540 -521 550 0
-540 -522 551 0
-541 -552 523 0
-541 -553 524 0
-541 -554 525 0
-541 -555 526 0
-541 -556 527 0
-541 -557 528 0
-541 -558 529 0
-541 -559 530 0
-541 -560 531 0
-541 -561 532 0
-541 -562 533 0
-541 -563 534 0
-541 -564 535 0
-541 -565 536 0
-541 -566 537 0
-541 -567 538 0
-541 -568 539 0
-541 -569 540 0
-541 -571 542 0
-541 -572 543 0
-541 -573 544 0
-541 -574 545 0
-541 -575 546 0
-541 -576 547 0
-541 -577 548 0
-541 -578 549 0
-541 -579 550 0
-541 -580 551 0
-542 -581 523 0
-542 -582 524 0
-542 -583 525 0
-542 -584 526 0
-542 -585 527 0
-542 -586 528 0
-542 -587 529 0
-542 -588 530 0
-542 -589 531 0
-542 -590 532 0
-542 -591 533 0
-542 -592 534 0
-542 -593 535 0
-542 -594 536 0
-542 -595 537 0
-542 -596 538 0
-542 -597 539 0
-542 -598 540 0
-542 -600 541 0
-542 -601 543 0
-542 -602 544 0
-542 -603 545 0
-542 -604 546 0
-542 -605 547 0
-542 -606 548 0
-542 -607 549 0
-542 -608 550 0
-542 -609 551 0
-543 -610 523 0
-543 -611 524 0
-543 -612 525 0
-543 -613 526 0
-543 -614 527 0
-543 -615 528 0
-543 -616 529 0
-543 -617 530 0
-543 -618 531 0
-543 -619 532 0
-543 -620 533 0
-543 -621 534 0
-543 -622 535 0
-543 -623 536 0
-543 -624 537 0
-543 -625 538 0
-543 -626 539 0
-543 -627 540 0
-543 -629 541 0
-543 -630 542 0
-543 -631 544 0
-543 -632 545 0
-543 -633 546 0
-543 -634 547 0
-543 -635 548 0
-543 -636 549 0
-543 -637 550 0
-543 -638 551 0
-544 -639 523 0
-544 -640 524 0
-544 -641 525 0
-544 -642 526 0
-544 -643 527 0
-544 -644 528 0
-544 -645 529 0
-544 -646 530 0
-544 -647 531 0
-544 -648 532 0
-544 -649 533 0
-544 -650 534 0
-544 -651 535 0
-544 -652 536 0
-544 -653 537 0
-544 -654 538 0
-544 -655 539 0
-544 -656 540 0
-544 -658 541 0
-544 -659 542 0
-544 -660 543 0
-544 -661 545 0
-544 -662 546 0
-544 -663 547 0
-544 -664 548 0
-544 -665 549 0
-544 -666 550 0
-544 -667 551 0
-545 -668 523 0
-545 -669 524 0
-545 -670 525 0
-545 -671 526 0
-545 -672 527 0
-545 -673 528 0
-545 -674 529 0
-545 -675 530 0
-545 -676 531 0
-545 -677 532 0
-545 -678 533 0
-545 -679 534 0
-545 -680 535 0
-545 -681 536 0
-545 -682 537 0
-545 -683 538 0
-545 -684 539 0
-545 -685 540 0
-545 -687 541 0
-545 -688 542 0
-545 -689 543 0
-545 -690 544 0
-545 -691 546 0
-545 -692 547 0
-545 -693 548 0
-545 -694 549 0
-545 -695 550 0
-545 -696 551 0
-546 -697 523 0
-546 -698 524 0
-546 -699 525 0
-546 -700 526 0
-546 -701 527 0
-546 -702 528 0
-546 -703 529 0
-546 -704 530 0
-546 -705 531 0
-546 -706 532 0
-546 -707 533 0
-546 -708 534 0
-546 -709 535 0
-546 -710 536 0
-546 -711 537 0
-546 -712 538 0
-546 -713 539 0
-546 -714 540 0
-546 -716 541 0
-546 -717 542 0
-546 -718 543 0
-546 -719 544 0
-546 -720 545 0
-546 -721 547 0
-546 -722 548 0
-546 -723 549 0
-546 -724 550 0
-546 -725 551 0
-547 -726 523 0
-547 -727 524 0
-547 -728 525 0
-547 -729 526 0
-547 -730 527 0
-547 -731 528 0
-547 -732 529 0
-547 -733 530 0
-547 -734 531 0
-547 -735 532 0
-547 -736 533 0
-547 -737 534 0
-547 -738 535 0
-547 -739 536 0
-547 -740 537 0
-547 -741 538 0
-547 -742 539 0
-547 -743 540 0
-547 -745 541 0
-547 -746 542 0
-547 -747 543 0
-547 -748 544 0
-547 -749 545 0
-547 -750 546 0
-547 -751 548 0
-547 -752 549 0
-547 -753 550 0
-547 -754 551 0
-548 -755 523 0
-548 -756 524 0
-548 -757 525 0
-548 -758 526 0
-548 -759 527 0
-548 -760 528 0
-548 -761 529 0
-548 -762 530 0
-548 -763 531 0
-548 -764 532 0
-548 -765 533 0
-548 -766 534 0
-548 -767 535 0
-548 -768 536 0
-548 -769 537 0
-548 -770 538 0
-548 -771 539 0
-548 -772 540 0
-548 -774 541 0
-548 -775 542 0
-548 -776 543 0
-548 -777 544 0
-548 -778 545 0
-548 -779 546 0
-548 -780 547 0
-548 -781 549 0
-548 -782 550 0
-548 -783 551 0
-549 -784 523 0
-549 -785 524 0
-549 -786 525 0
-549 -787 526 0
-549 -788 527 0
-549 -789 528 0
-549 -790 529 0
-549 -791 530 0
-549 -792 531 0
-549 -793 532 0
-549 -794 533 0
-549 -795 534 0
-549 -796 535 0
-549 -797 536 0
-549 -798 537 0
-549 -799 538 0
-549 -800 539 0
-549 -801 540 0
-549 -803 541 0
-549 -804 542 0
-549 -805 543 0
-549 -806 544 0
-549 -807 545 0
-549 -808 546 0
-549 -809 547 0
-549 -810 548 0
-549 -811 550 0
-549 -812 551 0
-550 -813 523 0
-550 -814 524 0
-550 -815 525 0
-550 -816 526 0
-550 -817 527 0
-550 -818 528 0
-550 -819 529 0
-550 -820 530 0
-550 -821 531 0
-550 -822 532 0
-550 -823 533 0
-550 -824 534 0
-550 -825 535 0
-550 -826 536 0
-550 -827 537 0
-550 -828 538 0
-550 -829 539 0
-550 -830 540 0
-550 -832 541 0
-550 -833 542 0
-550 -834 543 0
-550 -835 544 0
-550 -836 545 0
-550 -837 546 0
-550 -838 547 0
-550 -839 548 0
-550 -840 549 0
-550 -841 551 0
-551 -842 523 0
-551 -843 524 0
-551 -844 525 0
-551 -845 526 0
-551 -846 527 0
-551 -847 528 0
-551 -848 529 0
-551 -849 530 0
-551 -850 531 0
-551 -851 532 0
-551 -852 533 0
-551 -853 534 0
-551 -854 535 0
-551 -855 536 0
-551 -856 537 0
-551 -857 538 0
-551 -858 539 0
-551 -859 540 0
-551 -861 541 0
-551 -862 542 0
-551 -863 543 0
-551 -864 544 0
-551 -865 545 0
-551 -866 546 0
-551 -867 547 0
-551 -868 548 0
-551 -869 549 0
-551 -870 550 0
-552 -1 553 0
-552 -2 554 0
-552 -3 555 0
-552 -4 556 0
-552 -5 557 0
-552 -6 558 0
-552 -7 559 0
-552 -8 560 0
-552 -9 561 0
-552 -10 562 0
-552 -11 563 0
-552 -12 564 0
-552 -13 565 0
-552 -14 566 0
-552 -15 567 0
-552 -16 568 0
-552 -17 569 0
-552 -18 570 0
-552 -20 571 0
-552 -21 572 0
-552 -22 573 0
-552 -23 574 0
-552 -24 575 0
-552 -25 576 0
-552 -26 577 0
-552 -27 578 0
-552 -28 579 0
-552 -29 580 0
-553 -30 552 0
-553 -31 554 0
-553 -32 555 0
-553 -33 556 0
-553 -34 557 0
-553 -35 558 0
-553 -36 559 0
-553 -37 560 0
-553 -38 561 0
-553 -39 562 0
-553 -40 563 0
-553 -41 564 0
-553 -42 565 0
-553 -43 566 0
-553 -44 567 0
-553 -45 568 0
-553 -46 569 0
-553 -47 570 0
-553 -49 571 0
-553 -50 572 0
-553 -51 573 0
-553 -52 574 0
-553 -53 575 0
-553 -54 576 0
-553 -55 577 0
-553 -56 578 0
-553 -57 579 0
-553 -58 580 0
-554 -59 552 0
-554 -60 553 0
-554 -61 555 0
-554 -62 556 0
-554 -63 557 0
-554 -64 558 0
-554 -65 559 0
-554 -66 560 0
-554 -67 561 0
-554 -68 562 0
-554 -69 563 0
-554 -70 564 0
-554 -71 565 0
-554 -72 566 0
-554 -73 567 0
-554 -74 568 0
-554 -75 569 0
-554 -76 570 0
-554 -78 571 0
-554 -79 572 0
-554 -80 573 0
-554 -81 574 0
-554 -82 575 0
-554 -83 576 0
-554 -84 577 0
-554 -85 578 0
-554 -86 579 0
-554 -87 580 0
-555 -88 552 0
-555 -89 553 0
-555 -90 554 0
-555 -91 556 0
-555 -92 557 0
-555 -93 558 0
-555 -94 559 0
-555 -95 560 0
-555 -96 561 0
-555 -97 562 0
-555 -98 563 0
-555 -99 564 0
-555 -100 565 0
-555 -101 566 0
-555 -102 567 0
-555 -103 568 0
-555 -104 569 0
-555 -105 570 0
-555 -107 571 0
-555 -108 572 0
-555 -109 573 0
-555 -110 574 0
-555 -111 575 0
-555 -112 576 0
-555 -113 577 0
-555 -114 578 0
-555 -115 579 0
-555 -116 580 0
-556 -117 552 0
-556 -118 553 0
-556 -119 554 0
-556 -120 555 0
-556 -121 557 0
-556 -122 558 0
-556 -123 559 0
-556 -124 560 0
-556 -125 561 0
-556 -126 562 0
-556 -127 563 0
-556 -128 564 0
-556 -129 565 0
-556 -130 566 0
-556 -131 567 0
-556 -132 568 0
-556 -133 569 0
-556 -134 570 0
-556 -136 571 0
-556 -137 572 0
-556 -138 573 0
-556 -139 574 0
-556 -140 575 0
-556 -141 576 0
-556 -142 577 0
-556 -143 578 0
-556 -144 579 0
-556 -145 580 0
-557 -146 552 0
-557 -147 553 0
-557 -148 554 0
-557 -149 555 0
-557 -150 556 0
-557 -151 558 0
-557 -152 559 0
-557 -153 560 0
-557 -154 561 0
-557 -155 562 0
-557 -156 563 0
-557 -157 564 0
-557 -158 565 0
-557 -159 566 0
-557 -160 567 0
-557 -161 568 0
-557 -162 569 0
-557 -163 570 0
-557 -165 571 0
-557 -166 572 0
-557 -167 573 0
-557 -168 574 0
-557 -169 575 0
-557 -170 576 0
-557 -171 577 0
-557 -172 578 0
-557 -173 579 0
-557 -174 580 0
-558 -175 552 0
-558 -176 553 0
-558 -177 554 0
-558 -178 555 0
-558 -179 556 0
-558 -180 557 0
-558 -181 559 0
-558 -182 560 0
-558 -183 561 0
-558 -184 562 0
-558 -185 563 0
-558 -186 564 0
-558 -187 565 0
-558 -188 566 0
-558 -189 567 0
-558 -190 568 0
-558 -191 569 0
-558 -192 570 0
-558 -194 571 0
-558 -195 572 0
-558 -196 573 0
-558 -197 574 0
-558 -198 575 0
-558 -199 576 0
-558 -200 577 0
-558 -201 578 0
-558 -202 579 0
-558 -203 580 0
-559 -204 552 0
-559 -205 553 0
-559 -206 554 0
-559 -207 555 0
-559 -208 556 0
-559 -209 557 0
-559 -210 558 0
-559 -211 560 0
-559 -212 561 0
-559 -213 562 0
-559 -214 563 0
-559 -215 564 0
-559 -216 565 0
-559 -217 566 0
-559 -218 567 0
-559 -219 568 0
-559 -220 569 0
-559 -221 570 0
-559 -223 571 0
-559 -224 572 0
-559 -225 573 0
-559 -226 574 0
-559 -227 575 0
-559 -228 576 0
-559 -229 577 0
-559 -230 578 0
-559 -231 579 0
-559 -232 580 0
-560 -233 552 0
-560 -234 553 0
-560 -235 554 0
-560 -236 555 0
-560 -237 556 0
-560 -238 557 0
-560 -239 558 0
-560 -240 559 0
-560 -241 561 0
-560 -242 562 0
-560 -243 563 0
-560 -244 564 0
-560 -245 565 0
-560 -246 566 0
-560 -247 567 0
-560 -248 568 0
-560 -249 569 0
-560 -250 570 0
-560 -252 571 0
-560 -253 572 0
-560 -254 573 0
-560 -255 574 0
-560 -256 575 0
-560 -257 576 0
-560 -258 577 0
-560 -259 578 0
-560 -260 579 0
-560 -261 580 0
-561 -262 552 0
-561 -263 553 0
-561 -264 554 0
-561 -265 555 0
-561 -266 556 0
-561 -267 557 0
-561 -268 558 0
-561 -269 559 0
-561 -270 560 0
-561 -271 562 0
-561 -272 563 0
-561 -273 564 0
-561 -274 565 0
-561 -275 566 0
-561 -276 567 0
-561 -277 568 0
-561 -278 569 0
-561 -279 570 0
-561 -281 571 0
-561 -282 572 0
-561 -283 573 0
-561 -284 574 0
-561 -285 575 0
-561 -286 576 0
-561 -287 577 0
-561 -288 578 0
-561 -289 579 0
-561 -290 580 0
-562 -291 552 0
-562 -292 553 0
-562 -293 554 0
-562 -294 555 0
-562 -295 556 0
-562 -296 557 0
-562 -297 558 0
-562 -298 559 0
-562 -299 560 0
-562 -300 561 0
-562 -301 563 0
-562 -302 564 0
-562 -303 565 0
-562 -304 566 0
-562 -305 567 0
-562 -306 568 0
-562 -307 569 0
-562 -308 570 0
-562 -310 571 0
-562 -311 572 0
-562 -312 573 0
-562 -313 574 0
-562 -314 575 0
-562 -315 576 0
-562 -316 577 0
-562 -317 578 0
-562 -318 579 0
-562 -319 580 0
-563 -320 552 0
-563 -321 553 0
-563 -322 554 0
-563 -323 555 0
-563 -324 556 0
-563 -325 557 0
-563 -326 558 0
-563 -327 559 0
-563 -328 560 0
-563 -329 561 0
-563 -330 562 0
-563 -331 564 0
-563 -332 565 0
-563 -333 566 0
-563 -334 567 0
-563 -335 568 0
-563 -336 569 0
-563 -337 570 0
-563 -339 571 0
-563 -340 572 0
-563 -341 573 0
-563 -342 574 0
-563 -343 575 0
-563 -344 576 0
-563 -345 577 0
-563 -346 578 0
-563 -347 579 0
-563 -348 580 0
-564 -349 552 0
-564 -350 553 0
-564 -351 554 0
-564 -352 555 0
-564 -353 556 0
-564 -354 557 0
-564 -355 558 0
-564 -356 559 0
-564 -357 560 0
-564 -358 561 0
-564 -359 562 0
-564 -360 563 0
-564 -361 565 0
-564 -362 566 0
-564 -363 567 0
-564 -364 568 0
-564 -365 569 0
-564 -366 570 0
-564 -368 571 0
-564 -369 572 0
-564 -370 573 0
-564 -371 574 0
-564 -372 575 0
-564 -373 576 0
-564 -374 577 0
-564 -375 578 0
-564 -376 579 0
-564 -377 580 0
-565 -378 552 0
-565 -379 553 0
-565 -380 554 0
-565 -381 555 0
-565 -382 556 0
-565 -383 557 0
-565 -384 558 0
-565 -385 559 0
-565 -386 560 0
-565 -387 561 0
-565 -388 562 0
-565 -389 563 0
-565 -390 564 0
-565 -391 566 0
-565 -392 567 0
-565 -393 568 0
-565 -394 569 0
-565 -395 570 0
-565 -397 571 0
-565 -398 572 0
-565 -399 573 0
-565 -400 574 0
-565 -401 575 0
-565 -402 576 0
-565 -403 577 0
-565 -404 578 0
-565 -405 579 0
-565 -406 580 0
-566 -407 552 0
-566 -408 553 0
-566 -409 554 0
-566 -410 555 0
-566 -411 556 0
-566 -412 557 0
-566 -413 558 0
-566 -414 559 0
-566 -415 560 0
-566 -416 561 0
-566 -417 562 0
-566 -418 563 0
-566 -419 564 0
-566 -420 565 0
-566 -421 567 0
-566 -422 568 0
-566 -423 569 0
-566 -424 570 0
-566 -426 571 0
-566 -427 572 0
-566 -428 573 0
-566 -429 574 0
-566 -430 575 0
-566 -431 576 0
-566 -432 577 0
-566 -433 578 0
-566 -434 579 0
-566 -435 580 0
-567 -436 552 0
-567 -437 553 0
-567 -438 554 0
-567 -439 555 0
-567 -440 556 0
-567 -441 557 0
-567 -442 558 0
-567 -443 559 0
-567 -444 560 0
-567 -445 561 0
-567 -446 562 0
-567 -447 563 0
-567 -448 564 0
-567 -449 565 0
-567 -450 566 0
-567 -451 568 0
-567 -452 569 0
-567 -453 570 0
-567 -455 571 0
-567 -456 572 0
-567 -457 573 0
-567 -458 574 0
-567 -459 575 0
-567 -460 576 0
-567 -461 577 0
-567 -462 578 0
-567 -463 579 0
-567 -464 580 0
-568 -465 552 0
-568 -466 553 0
-568 -467 554 0
-568 -468 555 0
-568 -469 556 0
-568 -470 557 0
-568 -471 558 0
-568 -472 559 0
-568 -473 560 0
-568 -474 561 0
-568 -475 562 0
-568 -476 563 0
-568 -477 564 0
-568 -478 565 0
-568 -479 566 0
-568 -480 567 0
-568 -481 569 0
-568 -482 570 0
-568 -484 571 0
-568 -485 572 0
-568 -486 573 0
-568 -487 574 0
-568 -488 575 0
-568 -489 576 0
-568 -490 577 0
-568 -491 578 0
-568 -492 579 0
-568 -493 580 0
-569 -494 552 0
-569 -495 553 0
-569 -496 554 0
-569 -497 555 0
-569 -498 556 0
-569 -499 557 0
-569 -500 558 0
-569 -501 559 0
-569 -502 560 0
-569 -503 561 0
-569 -504 562 0
-569 -505 563 0
-569 -506 564 0
-569 -507 565 0
-569 -508 566 0
-569 -509 567 0
-569 -510 568 0
-569 -511 570 0
-569 -513 571 0
-569 -514 572 0
-569 -515 573 0
-569 -516 574 0
-569 -517 575 0
-569 -518 576 0
-569 -519 577 0
-569 -520 578 0
-569 -521 579 0
-569 -522 580 0
-570 -523 552 0
-570 -524 553 0
-570 -525 554 0
-570 -526 555 0
-570 -527 556 0
-570 -528 557 0
-570 -529 558 0
-570 -530 559 0
-570 -531 560 0
-570 -532 561 0
-570 -533 562 0
-570 -534 563 0
-570 -535 564 0
-570 -536 565 0
-570 -537 566 0
-570 -538 567 0
-570 -539 568 0
-570 -540 569 0
-570 -542 571 0
-570 -543 572 0
-570 -544 573 0
-570 -545 574 0
-570 -546 575 0
-570 -547 576 0
-570 -548 577 0
-570 -549 578 0
-570 -550 579 0
-570 -551 580 0
-571 -581 552 0
-571 -582 553 0
-571 -583 554 0
-571 -584 555 0
-571 -585 556 0
-571 -586 557 0
-571 -587 558 0
-571 -588 559 0
-571 -589 560 0
-571 -590 561 0
-571 -591 562 0
-571 -592 563 0
-571 -593 564 0
-571 -594 565 0
-571 -595 566 0
-571 -596 567 0
-571 -597 568 0
-571 -598 569 0
-571 -599 570 0
-571 -601 572 0
-571 -602 573 0
-571 -603 574 0
-571 -604 575 0
-571 -605 576 0
-571 -606 577 0
-571 -607 578 0
-571 -608 579 0
-571 -609 580 0
-572 -610 552 0
-572 -611 553 0
-572 -612 554 0
-572 -613 555 0
-572 -614 556 0
-572 -615 557 0
-572 -616 558 0
-572 -617 559 0
-572 -618 560 0
-572 -619 561 0
-572 -620 562 0
-572 -621 563 0
-572 -622 564 0
-572 -623 565 0
-572 -624 566 0
-572 -625 567 0
-572 -626 568 0
-572 -627 569 0
-572 -628 570 0
-572 -630 571 0
-572 -631 573 0
-572 -632 574 0
-572 -633 575 0
-572 -634 576 0
-572 -635 577 0
-572 -636 578 0
-572 -637 579 0
-572 -638 580 0
-573 -639 552 0
-573 -640 553 0
-573 -641 554 0
-573 -642 555 0
-573 -643 556 0
-573 -644 557 0
-573 -645 558 0
-573 -646 559 0
-573 -647 560 0
-573 -648 561 0
-573 -649 562 0
-573 -650 563 0
-573 -651 564 0
-573 -652 565 0
-573 -653 566 0
-573 -654 567 0
-573 -655 568 0
-573 -656 569 0
-573 -657 570 0
-573 -659 571 0
-573 -660 572 0
-573 -661 574 0
-573 -662 575 0
-573 -663 576 0
-573 -664 577 0
-573 -665 578 0
-573 -666 579 0
-573 -667 580 0
-574 -668 552 0
-574 -669 553 0
-574 -670 554 0
-574 -671 555 0
-574 -672 556 0
-574 -673 557 0
-574 -674 558 0
-574 -675 559 0
-574 -676 560 0
-574 -677 561 0
-574 -678 562 0
-574 -679 563 0
-574 -680 564 0
-574 -681 565 0
-574 -682 566 0
-574 -683 567 0
-574 -684 568 0
-574 -685 569 0
-574 -686 570 0
-574 -688 571 0
-574 -689 572 0
-574 -690 573 0
-574 -691 575 0
-574 -692 576 0
-574 -693 577 0
-574 -694 578 0
-574 -695 579 0
-574 -696 580 0
-575 -697 552 0
-575 -698 553 0
-575 -699 554 0
-575 -700 555 0
-575 -701 556 0
-575 -702 557 0
-575 -703 558 0
-575 -704 559 0
-575 -705 560 0
-575 -706 561 0
-575 -707 562 0
-575 -708 563 0
-575 -709 564 0
-575 -710 565 0
-575 -711 566 0
-575 -712 567 0
-575 -713 568 0
-575 -714 569 0
-575 -715 570 0
-575 -717 571 0
-575 -718 572 0
-575 -719 573 0
-575 -720 574 0
-575 -721 576 0
-575 -722 577 0
-575 -723 578 0
-575 -724 579 0
-575 -725 580 0
-576 -726 552 0
-576 -727 553 0
-576 -728 554 0
-576 -729 555 0
-576 -730 556 0
-576 -731 557 0
-576 -732 558 0
-576 -733 559 0
-576 -734 560 0
-576 -735 561 0
-576 -736 562 0
-576 -737 563 0
-576 -738 564 0
-576 -739 565 0
-576 -740 566 0
-576 -741 567 0
-576 -742 568 0
-576 -743 569 0
-576 -744 570 0
-576 -746 571 0
-576 -747 572 0
-576 -748 573 0
-576 -749 574 0
-576 -750 575 0
-576 -751 577 0
-576 -752 578 0
-576 -753 579 0
-576 -754 580 0
-577 -755 552 0
-577 -756 553 0
-577 -757 554 0
-577 -758 555 0
-577 -759 556 0
-577 -760 557 0
-577 -761 558 0
-577 -762 559 0
-577 -763 560 0
-577 -764 561 0
-577 -765 562 0
-577 -766 563 0
-577 -767 564 0
-577 -768 565 0
-577 -769 566 0
-577 -770 567 0
-577 -771 568 0
-577 -772 569 0
-577 -773 570 0
-577 -775 571 0
-577 -776 572 0
-577 -777 573 0
-577 -778 574 0
-577 -779 575 0
-577 -780 576 0
-577 -781 578 0
-577 -782 579 0
-577 -783 580 0
-578 -784 552 0
-578 -785 553 0
-578 -786 554 0
-578 -787 555 0
-578 -788 556 0
-578 -789 557 0
-578 -790 558 0
-578 -791 559 0
-578 -792 560 0
-578 -793 561 0
-578 -794 562 0
-578 -795 563 0
-578 -796 564 0
-578 -797 565 0
-578 -798 566 0
-578 -799 567 0
-578 -800 568 0
-578 -801 569 0
-578 -802 570 0
-578 -804 571 0
-578 -805 572 0
-578 -806 573 0
-578 -807 574 0
-578 -808 575 0
-578 -809 576 0
-578 -810 577 0
-578 -811 579 0
-578 -812 580 0
-579 -813 552 0
-579 -814 553 0
-579 -815 554 0
-579 -816 555 0
-579 -817 556 0
-579 -818 557 0
-579 -819 558 0
-579 -820 559 0
-579 -821 560 0
-579 -822 561 0
-579 -823 562 0
-579 -824 563 0
-579 -825 564 0
-579 -826 565 0
-579 -827 566 0
-579 -828 567 0
-579 -829 568 0
-579 -830 569 0
-579 -831 570 0
-579 -833 571 0
-579 -834 572 0
-579 -835 573 0
-579 -836 574 0
-579 -837 575 0
-579 -838 576 0
-579 -839 577 0
-579 -840 578 0
-579 -841 580 0
-580 -842 552 0
-580 -843 553 0
-580 -844 554 0
-580 -845 555 0
-580 -846 556 0
-580 -847 557 0
-580 -848 558 0
-580 -849 559 0
-580 -850 560 0
-580 -851 561 0
-580 -852 562 0
-580 -853 563 0
-580 -854 564 0
-580 -855 565 0
-580 -856 566 0
-580 -857 567 0
-580 -858 568 0
-580 -859 569 0
-580 -860 570 0
-580 -862 571 0
-580 -863 572 0
-580 -864 573 0
-580 -865 574 0
-580 -866 575 0
-580 -867 576 0
-580 -868 577 0
-580 -869 578 0
-580 -870 579 0
-581 -1 582 0
-581 -2 583 0
-581 -3 584 0
-581 -4 585 0
-581 -5 586 0
-581 -6 587 0
-581 -7 588 0
-581 -8 589 0
-581 -9 590 0
-581 -10 591 0
-581 -11 592 0
-581 -12 593 0
-581 -13 594 0
-581 -14 595 0
-581 -15 596 0
-581 -16 597 0
-581 -17 598 0
-581 -18 599 0
-581 -19 600 0
-581 -21 601 0
-581 -22 602 0
-581 -23 603 0
-581 -24 604 0
-581 -25 605 0
-581 -26 606 0
-581 -27 607 0
-581 -28 608 0
-581 -29 609 0
-582 -30 581 0
-582 -31 583 0
-582 -32 584 0
-582 -33 585 0
-582 -34 586 0
-582 -35 587 0
-582 -36 588 0
-582 -37 589 0
-582 -38 590 0
-582 -39 591 0
-582 -40 592 0
-582 -41 593 0
-582 -42 594 0
-582 -43 595 0
-582 -44 596 0
-582 -45 597 0
-582 -46 598 0
-582 -47 599 0
-582 -48 600 0
-582 -50 601 0
-582 -51 602 0
-582 -52 603 0
-582 -53 604 0
-582 -54 605 0
-582 -55 606 0
-582 -56 607 0
-582 -57 608 0
-582 -58 609 0
-583 -59 581 0
-583 -60 582 0
-583 -61 584 0
-583 -62 585 0
-583 -63 586 0
-583 -64 587 0
-583 -65 588 0
-583 -66 589 0
-583 -67 590 0
-583 -68 591 0
-583 -69 592 0
-583 -70 593 0
-583 -71 594 0
-583 -72 595 0
-583 -73 596 0
-583 -74 597 0
-583 -75 598 0
-583 -76 599 0
-583 -77 600 0
-583 -79 601 0
-583 -80 602 0
-583 -81 603 0
-583 -82 604 0
-583 -83 605 0
-583 -84 606 0
-583 -85 607 0
-583 -86 608 0
-583 -87 609 0
-584 -88 581 0
-584 -89 582 0
-584 -90 583 0
-584 -91 585 0
-584 -92 586 0
-584 -93 587 0
-584 -94 588 0
-584 -95 589 0
-584 -96 590 0
-584 -97 591 0
-584 -98 592 0
-584 -99 593 0
-584 -100 594 0
-584 -101 595 0
-584 -102 596 0
-584 -103 597 0
-584 -104 598 0
-584 -105 599 0
-584 -106 600 0
-584 -108 601 0
-584 -109 602 0
-584 -110 603 0
-584 -111 604 0
-584 -112 605 0
-584 -113 606 0
-584 -114 607 0
-584 -115 608 0
-584 -116 609 0
-585 -117 581 0
-585 -118 582 0
-585 -119 583 0
-585 -120 584 0
-585 -121 586 0
-585 -122 587 0
-585 -123 588 0
-585 -124 589 0
-585 -125 590 0
-585 -126 591 0
-585 -127 592 0
-585 -128 593 0
-585 -129 594 0
-585 -130 595 0
-585 -131 596 0
-585 -132 597 0
-585 -133 598 0
-585 -134 599 0
-585 -135 600 0
-585 -137 601 0
-585 -138 602 0
-585 -139 603 0
-585 -140 604 0
-585 -141 605 0
-585 -142 606 0
-585 -143 607 0
-585 -144 608 0
-585 -145 609 0
-586 -146 581 0
-586 -147 582 0
-586 -148 583 0
-586 -149 584 0
-586 -150 585 0
-586 -151 587 0
-586 -152 588 0
-586 -153 589 0
-586 -154 590 0
-586 -155 591 0
-586 -156 592 0
-586 -157 593 0
-586 -158 594 0
-586 -159 595 0
-586 -160 596 0
-586 -161 597 0
-586 -162 598 0
-586 -163 599 0
-586 -164 600 0
-586 -166 601 0
-586 -167 602 0
-586 -168 603 0
-586 -169 604 0
-586 -170 605 0
-586 -171 606 0
-586 -172 607 0
-586 -173 608 0
-586 -174 609 0
-587 -175 581 0
-587 -176 582 0
-587 -177 583 0
-587 -178 584 0
-587 -179 585 0
-587 -180 586 0
-587 -181 588 0
-587 -182 589 0
-587 -183 590 0
-587 -184 591 0
-587 -185 592 0
-587 -186 593 0
-587 -187 594 0
-587 -188 595 0
-587 -189 596 0
-587 -190 597 0
-587 -191 598 0
-587 -192 599 0
-587 -193 600 0
-587 -195 601 0
-587 -196 602 0
-587 -197 603 0
-587 -198 604 0
-587 -199 605 0
-587 -200 606 0
-587 -201 607 0
-587 -202 608 0
-587 -203 609 0
-588 -204 581 0
-588 -205 582 0
-588 -206 583 0
-588 -207 584 0
-588 -208 585 0
-588 -209 586 0
-588 -210 587 0
-588 -211 589 0
-588 -212 590 0
-588 -213 591 0
-588 -214 592 0
-588 -215 593 0
-588 -216 594 0
-588 -217 595 0
-588 -218 596 0
-588 -219 597 0
-588 -220 598 0
-588 -221 599 0
-588 -222 600 0
-588 -224 601 0
-588 -225 602 0
-588 -226 603 0
-588 -227 604 0
-588 -228 605 0
-588 -229 606 0
-588 -230 607 0
-588 -231 608 0
-588 -232 609 0
-589 -233 581 0
-589 -234 582 0
-589 -235 583 0
-589 -236 584 0
-589 -237 585 0
-589 -238 586 0
-589 -239 587 0
-589 -240 588 0
-589 -241 590 0
-589 -242 591 0
-589 -243 592 0
-589 -244 593 0
-589 -245 594 0
-589 -246 595 0
-589 -247 596 0
-589 -248 597 0
-589 -249 598 0
-589 -250 599 0
-589 -251 600 0
-589 -253 601 0
-589 -254 602 0
-589 -255 603 0
-589 -256 604 0
-589 -257 605 0
-589 -258 606 0
-589 -259 607 0
-589 -260 608 0
-589 -261 609 0
-590 -262 581 0
-590 -263 582 0
-590 -264 583 0
-590 -265 584 0
-590 -266 585 0
-590 -267 586 0
-590 -268 587 0
-590 -269 588 0
-590 -270 589 0
-590 -271 591 0
-590 -272 592 0
-590 -273 593 0
-590 -274 594 0
-590 -275 595 0
-590 -276 596 0
-590 -277 597 0
-590 -278 598 0
-590 -279 599 0
-590 -280 600 0
-590 -282 601 0
-590 -283 602 0
-590 -284 603 0
-590 -285 604 0
-590 -286 605 0
-590 -287 606 0
-590 -288 607 0
-590 -289 608 0
-590 -290 609 0
-591 -291 581 0
-591 -292 582 0
-591 -293 583 0
-591 -294 584 0
-591 -295 585 0
-591 -296 586 0
-591 -297 587 0
-591 -298 588 0
-591 -299 589 0
-591 -300 590 0
-591 -301 592 0
-591 -302 593 0
-591 -303 594 0
-591 -304 595 0
-591 -305 596 0
-591 -306 597 0
-591 -307 598 0
-591 -308 599 0
-591 -309 600 0
-591 -311 601 0
-591 -312 602 0
-591 -313 603 0
-591 -314 604 0
-591 -315 605 0
-591 -316 606 0
-591 -317 607 0
-591 -318 608 0
-591 -319 609 0
-592 -320 581 0
-592 -321 582 0
-592 -322 583 0
-592 -323 584 0
-592 -324 585 0
-592 -325 586 0
-592 -326 587 0
-592 -327 588 0
-592 -328 589 0
-592 -329 590 0
-592 -330 591 0
-592 -331 593 0
-592 -332 594 0
-592 -333 595 0
-592 -334 596 0
-592 -335 597 0
-592 -336 598 0
-592 -337 599 0
-592 -338 600 0
-592 -340 601 0
-592 -341 602 0
-592 -342 603 0
-592 -343 604 0
-592 -344 605 0
-592 -345 606 0
-592 -346 607 0
-592 -347 608 0
-592 -348 609 0
-593 -349 581 0
-593 -350 582 0
-593 -351 583 0
-593 -352 584 0
-593 -353 585 0
-593 -354 586 0
-593 -355 587 0
-593 -356 588 0
-593 -357 589 0
-593 -358 590 0
-593 -359 591 0
-593 -360 592 0
-593 -361 594 0
-593 -362 595 0
-593 -363 596 0
-593 -364 597 0
-593 -365 598 0
-593 -366 599 0
-593 -367 600 0
-593 -369 601 0
-593 -370 602 0
-593 -371 603 0
-593 -372 604 0
-593 -373 605 0
-593 -374 606 0
-593 -375 607 0
-593 -376 608 0
-593 -377 609 0
-594 -378 581 0
-594 -379 582 0
-594 -380 583 0
-594 -381 584 0
-594 -382 585 0
-594 -383 586 0
-594 -384 587 0
-594 -385 588 0
-594 -386 589 0
-594 -387 590 0
-594 -388 591 0
-594 -389 592 0
-594 -390 593 0
-594 -391 595 0
-594 -392 596 0
-594 -393 597 0
-594 -394 598 0
-594 -395 599 0
-594 -396 600 0
-594 -398 601 0
-594 -399 602 0
-594 -400 603 0
-594 -401 604 0
-594 -402 605 0
-594 -403 606 0
-594 -404 607 0
-594 -405 608 0
-594 -406 609 0
-595 -407 581 0
-595 -408 582 0
-595 -409 583 0
-595 -410 584 0
-595 -411 585 0
-595 -412 586 0
-595 -413 587 0
-595 -414 588 0
-595 -415 589 0
-595 -416 590 0
-595 -417 591 0
-595 -418 592 0
-595 -419 593 0
-595 -420 594 0
-595 -421 596 0
-595 -422 597 0
-595 -423 598 0
-595 -424 599 0
-595 -425 600 0
-595 -427 601 0
-595 -428 602 0
-595 -429 603 0
-595 -430 604 0
-595 -431 605 0
-595 -432 606 0
-595 -433 607 0
-595 -434 608 0
-595 -435 609 0
-596 -436 581 0
-596 -437 582 0
-596 -438 583 0
-596 -439 584 0
-596 -440 585 0
-596 -441 586 0
-596 -442 587 0
-596 -443 588 0
-596 -444 589 0
-596 -445 590 0
-596 -446 591 0
-596 -447 592 0
-596 -448 593 0
-596 -449 594 0
-596 -450 595 0
-596 -451 597 0
-596 -452 598 0
-596 -453 599 0
-596 -454 600 0
-596 -456 601 0
-596 -457 602 0
-596 -458 603 0
-596 -459 604 0
-596 -460 605 0
-596 -461 606 0
-596 -462 607 0
-596 -463 608 0
-596 -464 609 0
-597 -465 581 0
-597 -466 582 0
-597 -467 583 0
-597 -468 584 0
-597 -469 585 0
-597 -470 586 0
-597 -471 587 0
-597 -472 588 0
-597 -473 589 0
-597 -474 590 0
-597 -475 591 0
-597 -476 592 0
-597 -477 593 0
-597 -478 594 0
-597 -479 595 0
-597 -480 596 0
-597 -481 598 0
-597 -482 599 0
-597 -483 600 0
-597 -485 601 0
-597 -486 602 0
-597 -487 603 0
-597 -488 604 0
-597 -489 605 0
-597 -490 606 0
-597 -491 607 0
-597 -492 608 0
-597 -493 609 0
-598 -494 581 0
-598 -495 582 0
-598 -496 583 0
-598 -497 584 0
-598 -498 585 0
-598 -499 586 0
-598 -500 587 0
-598 -501 588 0
-598 -502 589 0
-598 -503 590 0
-598 -504 591 0
-598 -505 592 0
-598 -506 593 0
-598 -507 594 0
-598 -508 595 0
-598 -509 596 0
-598 -510 597 0
-598 -511 599 0
-598 -512 600 0
-598 -514 601 0
-598 -515 602 0
-598 -516 603 0
-598 -517 604 0
-598 -518 605 0
-598 -519 606 0
-598 -520 607 0
-598 -521 608 0
-598 -522 609 0
-599 -523 581 0
-599 -524 582 0
-599 -525 583 0
-599 -526 584 0
-599 -527 585 0
-599 -528 586 0
-599 -529 587 0
-599 -530 588 0
-599 -531 589 0
-599 -532 590 0
-599 -533 591 0
-599 -534 592 0
-599 -535 593 0
-599 -536 594 0
-599 -537 595 0
-599 -538 596 0
-599 -539 597 0
-599 -540 598 0
-599 -541 600 0
-599 -543 601 0
-599 -544 602 0
-599 -545 603 0
-599 -546 604 0
-599 -547 605 0
-599 -548 606 0
-599 -549 607 0
-599 -550 608 0
-599 -551 609 0
-600 -552 581 0
-600 -553 582 0
-600 -554 583 0
-600 -555 584 0
-600 -556 585 0
-600 -557 586 0
-600 -558 587 0
-600 -559 588 0
-600 -560 589 0
-600 -561 590 0
-600 -562 591 0
-600 -563 592 0
-600 -564 593 0
-600 -565 594 0
-600 -566 595 0
-600 -567 596 0
-600 -568 597 0
-600 -569 598 0
-600 -570 599 0
-600 -572 601 0
-600 -573 602 0
-600 -574 603 0
-600 -575 604 0
-600 -576 605 0
-600 -577 606 0
-600 -578 607 0
-600 -579 608 0
-600 -580 609 0
-601 -610 581 0
-601 -611 582 0
-601 -612 583 0
-601 -613 584 0
-601 -614 585 0
-601 -615 586 0
-601 -616 587 0
-601 -617 588 0
-601 -618 589 0
-601 -619 590 0
-601 -620 591 0
-601 -621 592 0
-601 -622 593 0
-601 -623 594 0
-601 -624 595 0
-601 -625 596 0
-601 -626 597 0
-601 -627 598 0
-601 -628 599 0
-601 -629 600 0
-601 -631 602 0
-601 -632 603 0
-601 -633 604 0
-601 -634 605 0
-601 -635 606 0
-601 -636 607 0
-601 -637 608 0
-601 -638 609 0
-602 -639 581 0
-602 -640 582 0
-602 -641 583 0
-602 -642 584 0
-602 -643 585 0
-602 -644 586 0
-602 -645 587 0
-602 -646 588 0
-602 -647 589 0
-602 -648 590 0
-602 -649 591 0
-602 -650 592 0
-602 -651 593 0
-602 -652 594 0
-602 -653 595 0
-602 -654 596 0
-602 -655 597 0
-602 -656 598 0
-602 -657 599 0
-602 -658 600 0
-602 -660 601 0
-602 -661 603 0
-602 -662 604 0
-602 -663 605 0
-602 -664 606 0
-602 -665 607 0
-602 -666 608 0
-602 -667 609 0
-603 -668 581 0
-603 -669 582 0
-603 -670 583 0
-603 -671 584 0
-603 -672 585 0
-603 -673 586 0
-603 -674 587 0
-603 -675 588 0
-603 -676 589 0
-603 -677 590 0
-603 -678 591 0
-603 -679 592 0
-603 -680 593 0
-603 -681 594 0
-603 -682 595 0
-603 -683 596 0
-603 -684 597 0
-603 -685 598 0
-603 -686 599 0
-603 -687 600 0
-603 -689 601 0
-603 -690 602 0
-603 -691 604 0
-603 -692 605 0
-603 -693 606 0
-603 -694 607 0
-603 -695 608 0
-603 -696 609 0
-604 -697 581 0
-604 -698 582 0
-604 -699 583 0
-604 -700 584 0
-604 -701 585 0
-604 -702 586 0
-604 -703 587 0
-604 -704 588 0
-604 -705 589 0
-604 -706 590 0
-604 -707 591 0
-604 -708 592 0
-604 -709 593 0
-604 -710 594 0
-604 -711 595 0
-604 -712 596 0
-604 -713 597 0
-604 -714 598 0
-604 -715 599 0
-604 -716 600 0
-604 -718 601 0
-604 -719 602 0
-604 -720 603 0
-604 -721 605 0
-604 -722 606 0
-604 -723 607 0
-604 -724 608 0
-604 -725 609 0
-605 -726 581 0
-605 -727 582 0
-605 -728 583 0
-605 -729 584 0
-605 -730 585 0
-605 -731 586 0
-605 -732 587 0
-605 -733 588 0
-605 -734 589 0
-605 -735 590 0
-605 -736 591 0
-605 -737 592 0
-605 -738 593 0
-605 -739 594 0
-605 -740 595 0
-605 -741 596 0
-605 -742 597 0
-605 -743 598 0
-605 -744 599 0
-605 -745 600 0
-605 -747 601 0
-605 -748 602 0
-605 -749 603 0
-605 -750 604 0
-605 -751 606 0
-605 -752 607 0
-605 -753 608 0
-605 -754 609 0
-606 -755 581 0
-606 -756 582 0
-606 -757 583 0
-606 -758 584 0
-606 -759 585 0
-606 -760 586 0
-606 -761 587 0
-606 -762 588 0
-606 -763 589 0
-606 -764 590 0
-606 -765 591 0
-606 -766 592 0
-606 -767 593 0
-606 -768 594 0
-606 -769 595 0
-606 -770 596 0
-606 -771 597 0
-606 -772 598 0
-606 -773 599 0
-606 -774 600 0
-606 -776 601 0
-606 -777 602 0
-606 -778 603 0
-606 -779 604 0
-606 -780 605 0
-606 -781 607 0
-606 -782 608 0
-606 -783 609 0
-607 -784 581 0
-607 -785 582 0
-607 -786 583 0
-607 -787 584 0
-607 -788 585 0
-607 -789 586 0
-607 -790 587 0
-607 -791 588 0
-607 -792 589 0
-607 -793 590 0
-607 -794 591 0
-607 -795 592 0
-607 -796 593 0
-607 -797 594 0
-607 -798 595 0
-607 -799 596 0
-607 -800 597 0
-607 -801 598 0
-607 -802 599 0
-607 -803 600 0
-607 -805 601 0
-607 -806 602 0
-607 -807 603 0
-607 -808 604 0
-607 -809 605 0
-607 -810 606 0
-607 -811 608 0
-607 -812 609 0
-608 -813 581 0
-608 -814 582 0
-608 -815 583 0
-608 -816 584 0
-608 -817 585 0
-608 -818 586 0
-608 -819 587 0
-608 -820 588 0
-608 -821 589 0
-608 -822 590 0
-608 -823 591 0
-608 -824 592 0
-608 -825 593 0
-608 -826 594 0
-608 -827 595 0
-608 -828 596 0
-608 -829 597 0
-608 -830 598 0
-608 -831 599 0
-608 -832 600 0
-608 -834 601 0
-608 -835 602 0
-608 -836 603 0
-608 -837 604 0
-608 -838 605 0
-608 -839 606 0
-608 -840 607 0
-608 -841 609 0
-609 -842 581 0
-609 -843 582 0
-609 -844 583 0
-609 -845 584 0
-609 -846 585 0
-609 -847 586 0
-609 -848 587 0
-609 -849 588 0
-609 -850 589 0
-609 -851 590 0
-609 -852 591 0
-609 -853 592 0
-609 -854 593 0
-609 -855 594 0
-609 -856 595 0
-609 -857 596 0
-609 -858 597 0
-609 -859 598 0
-609 -860 599 0
-609 -861 600 0
-609 -863 601 0
-609 -864 602 0
-609 -865 603 0
-609 -866 604 0
-609 -867 605 0
-609 -868 606 0
-609 -869 607 0
-609 -870 608 0
-610 -1 611 0
-610 -2 612 0
-610 -3 613 0
-610 -4 614 0
-610 -5 615 0
-610 -6 616 0
-610 -7 617 0
-610 -8 618 0
-610 -9 619 0
-610 -10 620 0
-610 -11 621 0
-610 -12 622 0
-610 -13 623 0
-610 -14 624 0
-610 -15 625 0
-610 -16 626 0
-610 -17 627 0
-610 -18 628 0
-610 -19 629 0
-610 -20 630 0
-610 -22 631 0
-610 -23 632 0
-610 -24 633 0
-610 -25 634 0
-610 -26 635 0
-610 -27 636 0
-610 -28 637 0
-610 -29 638 0
-611 -30 610 0
-611 -31 612 0
-611 -32 613 0
-611 -33 614 0
-611 -34 615 0
-611 -35 616 0
-611 -36 617 0
-611 -37 618 0
-611 -38 619 0
-611 -39 620 0
-611 -40 621 0
-611 -41 622 0
-611 -42 623 0
-611 -43 624 0
-611 -44 625 0
-611 -45 626 0
-611 -46 627 0
-611 -47 628 0
-611 -48 629 0
-611 -49 630 0
-611 -51 631 0
-611 -52 632 0
-611 -53 633 0
-611 -54 634 0
-611 -55 635 0
-611 -56 636 0
-611 -57 637 0
-611 -58 638 0
-612 -59 610 0
-612 -60 611 0
-612 -61 613 0
-612 -62 614 0
-612 -63 615 0
-612 -64 616 0
-612 -65 617 0
-612 -66 618 0
-612 -67 619 0
-612 -68 620 0
-612 -69 621 0
-612 -70 622 0
-612 -71 623 0
-612 -72 624 0
-612 -73 625 0
-612 -74 626 0
-612 -75 627 0
-612 -76 628 0
-612 -77 629 0
-612 -78 630 0
-612 -80 631 0
-612 -81 632 0
-612 -82 633 0
-612 -83 634 0
-612 -84 635 0
-612 -85 636 0
-612 -86 637 0
-612 -87 638 0
-613 -88 610 0
-613 -89 611 0
-613 -90 612 0
-613 -91 614 0
-613 -92 615 0
-613 -93 616 0
-613 -94 617 0
-613 -95 618 0
-613 -96 619 0
-613 -97 620 0
-613 -98 621 0
-613 -99 622 0
-613 -100 623 0
-613 -101 624 0
-613 -102 625 0
-613 -103 626 0
-613 -104 627 0
-613 -105 628 0
-613 -106 629 0
-613 -107 630 0
-613 -109 631 0
-613 -110 632 0
-613 -111 633 0
-613 -112 634 0
-613 -113 635 0
-613 -114 636 0
-613 -115 637 0
-613 -116 638 0
-614 -117 610 0
-614 -118 611 0
-614 -119 612 0
-614 -120 613 0
-614 -121 615 0
-614 -122 616 0
-614 -123 617 0
-614 -124 618 0
-614 -125 619 0
-614 -126 620 0
-614 -127 621 0
-614 -128 622 0
-614 -129 623 0
-614 -130 624 0
-614 -131 625 0
-614 -132 626 0
-614 -133 627 0
-614 -134 628 0
-614 -135 629 0
-614 -136 630 0
-614 -138 631 0
-614 -139 632 0
-614 -140 633 0
-614 -141 634 0
-614 -142 635 0
-614 -143 636 0
-614 -144 637 0
-614 -145 638 0
-615 -146 610 0
-615 -147 611 0
-615 -148 612 0
-615 -149 613 0
-615 -150 614 0
-615 -151 616 0
-615 -152 617 0
-615 -153 618 0
-615 -154 619 0
-615 -155 620 0
-615 -156 621 0
-615 -157 622 0
-615 -158 623 0
-615 -159 624 0
-615 -160 625 0
-615 -161 626 0
-615 -162 627 0
-615 -163 628 0
-615 -164 629 0
-615 -165 630 0
-615 -167 631 0
-615 -168 632 0
-615 -169 633 0
-615 -170 634 0
-615 -171 635 0
-615 -172 636 0
-615 -173 637 0
-615 -174 638 0
-616 -175 610 0
-616 -176 611 0
-616 -177 612 0
-616 -178 613 0
-616 -179 614 0
-616 -180 615 0
-616 -181 617 0
-616 -182 618 0
-616 -183 619 0
-616 -184 620 0
-616 -185 621 0
-616 -186 622 0
-616 -187 623 0
-616 -188 624 0
-616 -189 625 0
-616 -190 626 0
-616 -191 627 0
-616 -192 628 0
-616 -193 629 0
-616 -194 630 0
-616 -196 631 0
-616 -197 632 0
-616 -198 633 0
-616 -199 634 0
-616 -200 635 0
-616 -201 636 0
-616 -202 637 0
-616 -203 638 0
-617 -204 610 0
-617 -205 611 0
-617 -206 612 0
-617 -207 613 0
-617 -208 614 0
-617 -209 615 0
-617 -210 616 0
-617 -211 618 0
-617 -212 619 0
-617 -213 620 0
-617 -214 621 0
-617 -215 622 0
-617 -216 623 0
-617 -217 624 0
-617 -218 625 0
-617 -219 626 0
-617 -220 627 0
-617 -221 628 0
-617 -222 629 0
-617 -223 630 0
-617 -225 631 0
-617 -226 632 0
-617 -227 633 0
-617 -228 634 0
-617 -229 635 0
-617 -230 636 0
-617 -231 637 0
-617 -232 638 0
-618 -233 610 0
-618 -234 611 0
-618 -235 612 0
-618 -236 613 0
-618 -237 614 0
-618 -238 615 0
-618 -239 616 0
-618 -240 617 0
-618 -241 619 0
-618 -242 620 0
-618 -243 621 0
-618 -244 622 0
-618 -245 623 0
-618 -246 624 0
-618 -247 625 0
-618 -248 626 0
-618 -249 627 0
-618 -250 628 0
-618 -251 629 0
-618 -252 630 0
-618 -254 631 0
-618 -255 632 0
-618 -256 633 0
-618 -257 634 0
-618 -258 635 0
-618 -259 636 0
-618 -260 637 0
-618 -261 638 0
-619 -262 610 0
-619 -263 611 0
-619 -264 612 0
-619 -265 613 0
-619 -266 614 0
-619 -267 615 0
-619 -268 616 0
-619 -269 617 0
-619 -270 618 0
-619 -271 620 0
-619 -272 621 0
-619 -273 622 0
-619 -274 623 0
-619 -275 624 0
-619 -276 625 0
-619 -277 626 0
-619 -278 627 0
-619 -279 628 0
-619 -280 629 0
-619 -281 630 0
-619 -283 631 0
-619 -284 632 0
-619 -285 633 0
-619 -286 634 0
-619 -287 635 0
-619 -288 636 0
-619 -289 637 0
-619 -290 638 0
-620 -291 610 0
-620 -292 611 0
-620 -293 612 0
-620 -294 613 0
-620 -295 614 0
-620 -296 615 0
-620 -297 616 0
-620 -298 617 0
-620 -299 618 0
-620 -300 619 0
-620 -301 621 0
-620 -302 622 0
-620 -303 623 0
-620 -304 624 0
-620 -305 625 0
-620 -306 626 0
-620 -307 627 0
-620 -308 628 0
-620 -309 629 0
-620 -310 630 0
-620 -312 631 0
-620 -313 632 0
-620 -314 633 0
-620 -315 634 0
-620 -316 635 0
-620 -317 636 0
-620 -318 637 0
-620 -319 638 0
-621 -320 610 0
-621 -321 611 0
-621 -322 612 0
-621 -323 613 0
-621 -324 614 0
-621 -325 615 0
-621 -326 616 0
-621 -327 617 0
-621 -328 618 0
-621 -329 619 0
-621 -330 620 0
-621 -331 622 0
-621 -332 623 0
-621 -333 624 0
-621 -334 625 0
-621 -335 626 0
-621 -336 627 0
-621 -337 628 0
-621 -338 629 0
-621 -339 630 0
-621 -341 631 0
-621 -342 632 0
-621 -343 633 0
-621 -344 634 0
-621 -345 635 0
-621 -346 636 0
-621 -347 637 0
-621 -348 638 0
-622 -349 610 0
-622 -350 611 0
-622 -351 612 0
-622 -352 613 0
-622 -353 614 0
-622 -354 615 0
-622 -355 616 0
-622 -356 617 0
-622 -357 618 0
-622 -358 619 0
-622 -359 620 0
-622 -360 621 0
-622 -361 623 0
-622 -362 624 0
-622 -363 625 0
-622 -364 626 0
-622 -365 627 0
-622 -366 628 0
-622 -367 629 0
-622 -368 630 0
-622 -370 631 0
-622 -371 632 0
-622 -372 633 0
-622 -373 634 0
-622 -374 635 0
-622 -375 636 0
-622 -376 637 0
-622 -377 638 0
-623 -378 610 0
-623 -379 611 0
-623 -380 612 0
-623 -381 613 0
-623 -382 614 0
-623 -383 615 0
-623 -384 616 0
-623 -385 617 0
-623 -386 618 0
-623 -387 619 0
-623 -388 620 0
-623 -389 621 0
-623 -390 622 0
-623 -391 624 0
-623 -392 625 0
-623 -393 626 0
-623 -394 627 0
-623 -395 628 0
-623 -396 629 0
-623 -397 630 0
-623 -399 631 0
-623 -400 632 0
-623 -401 633 0
-623 -402 634 0
-623 -403 635 0
-623 -404 636 0
-623 -405 637 0
-623 -406 638 0
-624 -407 610 0
-624 -408 611 0
-624 -409 612 0
-624 -410 613 0
-624 -411 614 0
-624 -412 615 0
-624 -413 616 0
-624 -414 617 0
-624 -415 618 0
-624 -416 619 0
-624 -417 620 0
-624 -418 621 0
-624 -419 622 0
-624 -420 623 0
-624 -421 625 0
-624 -422 626 0
-624 -423 627 0
-624 -424 628 0
-624 -425 629 0
-624 -426 630 0
-624 -428 631 0
-624 -429 632 0
-624 -430 633 0
-624 -431 634 0
-624 -432 635 0
-624 -433 636 0
-624 -434 637 0
-624 -435 638 0
-625 -436 610 0
-625 -437 611 0
-625 -438 612 0
-625 -439 613 0
-625 -440 614 0
-625 -441 615 0
-625 -442 616 0
-625 -443 617 0
-625 -444 618 0
-625 -445 619 0
-625 -446 620 0
-625 -447 621 0
-625 -448 622 0
-625 -449 623 0
-625 -450 624 0
-625 -451 626 0
-625 -452 627 0
-625 -453 628 0
-625 -454 629 0
-625 -455 630 0
-625 -457 631 0
-625 -458 632 0
-625 -459 633 0
-625 -460 634 0
-625 -461 635 0
-625 -462 636 0
-625 -463 637 0
-625 -464 638 0
-626 -465 610 0
-626 -466 611 0
-626 -467 612 0
-626 -468 613 0
-626 -469 614 0
-626 -470 615 0
-626 -471 616 0
-626 -472 617 0
-626 -473 618 0
-626 -474 619 0
-626 -475 620 0
-626 -476 621 0
-626 -477 622 0
-626 -478 623 0
-626 -479 624 0
-626 -480 625 0
-626 -481 627 0
-626 -482 628 0
-626 -483 629 0
-626 -484 630 0
-626 -486 631 0
-626 -487 632 0
-626 -488 633 0
-626 -489 634 0
-626 -490 635 0
-626 -491 636 0
-626 -492 637 0
-626 -493 638 0
-627 -494 610 0
-627 -495 611 0
-627 -496 612 0
-627 -497 613 0
-627 -498 614 0
-627 -499 615 0
-627 -500 616 0
-627 -501 617 0
-627 -502 618 0
-627 -503 619 0
-627 -504 620 0
-627 -505 621 0
-627 -506 622 0
-627 -507 623 0
-627 -508 624 0
-627 -509 625 0
-627 -510 626 0
-627 -511 628 0
-627 -512 629 0
-627 -513 630 0
-627 -515 631 0
-627 -516 632 0
-627 -517 633 0
-627 -518 634 0
-627 -519 635 0
-627 -520 636 0
-627 -521 637 0
-627 -522 638 0
-628 -523 610 0
-628 -524 611 0
-628 -525 612 0
-628 -526 613 0
-628 -527 614 0
-628 -528 615 0
-628 -529 616 0
-628 -530 617 0
-628 -531 618 0
-628 -532 619 0
-628 -533 620 0
-628 -534 621 0
-628 -535 622 0
-628 -536 623 0
-628 -537 624 0
-628 -538 625 0
-628 -539 626 0
-628 -540 627 0
-628 -541 629 0
-628 -542 630 0
-628 -544 631 0
-628 -545 632 0
-628 -546 633 0
-628 -547 634 0
-628 -548 635 0
-628 -549 636 0
-628 -550 637 0
-628 -551 638 0
-629 -552 610 0
-629 -553 611 0
-629 -554 612 0
-629 -555 613 0
-629 -556 614 0
-629 -557 615 0
-629 -558 616 0
-629 -559 617 0
-629 -560 618 0
-629 -561 619 0
-629 -562 620 0
-629 -563 621 0
-629 -564 622 0
-629 -565 623 0
-629 -566 624 0
-629 -567 625 0
-629 -568 626 0
-629 -569 627 0
-629 -570 628 0
-629 -571 630 0
-629 -573 631 0
-629 -574 632 0
-629 -575 633 0
-629 -576 634 0
-629 -577 635 0
-629 -578 636 0
-629 -579 637 0
-629 -580 638 0
-630 -581 610 0
-630 -582 611 0
-630 -583 612 0
-630 -584 613 0
-630 -585 614 0
-630 -586 615 0
-630 -587 616 0
-630 -588 617 0
-630 -589 618 0
-630 -590 619 0
-630 -591 620 0
-630 -592 621 0
-630 -593 622 0
-630 -594 623 0
-630 -595 624 0
-630 -596 625 0
-630 -597 626 0
-630 -598 627 0
-630 -599 628 0
-630 -600 629 0
-630 -602 631 0
-630 -603 632 0
-630 -604 633 0
-630 -605 634 0
-630 -606 635 0
-630 -607 636 0
-630 -608 637 0
-630 -609 638 0
-631 -639 610 0
-631 -640 611 0
-631 -641 612 0
-631 -642 613 0
-631 -643 614 0
-631 -644 615 0
-631 -645 616 0
-631 -646 617 0
-631 -647 618 0
-631 -648 619 0
-631 -649 620 0
-631 -650 621 0
-631 -651 622 0
-631 -652 623 0
-631 -653 624 0
-631 -654 625 0
-631 -655 626 0
-631 -656 627 0
-631 -657 628 0
-631 -658 629 0
-631 -659 630 0
-631 -661 632 0
-631 -662 633 0
-631 -663 634 0
-631 -664 635 0
-631 -665 636 0
-631 -666 637 0
-631 -667 638 0
-632 -668 610 0
-632 -669 611 0
-632 -670 612 0
-632 -671 613 0
-632 -672 614 0
-632 -673 615 0
-632 -674 616 0
-632 -675 617 0
-632 -676 618 0
-632 -677 619 0
-632 -678 620 0
-632 -679 621 0
-632 -680 622 0
-632 -681 623 0
-632 -682 624 0
-632 -683 625 0
-632 -684 626 0
-632 -685 627 0
-632 -686 628 0
-632 -687 629 0
-632 -688 630 0
-632 -690 631 0
-632 -691 633 0
-632 -692 634 0
-632 -693 635 0
-632 -694 636 0
-632 -695 637 0
-632 -696 638 0
-633 -697 610 0
-633 -698 611 0
-633 -699 612 0
-633 -700 613 0
-633 -701 614 0
-633 -702 615 0
-633 -703 616 0
-633 -704 617 0
-633 -705 618 0
-633 -706 619 0
-633 -707 620 0
-633 -708 621 0
-633 -709 622 0
-633 -710 623 0
-633 -711 624 0
-633 -712 625 0
-633 -713 626 0
-633 -714 627 0
-633 -715 628 0
-633 -716 629 0
-633 -717 630 0
-633 -719 631 0
-633 -720 632 0
-633 -721 634 0
-633 -722 635 0
-633 -723 636 0
-633 -724 637 0
-633 -725 638 0
-634 -726 610 0
-634 -727 611 0
-634 -728 612 0
-634 -729 613 0
-634 -730 614 0
-634 -731 615 0
-634 -732 616 0
-634 -733 617 0
-634 -734 618 0
-634 -735 619 0
-634 -736 620 0
-634 -737 621 0
-634 -738 622 0
-634 -739 623 0
-634 -740 624 0
-634 -741 625 0
-634 -742 626 0
-634 -743 627 0
-634 -744 628 0
-634 -745 629 0
-634 -746 630 0
-634 -748 631 0
-634 -749 632 0
-634 -750 633 0
-634 -751 635 0
-634 -752 636 0
-634 -753 637 0
-634 -754 638 0
-635 -755 610 0
-635 -756 611 0
-635 -757 612 0
-635 -758 613 0
-635 -759 614 0
-635 -760 615 0
-635 -761 616 0
-635 -762 617 0
-635 -763 618 0
-635 -764 619 0
-635 -765 620 0
-635 -766 621 0
-635 -767 622 0
-635 -768 623 0
-635 -769 624 0
-635 -770 625 0
-635 -771 626 0
-635 -772 627 0
-635 -773 628 0
-635 -774 629 0
-635 -775 630 0
-635 -777 631 0
-635 -778 632 0
-635 -779 633 0
-635 -780 634 0
-635 -781 636 0
-635 -782 637 0
-635 -783 638 0
-636 -784 610 0
-636 -785 611 0
-636 -786 612 0
-636 -787 613 0
-636 -788 614 0
-636 -789 615 0
-636 -790 616 0
-636 -791 617 0
-636 -792 618 0
-636 -793 619 0
-636 -794 620 0
-636 -795 621 0
-636 -796 622 0
-636 -797 623 0
-636 -798 624 0
-636 -799 625 0
-636 -800 626 0
-636 -801 627 0
-636 -802 628 0
-636 -803 629 0
-636 -804 630 0
-636 -806 631 0
-636 -807 632 0
-636 -808 633 0
-636 -809 634 0
-636 -810 635 0
-636 -811 637 0
-636 -812 638 0
-637 -813 610 0
-637 -814 611 0
-637 -815 612 0
-637 -816 613 0
-637 -817 614 0
-637 -818 615 0
-637 -819 616 0
-637 -820 617 0
-637 -821 618 0
-637 -822 619 0
-637 -823 620 0
-637 -824 621 0
-637 -825 622 0
-637 -826 623 0
-637 -827 624 0
-637 -828 625 0
-637 -829 626 0
-637 -830 627 0
-637 -831 628 0
-637 -832 629 0
-637 -833 630 0
-637 -835 631 0
-637 -836 632 0
-637 -837 633 0
-637 -838 634 0
-637 -839 635 0
-637 -840 636 0
-637 -841 638 0
-638 -842 610 0
-638 -843 611 0
-638 -844 612 0
-638 -845 613 0
-638 -846 614 0
-638 -847 615 0
-638 -848 616 0
-638 -849 617 0
-638 -850 618 0
-638 -851 619 0
-638 -852 620 0
-638 -853 621 0
-638 -854 622 0
-638 -855 623 0
-638 -856 624 0
-638 -857 625 0
-638 -858 626 0
-638 -859 627 0
-638 -860 628 0
-638 -861 629 0
-638 -862 630 0
-638 -864 631 0
-638 -865 632 0
-638 -866 633 0
-638 -867 634 0
-638 -868 635 0
-638 -869 636 0
-638 -870 637 0
-639 -1 640 0
-639 -2 641 0
-639 -3 642 0
-639 -4 643 0
-639 -5 644 0
-639 -6 645 0
-639 -7 646 0
-639 -8 647 0
-639 -9 648 0
-639 -10 649 0
-639 -11 650 0
-639 -12 651 0
-639 -13 652 0
-639 -14 653 0
-639 -15 654 0
-639 -16 655 0
-639 -17 656 0
-639 -18 657 0
-639 -19 658 0
-639 -20 659 0
-639 -21 660 0
-639 -23 661 0
-639 -24 662 0
-639 -25 663 0
-639 -26 664 0
-639 -27 665 0
-639 -28 666 0
-639 -29 667 0
-640 -30 639 0
-640 -31 641 0
-640 -32 642 0
-640 -33 643 0
-640 -34 644 0
-640 -35 645 0
-640 -36 646 0
-640 -37 647 0
-640 -38 648 0
-640 -39 649 0
-640 -40 650 0
-640 -41 651 0
-640 -42 652 0
-640 -43 653 0
-640 -44 654 0
-640 -45 655 0
-640 -46 656 0
-640 -47 657 0
-640 -48 658 0
-640 -49 659 0
-640 -50 660 0
-640 -52 661 0
-640 -53 662 0
-640 -54 663 0
-640 -55 664 0
-640 -56 665 0
-640 -57 666 0
-640 -58 667 0
-641 -59 639 0
-641 -60 640 0
-641 -61 642 0
-641 -62 643 0
-641 -63 644 0
-641 -64 645 0
-641 -65 646 0
-641 -66 647 0
-641 -67 648 0
-641 -68 649 0
-641 -69 650 0
-641 -70 651 0
-641 -71 652 0
-641 -72 653 0
-641 -73 654 0
-641 -74 655 0
-641 -75 656 0
-641 -76 657 0
-641 -77 658 0
-641 -78 659 0
-641 -79 660 0
-641 -81 661 0
-641 -82 662 0
-641 -83 663 0
-641 -84 664 0
-641 -85 665 0
-641 -86 666 0
-641 -87 667 0
-642 -88 639 0
-642 -89 640 0
-642 -90 641 0
-642 -91 643 0
-642 -92 644 0
-642 -93 645 0
-642 -94 646 0
-642 -95 647 0
-642 -96 648 0
-642 -97 649 0
-642 -98 650 0
-642 -99 651 0
-642 -100 652 0
-642 -101 653 0
-642 -102 654 0
-642 -103 655 0
-642 -104 656 0
-642 -105 657 0
-642 -106 658 0
-642 -107 659 0
-642 -108 660 0
-642 -110 661 0
-642 -111 662 0
-642 -112 663 0
-642 -113 664 0
-642 -114 665 0
-642 -115 666 0
-642 -116 667 0
-643 -117 639 0
-643 -118 640 0
-643 -119 641 0
-643 -120 642 0
-643 -121 644 0
-643 -122 645 0
-643 -123 646 0
-643 -124 647 0
-643 -125 648 0
-643 -126 649 0
-643 -127 650 0
-643 -128 651 0
-643 -129 652 0
-643 -130 653 0
-643 -131 654 0
-643 -132 655 0
-643 -133 656 0
-643 -134 657 0
-643 -135 658 0
-643 -136 659 0
-643 -137 660 0
-643 -139 661 0
-643 -140 662 0
-643 -141 663 0
-643 -142 664 0
-643 -143 665 0
-643 -144 666 0
-643 -145 667 0
-644 -146 639 0
-644 -147 640 0
-644 -148 641 0
-644 -149 642 0
-644 -150 643 0
-644 -151 645 0
-644 -152 646 0
-644 -153 647 0
-644 -154 648 0
-644 -155 649 0
-644 -156 650 0
-644 -157 651 0
-644 -158 652 0
-644 -159 653 0
-644 -160 654 0
-644 -161 655 0
-644 -162 656 0
-644 -163 657 0
-644 -164 658 0
-644 -165 659 0
-644 -166 660 0
-644 -168 661 0
-644 -169 662 0
-644 -170 663 0
-644 -171 664 0
-644 -172 665 0
-644 -173 666 0
-644 -174 667 0
-645 -175 639 0
-645 -176 640 0
-645 -177 641 0
-645 -178 642 0
-645 -179 643 0
-645 -180 644 0
-645 -181 646 0
-645 -182 647 0
-645 -183 648 0
-645 -184 649 0
-645 -185 650 0
-645 -186 651 0
-645 -187 652 0
-645 -188 653 0
-645 -189 654 0
-645 -190 655 0
-645 -191 656 0
-645 -192 657 0
-645 -193 658 0
-645 -194 659 0
-645 -195 660 0
-645 -197 661 0
-645 -198 662 0
-645 -199 663 0
-645 -200 664 0
-645 -201 665 0
-645 -202 666 0
-645 -203 667 0
-646 -204 639 0
-646 -205 640 0
-646 -206 641 0
-646 -207 642 0
-646 -208 643 0
-646 -209 644 0
-646 -210 645 0
-646 -211 647 0
-646 -212 648 0
-646 -213 649 0
-646 -214 650 0
-646 -215 651 0
-646 -216 652 0
-646 -217 653 0
-646 -218 654 0
-646 -219 655 0
-646 -220 656 0
-646 -221 657 0
-646 -222 658 0
-646 -223 659 0
-646 -224 660 0
-646 -226 661 0
-646 -227 662 0
-646 -228 663 0
-646 -229 664 0
-646 -230 665 0
-646 -231 666 0
-646 -232 667 0
-647 -233 639 0
-647 -234 640 0
-647 -235 641 0
-647 -236 642 0
-647 -237 643 0
-647 -238 644 0
-647 -239 645 0
-647 -240 646 0
-647 -241 648 0
-647 -242 649 0
-647 -243 650 0
-647 -244 651 0
-647 -245 652 0
-647 -246 653 0
-647 -247 654 0
-647 -248 655 0
-647 -249 656 0
-647 -250 657 0
-647 -251 658 0
-647 -252 659 0
-647 -253 660 0
-647 -255 661 0
-647 -256 662 0
-647 -257 663 0
-647 -258 664 0
-647 -259 665 0
-647 -260 666 0
-647 -261 667 0
-648 -262 639 0
-648 -263 640 0
-648 -264 641 0
-648 -265 642 0
-648 -266 643 0
-648 -267 644 0
-648 -268 645 0
-648 -269 646 0
-648 -270 647 0
-648 -271 649 0
-648 -272 650 0
-648 -273 651 0
-648 -274 652 0
-648 -275 653 0
-648 -276 654 0
-648 -277 655 0
-648 -278 656 0
-648 -279 657 0
-648 -280 658 0
-648 -281 659 0
-648 -282 660 0
-648 -284 661 0
-648 -285 662 0
-648 -286 663 0
-648 -287 664 0
-648 -288 665 0
-648 -289 666 0
-648 -290 667 0
-649 -291 639 0
-649 -292 640 0
-649 -293 641 0
-649 -294 642 0
-649 -295 643 0
-649 -296 644 0
-649 -297 645 0
-649 -298 646 0
-649 -299 647 0
-649 -300 648 0
-649 -301 650 0
-649 -302 651 0
-649 -303 652 0
-649 -304 653 0
-649 -305 654 0
-649 -306 655 0
-649 -307 656 0
-649 -308 657 0
-649 -309 658 0
-649 -310 659 0
-649 -311 660 0
-649 -313 661 0
-649 -314 662 0
-649 -315 663 0
-649 -316 664 0
-649 -317 665 0
-649 -318 666 0
-649 -319 667 0
-650 -320 639 0
-650 -321 640 0
-650 -322 641 0
-650 -323 642 0
-650 -324 643 0
-650 -325 644 0
-650 -326 645 0
-650 -327 646 0
-650 -328 647 0
-650 -329 648 0
-650 -330 649 0
-650 -331 651 0
-650 -332 652 0
-650 -333 653 0
-650 -334 654 0
-650 -335 655 0
-650 -336 656 0
-650 -337 657 0
-650 -338 658 0
-650 -339 659 0
-650 -340 660 0
-650 -342 661 0
-650 -343 662 0
-650 -344 663 0
-650 -345 664 0
-650 -346 665 0
-650 -347 666 0
-650 -348 667 0
-651 -349 639 0
-651 -350 640 0
-651 -351 641 0
-651 -352 642 0
-651 -353 643 0
-651 -354 644 0
-651 -355 645 0
-651 -356 646 0
-651 -357 647 0
-651 -358 648 0
-651 -359 649 0
-651 -360 650 0
-651 -361 652 0
-651 -362 653 0
-651 -363 654 0
-651 -364 655 0
-651 -365 656 0
-651 -366 657 0
-651 -367 658 0
-651 -368 659 0
-651 -369 660 0
-651 -371 661 0
-651 -372 662 0
-651 -373 663 0
-651 -374 664 0
-651 -375 665 0
-651 -376 666 0
-651 -377 667 0
-652 -378 639 0
-652 -379 640 0
-652 -380 641 0
-652 -381 642 0
-652 -382 643 0
-652 -383 644 0
-652 -384 645 0
-652 -385 646 0
-652 -386 647 0
-652 -387 648 0
-652 -388 649 0
-652 -389 650 0
-652 -390 651 0
-652 -391 653 0
-652 -392 654 0
-652 -393 655 0
-652 -394 656 0
-652 -395 657 0
-652 -396 658 0
-652 -397 659 0
-652 -398 660 0
-652 -400 661 0
-652 -401 662 0
-652 -402 663 0
-652 -403 664 0
-652 -404 665 0
-652 -405 666 0
-652 -406 667 0
-653 -407 639 0
-653 -408 640 0
-653 -409 641 0
-653 -410 642 0
-653 -411 643 0
-653 -412 644 0
-653 -413 645 0
-653 -414 646 0
-653 -415 647 0
-653 -416 648 0
-653 -417 649 0
-653 -418 650 0
-653 -419 651 0
-653 -420 652 0
-653 -421 654 0
-653 -422 655 0
-653 -423 656 0
-653 -424 657 0
-653 -425 658 0
-653 -426 659 0
-653 -427 660 0
-653 -429 661 0
-653 -430 662 0
-653 -431 663 0
-653 -432 664 0
-653 -433 665 0
-653 -434 666 0
-653 -435 667 0
-654 -436 639 0
-654 -437 640 0
-654 -438 641 0
-654 -439 642 0
-654 -440 643 0
-654 -441 644 0
-654 -442 645 0
-654 -443 646 0
-654 -444 647 0
-654 -445 648 0
-654 -446 649 0
-654 -447 650 0
-654 -448 651 0
-654 -449 652 0
-654 -450 653 0
-654 -451 655 0
-654 -452 656 0
-654 -453 657 0
-654 -454 658 0
-654 -455 659 0
-654 -456 660 0
-654 -458 661 0
-654 -459 662 0
-654 -460 663 0
-654 -461 664 0
-654 -462 665 0
-654 -463 666 0
-654 -464 667 0
-655 -465 639 0
-655 -466 640 0
-655 -467 641 0
-655 -468 642 0
-655 -469 643 0
-655 -470 644 0
-655 -471 645 0
-655 -472 646 0
-655 -473 647 0
-655 -474 648 0
-655 -475 649 0
-655 -476 650 0
-655 -477 651 0
-655 -478 652 0
-655 -479 653 0
-655 -480 654 0
-655 -481 656 0
-655 -482 657 0
-655 -483 658 0
-655 -484 659 0
-655 -485 660 0
-655 -487 661 0
-655 -488 662 0
-655 -489 663 0
-655 -490 664 0
-655 -491 665 0
-655 -492 666 0
-655 -493 667 0
-656 -494 639 0
-656 -495 640 0
-656 -496 641 0
-656 -497 642 0
-656 -498 643 0
-656 -499 644 0
-656 -500 645 0
-656 -501 646 0
-656 -502 647 0
-656 -503 648 0
-656 -504 649 0
-656 -505 650 0
-656 -506 651 0
-656 -507 652 0
-656 -508 653 0
-656 -509 654 0
-656 -510 655 0
-656 -511 657 0
-656 -512 658 0
-656 -513 659 0
-656 -514 660 0
-656 -516 661 0
-656 -517 662 0
-656 -518 663 0
-656 -519 664 0
-656 -520 665 0
-656 -521 666 0
-656 -522 667 0
-657 -523 639 0
-657 -524 640 0
-657 -525 641 0
-657 -526 642 0
-657 -527 643 0
-657 -528 644 0
-657 -529 645 0
-657 -530 646 0
-657 -531 647 0
-657 -532 648 0
-657 -533 649 0
-657 -534 650 0
-657 -535 651 0
-657 -536 652 0
-657 -537 653 0
-657 -538 654 0
-657 -539 655 0
-657 -540 656 0
-657 -541 658 0
-657 -542 659 0
-657 -543 660 0
-657 -545 661 0
-657 -546 662 0
-657 -547 663 0
-657 -548 664 0
-657 -549 665 0
-657 -550 666 0
-657 -551 667 0
-658 -552 639 0
-658 -553 640 0
-658 -554 641 0
-658 -555 642 0
-658 -556 643 0
-658 -557 644 0
-658 -558 645 0
-658 -559 646 0
-658 -560 647 0
-658 -561 648 0
-658 -562 649 0
-658 -563 650 0
-658 -564 651 0
-658 -565 652 0
-658 -566 653 0
-658 -567 654 0
-658 -568 655 0
-658 -569 656 0
-658 -570 657 0
-658 -571 659 0
-658 -572 660 0
-658 -574 661 0
-658 -575 662 0
-658 -576 663 0
-658 -577 664 0
-658 -578 665 0
-658 -579 666 0
-658 -580 667 0
-659 -581 639 0
-659 -582 640 0
-659 -583 641 0
-659 -584 642 0
-659 -585 643 0
-659 -586 644 0
-659 -587 645 0
-659 -588 646 0
-659 -589 647 0
-659 -590 648 0
-659 -591 649 0
-659 -592 650 0
-659 -593 651 0
-659 -594 652 0
-659 -595 653 0
-659 -596 654 0
-659 -597 655 0
-659 -598 656 0
-659 -599 657 0
-659 -600 658 0
-659 -601 660 0
-659 -603 661 0
-659 -604 662 0
-659 -605 663 0
-659 -606 664 0
-659 -607 665 0
-659 -608 666 0
-659 -609 667 0
-660 -610 639 0
-660 -611 640 0
-660 -612 641 0
-660 -613 642 0
-660 -614 643 0
-660 -615 644 0
-660 -616 645 0
-660 -617 646 0
-660 -618 647 0
-660 -619 648 0
-660 -620 649 0
-660 -621 650 0
-660 -622 651 0
-660 -623 652 0
-660 -624 653 0
-660 -625 654 0
-660 -626 655 0
-660 -627 656 0
-660 -628 657 0
-660 -629 658 0
-660 -630 659 0
-660 -632 661 0
-660 -633 662 0
-660 -634 663 0
-660 -635 664 0
-660 -636 665 0
-660 -637 666 0
-660 -638 667 0
-661 -668 639 0
-661 -669 640 0
-661 -670 641 0
-661 -671 642 0
-661 -672 643 0
-661 -673 644 0
-661 -674 645 0
-661 -675 646 0
-661 -676 647 0
-661 -677 648 0
-661 -678 649 0
-661 -679 650 0
-661 -680 651 0
-661 -681 652 0
-661 -682 653 0
-661 -683 654 0
-661 -684 655 0
-661 -685 656 0
-661 -686 657 0
-661 -687 658 0
-661 -688 659 0
-661 -689 660 0
-661 -691 662 0
-661 -692 663 0
-661 -693 664 0
-661 -694 665 0
-661 -695 666 0
-661 -696 667 0
-662 -697 639 0
-662 -698 640 0
-662 -699 641 0
-662 -700 642 0
-662 -701 643 0
-662 -702 644 0
-662 -703 645 0
-662 -704 646 0
-662 -705 647 0
-662 -706 648 0
-662 -707 649 0
-662 -708 650 0
-662 -709 651 0
-662 -710 652 0
-662 -711 653 0
-662 -712 654 0
-662 -713 655 0
-662 -714 656 0
-662 -715 657 0
-662 -716 658 0
-662 -717 659 0
-662 -718 660 0
-662 -720 661 0
-662 -721 663 0
-662 -722 664 0
-662 -723 665 0
-662 -724 666 0
-662 -725 667 0
-663 -726 639 0
-663 -727 640 0
-663 -728 641 0
-663 -729 642 0
-663 -730 643 0
-663 -731 644 0
-663 -732 645 0
-663 -733 646 0
-663 -734 647 0
-663 -735 648 0
-663 -736 649 0
-663 -737 650 0
-663 -738 651 0
-663 -739 652 0
-663 -740 653 0
-663 -741 654 0
-663 -742 655 0
-663 -743 656 0
-663 -744 657 0
-663 -745 658 0
-663 -746 659 0
-663 -747 660 0
-663 -749 661 0
-663 -750 662 0
-663 -751 664 0
-663 -752 665 0
-663 -753 666 0
-663 -754 667 0
-664 -755 639 0
-664 -756 640 0
-664 -757 641 0
-664 -758 642 0
-664 -759 643 0
-664 -760 644 0
-664 -761 645 0
-664 -762 646 0
-664 -763 647 0
-664 -764 648 0
-664 -765 649 0
-664 -766 650 0
-664 -767 651 0
-664 -768 652 0
-664 -769 653 0
-664 -770 654 0
-664 -771 655 0
-664 -772 656 0
-664 -773 657 0
-664 -774 658 0
-664 -775 659 0
-664 -776 660 0
-664 -778 661 0
-664 -779 662 0
-664 -780 663 0
-664 -781 665 0
-664 -782 666 0
-664 -783 667 0
-665 -784 639 0
-665 -785 640 0
-665 -786 641 0
-665 -787 642 0
-665 -788 643 0
-665 -789 644 0
-665 -790 645 0
-665 -791 646 0
-665 -792 647 0
-665 -793 648 0
-665 -794 649 0
-665 -795 650 0
-665 -796 651 0
-665 -797 652 0
-665 -798 653 0
-665 -799 654 0
-665 -800 655 0
-665 -801 656 0
-665 -802 657 0
-665 -803 658 0
-665 -804 659 0
-665 -805 660 0
-665 -807 661 0
-665 -808 662 0
-665 -809 663 0
-665 -810 664 0
-665 -811 666 0
-665 -812 667 0
-666 -813 639 0
-666 -814 640 0
-666 -815 641 0
-666 -816 642 0
-666 -817 643 0
-666 -818 644 0
-666 -819 645 0
-666 -820 646 0
-666 -821 647 0
-666 -822 648 0
-666 -823 649 0
-666 -824 650 0
-666 -825 651 0
-666 -826 652 0
-666 -827 653 0
-666 -828 654 0
-666 -829 655 0
-666 -830 656 0
-666 -831 657 0
-666 -832 658 0
-666 -833 659 0
-666 -834 660 0
-666 -836 661 0
-666 -837 662 0
-666 -838 663 0
-666 -839 664 0
-666 -840 665 0
-666 -841 667 0
-667 -842 639 0
-667 -843 640 0
-667 -844 641 0
-667 -845 642 0
-667 -846 643 0
-667 -847 644 0
-667 -848 645 0
-667 -849 646 0
-667 -850 647 0
-667 -851 648 0
-667 -852 649 0
-667 -853 650 0
-667 -854 651 0
-667 -855 652 0
-667 -856 653 0
-667 -857 654 0
-667 -858 655 0
-667 -859 656 0
-667 -860 657 0
-667 -861 658 0
-667 -862 659 0
-667 -863 660 0
-667 -865 661 0
-667 -866 662 0
-667 -867 663 0
-667 -868 664 0
-667 -869 665 0
-667 -870 666 0
-668 -1 669 0
-668 -2 670 0
-668 -3 671 0
-668 -4 672 0
-668 -5 673 0
-668 -6 674 0
-668 -7 675 0
-668 -8 676 0
-668 -9 677 0
-668 -10 678 0
-668 -11 679 0
-668 -12 680 0
-668 -13 681 0
-668 -14 682 0
-668 -15 683 0
-668 -16 684 0
-668 -17 685 0
-668 -18 686 0
-668 -19 687 0
-668 -20 688 0
-668 -21 689 0
-668 -22 690 0
-668 -24 691 0
-668 -25 692 0
-668 -26 693 0
-668 -27 694 0
-668 -28 695 0
-668 -29 696 0
-669 -30 668 0
-669 -31 670 0
-669 -32 671 0
-669 -33 672 0
-669 -34 673 0
-669 -35 674 0
-669 -36 675 0
-669 -37 676 0
-669 -38 677 0
-669 -39 678 0
-669 -40 679 0
-669 -41 680 0
-669 -42 681 0
-669 -43 682 0
-669 -44 683 0
-669 -45 684 0
-669 -46 685 0
-669 -47 686 0
-669 -48 687 0
-669 -49 688 0
-669 -50 689 0
-669 -51 690 0
-669 -53 691 0
-669 -54 692 0
-669 -55 693 0
-669 -56 694 0
-669 -57 695 0
-669 -58 696 0
-670 -59 668 0
-670 -60 669 0
-670 -61 671 0
-670 -62 672 0
-670 -63 673 0
-670 -64 674 0
-670 -65 675 0
-670 -66 676 0
-670 -67 677 0
-670 -68 678 0
-670 -69 679 0
-670 -70 680 0
-670 -71 681 0
-670 -72 682 0
-670 -73 683 0
-670 -74 684 0
-670 -75 685 0
-670 -76 686 0
-670 -77 687 0
-670 -78 688 0
-670 -79 689 0
-670 -80 690 0
-670 -82 691 0
-670 -83 692 0
-670 -84 693 0
-670 -85 694 0
-670 -86 695 0
-670 -87 696 0
-671 -88 668 0
-671 -89 669 0
-671 -90 670 0
-671 -91 672 0
-671 -92 673 0
-671 -93 674 0
-671 -94 675 0
-671 -95 676 0
-671 -96 677 0
-671 -97 678 0
-671 -98 679 0
-671 -99 680 0
-671 -100 681 0
-671 -101 682 0
-671 -102 683 0
-671 -103 684 0
-671 -104 685 0
-671 -105 686 0
-671 -106 687 0
-671 -107 688 0
-671 -108 689 0
-671 -109 690 0
-671 -111 691 0
-671 -112 692 0
-671 -113 693 0
-671 -114 694 0
-671 -115 695 0
-671 -116 696 0
-672 -117 668 0
-672 -118 669 0
-672 -119 670 0
-672 -120 671 0
-672 -121 673 0
-672 -122 674 0
-672 -123 675 0
-672 -124 676 0
-672 -125 677 0
-672 -126 678 0
-672 -127 679 0
-672 -128 680 0
-672 -129 681 0
-672 -130 682 0
-672 -131 683 0
-672 -132 684 0
-672 -133 685 0
-672 -134 686 0
-672 -135 687 0
-672 -136 688 0
-672 -137 689 0
-672 -138 690 0
-672 -140 691 0
-672 -141 692 0
-672 -142 693 0
-672 -143 694 0
-672 -144 695 0
-672 -145 696 0
-673 -146 668 0
-673 -147 669 0
-673 -148 670 0
-673 -149 671 0
-673 -150 672 0
-673 -151 674 0
-673 -152 675 0
-673 -153 676 0
-673 -154 677 0
-673 -155 678 0
-673 -156 679 0
-673 -157 680 0
-673 -158 681 0
-673 -159 682 0
-673 -160 683 0
-673 -161 684 0
-673 -162 685 0
-673 -163 686 0
-673 -164 687 0
-673 -165 688 0
-673 -166 689 0
-673 -167 690 0
-673 -169 691 0
-673 -170 692 0
-673 -171 693 0
-673 -172 694 0
-673 -173 695 0
-673 -174 696 0
-674 -175 668 0
-674 -176 669 0
-674 -177 670 0
-674 -178 671 0
-674 -179 672 0
-674 -180 673 0
-674 -181 675 0
-674 -182 676 0
-674 -183 677 0
-674 -184 678 0
-674 -185 679 0
-674 -186 680 0
-674 -187 681 0
-674 -188 682 0
-674 -189 683 0
-674 -190 684 0
-674 -191 685 0
-674 -192 686 0
-674 -193 687 0
-674 -194 688 0
-674 -195 689 0
-674 -196 690 0
-674 -198 691 0
-674 -199 692 0
-674 -200 693 0
-674 -201 694 0
-674 -202 695 0
-674 -203 696 0
-675 -204 668 0
-675 -205 669 0
-675 -206 670 0
-675 -207 671 0
-675 -208 672 0
-675 -209 673 0
-675 -210 674 0
-675 -211 676 0
-675 -212 677 0
-675 -213 678 0
-675 -214 679 0
-675 -215 680 0
-675 -216 681 0
-675 -217 682 0
-675 -218 683 0
-675 -219 684 0
-675 -220 685 0
-675 -221 686 0
-675 -222 687 0
-675 -223 688 0
-675 -224 689 0
-675 -225 690 0
-675 -227 691 0
-675 -228 692 0
-675 -229 693 0
-675 -230 694 0
-675 -231 695 0
-675 -232 696 0
-676 -233 668 0
-676 -234 669 0
-676 -235 670 0
-676 -236 671 0
-676 -237 672 0
-676 -238 673 0
-676 -239 674 0
-676 -240 675 0
-676 -241 677 0
-676 -242 678 0
-676 -243 679 0
-676 -244 680 0
-676 -245 681 0
-676 -246 682 0
-676 -247 683 0
-676 -248 684 0
-676 -249 685 0
-676 -250 686 0
-676 -251 687 0
-676 -252 688 0
-676 -253 689 0
-676 -254 690 0
-676 -256 691 0
-676 -257 692 0
-676 -258 693 0
-676 -259 694 0
-676 -260 695 0
-676 -261 696 0
-677 -262 668 0
-677 -263 669 0
-677 -264 670 0
-677 -265 671 0
-677 -266 672 0
-677 -267 673 0
-677 -268 674 0
-677 -269 675 0
-677 -270 676 0
-677 -271 678 0
-677 -272 679 0
-677 -273 680 0
-677 -274 681 0
-677 -275 682 0
-677 -276 683 0
-677 -277 684 0
-677 -278 685 0
-677 -279 686 0
-677 -280 687 0
-677 -281 688 0
-677 -282 689 0
-677 -283 690 0
-677 -285 691 0
-677 -286 692 0
-677 -287 693 0
-677 -288 694 0
-677 -289 695 0
-677 -290 696 0
-678 -291 668 0
-678 -292 669 0
-678 -293 670 0
-678 -294 671 0
-678 -295 672 0
-678 -296 673 0
-678 -297 674 0
-678 -298 675 0
-678 -299 676 0
-678 -300 677 0
-678 -301 679 0
-678 -302 680 0
-678 -303 681 0
-678 -304 682 0
-678 -305 683 0
-678 -306 684 0
-678 -307 685 0
-678 -308 686 0
-678 -309 687 0
-678 -310 688 0
-678 -311 689 0
-678 -312 690 0
-678 -314 691 0
-678 -315 692 0
-678 -316 693 0
-678 -317 694 0
-678 -318 695 0
-678 -319 696 0
-679 -320 668 0
-679 -321 669 0
-679 -322 670 0
-679 -323 671 0
-679 -324 672 0
-679 -325 673 0
-679 -326 674 0
-679 -327 675 0
-679 -328 676 0
-679 -329 677 0
-679 -330 678 0
-679 -331 680 0
-679 -332 681 0
-679 -333 682 0
-679 -334 683 0
-679 -335 684 0
-679 -336 685 0
-679 -337 686 0
-679 -338 687 0
-679 -339 688 0
-679 -340 689 0
-679 -341 690 0
-679 -343 691 0
-679 -344 692 0
-679 -345 693 0
-679 -346 694 0
-679 -347 695 0
-679 -348 696 0
-680 -349 668 0
-680 -350 669 0
-680 -351 670 0
-680 -352 671 0
-680 -353 672 0
-680 -354 673 0
-680 -355 674 0
-680 -356 675 0
-680 -357 676 0
-680 -358 677 0
-680 -359 678 0
-680 -360 679 0
-680 -361 681 0
-680 -362 682 0
-680 -363 683 0
-680 -364 684 0
-680 -365 685 0
-680 -366 686 0
-680 -367 687 0
-680 -368 688 0
-680 -369 689 0
-680 -370 690 0
-680 -372 691 0
-680 -373 692 0
-680 -374 693 0
-680 -375 694 0
-680 -376 695 0
-680 -377 696 0
-681 -378 668 0
-681 -379 669 0
-681 -380 670 0
-681 -381 671 0
-681 -382 672 0
-681 -383 673 0
-681 -384 674 0
-681 -385 675 0
-681 -386 676 0
-681 -387 677 0
-681 -388 678 0
-681 -389 679 0
-681 -390 680 0
-681 -391 682 0
-681 -392 683 0
-681 -393 684 0
-681 -394 685 0
-681 -395 686 0
-681 -396 687 0
-681 -397 688 0
-681 -398 689 0
-681 -399 690 0
-681 -401 691 0
-681 -402 692 0
-681 -403 693 0
-681 -404 694 0
-681 -405 695 0
-681 -406 696 0
-682 -407 668 0
-682 -408 669 0
-682 -409 670 0
-682 -410 671 0
-682 -411 672 0
-682 -412 673 0
-682 -413 674 0
-682 -414 675 0
-682 -415 676 0
-682 -416 677 0
-682 -417 678 0
-682 -418 679 0
-682 -419 680 0
-682 -420 681 0
-682 -421 683 0
-682 -422 684 0
-682 -423 685 0
-682 -424 686 0
-682 -425 687 0
-682 -426 688 0
-682 -427 689 0
-682 -428 690 0
-682 -430 691 0
-682 -431 692 0
-682 -432 693 0
-682 -433 694 0
-682 -434 695 0
-682 -435 696 0
-683 -436 668 0
-683 -437 669 0
-683 -438 670 0
-683 -439 671 0
-683 -440 672 0
-683 -441 673 0
-683 -442 674 0
-683 -443 675 0
-683 -444 676 0
-683 -445 677 0
-683 -446 678 0
-683 -447 679 0
-683 -448 680 0
-683 -449 681 0
-683 -450 682 0
-683 -451 684 0
-683 -452 685 0
-683 -453 686 0
-683 -454 687 0
-683 -455 688 0
-683 -456 689 0
-683 -457 690 0
-683 -459 691 0
-683 -460 692 0
-683 -461 693 0
-683 -462 694 0
-683 -463 695 0
-683 -464 696 0
-684 -465 668 0
-684 -466 669 0
-684 -467 670 0
-684 -468 671 0
-684 -469 672 0
-684 -470 673 0
-684 -471 674 0
-684 -472 675 0
-684 -473 676 0
-684 -474 677 0
-684 -475 678 0
-684 -476 679 0
-684 -477 680 0
-684 -478 681 0
-684 -479 682 0
-684 -480 683 0
-684 -481 685 0
-684 -482 686 0
-684 -483 687 0
-684 -484 688 0
-684 -485 689 0
-684 -486 690 0
-684 -488 691 0
-684 -489 692 0
-684 -490 693 0
-684 -491 694 0
-684 -492 695 0
-684 -493 696 0
-685 -494 668 0
-685 -495 669 0
-685 -496 670 0
-685 -497 671 0
-685 -498 672 0
-685 -499 673 0
-685 -500 674 0
-685 -501 675 0
-685 -502 676 0
-685 -503 677 0
-685 -504 678 0
-685 -505 679 0
-685 -506 680 0
-685 -507 681 0
-685 -508 682 0
-685 -509 683 0
-685 -510 684 0
-685 -511 686 0
-685 -512 687 0
-685 -513 688 0
-685 -514 689 0
-685 -515 690 0
-685 -517 691 0
-685 -518 692 0
-685 -519 693 0
-685 -520 694 0
-685 -521 695 0
-685 -522 696 0
-686 -523 668 0
-686 -524 669 0
-686 -525 670 0
-686 -526 671 0
-686 -527 672 0
-686 -528 673 0
-686 -529 674 0
-686 -530 675 0
-686 -531 676 0
-686 -532 677 0
-686 -533 678 0
-686 -534 679 0
-686 -535 680 0
-686 -536 681 0
-686 -537 682 0
-686 -538 683 0
-686 -539 684 0
-686 -540 685 0
-686 -541 687 0
-686 -542 688 0
-686 -543 689 0
-686 -544 690 0
-686 -546 691 0
-686 -547 692 0
-686 -548 693 0
-686 -549 694 0
-686 -550 695 0
-686 -551 696 0
-687 -552 668 0
-687 -553 669 0
-687 -554 670 0
-687 -555 671 0
-687 -556 672 0
-687 -557 673 0
-687 -558 674 0
-687 -559 675 0
-687 -560 676 0
-687 -561 677 0
-687 -562 678 0
-687 -563 679 0
-687 -564 680 0
-687 -565 681 0
-687 -566 682 0
-687 -567 683 0
-687 -568 684 0
-687 -569 685 0
-687 -570 686 0
-687 -571 688 0
-687 -572 689 0
-687 -573 690 0
-687 -575 691 0
-687 -576 692 0
-687 -577 693 0
-687 -578 694 0
-687 -579 695 0
-687 -580 696 0
-688 -581 668 0
-688 -582 669 0
-688 -583 670 0
-688 -584 671 0
-688 -585 672 0
-688 -586 673 0
-688 -587 674 0
-688 -588 675 0
-688 -589 676 0
-688 -590 677 0
-688 -591 678 0
-688 -592 679 0
-688 -593 680 0
-688 -594 681 0
-688 -595 682 0
-688 -596 683 0
-688 -597 684 0
-688 -598 685 0
-688 -599 686 0
-688 -600 687 0
-688 -601 689 0
-688 -602 690 0
-688 -604 691 0
-688 -605 692 0
-688 -606 693 0
-688 -607 694 0
-688 -608 695 0
-688 -609 696 0
-689 -610 668 0
-689 -611 669 0
-689 -612 670 0
-689 -613 671 0
-689 -614 672 0
-689 -615 673 0
-689 -616 674 0
-689 -617 675 0
-689 -618 676 0
-689 -619 677 0
-689 -620 678 0
-689 -621 679 0
-689 -622 680 0
-689 -623 681 0
-689 -624 682 0
-689 -625 683 0
-689 -626 684 0
-689 -627 685 0
-689 -628 686 0
-689 -629 687 0
-689 -630 688 0
-689 -631 690 0
-689 -633 691 0
-689 -634 692 0
-689 -635 693 0
-689 -636 694 0
-689 -637 695 0
-689 -638 696 0
-690 -639 668 0
-690 -640 669 0
-690 -641 670 0
-690 -642 671 0
-690 -643 672 0
-690 -644 673 0
-690 -645 674 0
-690 -646 675 0
-690 -647 676 0
-690 -648 677 0
-690 -649 678 0
-690 -650 679 0
-690 -651 680 0
-690 -652 681 0
-690 -653 682 0
-690 -654 683 0
-690 -655 684 0
-690 -656 685 0
-690 -657 686 0
-690 -658 687 0
-690 -659 688 0
-690 -660 689 0
-690 -662 691 0
-690 -663 692 0
-690 -664 693 0
-690 -665 694 0
-690 -666 695 0
-690 -667 696 0
-691 -697 668 0
-691 -698 669 0
-691 -699 670 0
-691 -700 671 0
-691 -701 672 0
-691 -702 673 0
-691 -703 674 0
-691 -704 675 0
-691 -705 676 0
-691 -706 677 0
-691 -707 678 0
-691 -708 679 0
-691 -709 680 0
-691 -710 681 0
-691 -711 682 0
-691 -712 683 0
-691 -713 684 0
-691 -714 685 0
-691 -715 686 0
-691 -716 687 0
-691 -717 688 0
-691 -718 689 0
-691 -719 690 0
-691 -721 692 0
-691 -722 693 0
-691 -723 694 0
-691 -724 695 0
-691 -725 696 0
-692 -726 668 0
-692 -727 669 0
-692 -728 670 0
-692 -729 671 0
-692 -730 672 0
-692 -731 673 0
-692 -732 674 0
-692 -733 675 0
-692 -734 676 0
-692 -735 677 0
-692 -736 678 0
-692 -737 679 0
-692 -738 680 0
-692 -739 681 0
-692 -740 682 0
-692 -741 683 0
-692 -742 684 0
-692 -743 685 0
-692 -744 686 0
-692 -745 687 0
-692 -746 688 0
-692 -747 689 0
-692 -748 690 0
-692 -750 691 0
-692 -751 693 0
-692 -752 694 0
-692 -753 695 0
-692 -754 696 0
-693 -755 668 0
-693 -756 669 0
-693 -757 670 0
-693 -758 671 0
-693 -759 672 0
-693 -760 673 0
-693 -761 674 0
-693 -762 675 0
-693 -763 676 0
-693 -764 677 0
-693 -765 678 0
-693 -766 679 0
-693 -767 680 0
-693 -768 681 0
-693 -769 682 0
-693 -770 683 0
-693 -771 684 0
-693 -772 685 0
-693 -773 686 0
-693 -774 687 0
-693 -775 688 0
-693 -776 689 0
-693 -777 690 0
-693 -779 691 0
-693 -780 692 0
-693 -781 694 0
-693 -782 695 0
-693 -783 696 0
-694 -784 668 0
-694 -785 669 0
-694 -786 670 0
-694 -787 671 0
-694 -788 672 0
-694 -789 673 0
-694 -790 674 0
-694 -791 675 0
-694 -792 676 0
-694 -793 677 0
-694 -794 678 0
-694 -795 679 0
-694 -796 680 0
-694 -797 681 0
-694 -798 682 0
-694 -799 683 0
-694 -800 684 0
-694 -801 685 0
-694 -802 686 0
-694 -803 687 0
-694 -804 688 0
-694 -805 689 0
-694 -806 690 0
-694 -808 691 0
-694 -809 692 0
-694 -810 693 0
-694 -811 695 0
-694 -812 696 0
-695 -813 668 0
-695 -814 669 0
-695 -815 670 0
-695 -816 671 0
-695 -817 672 0
-695 -818 673 0
-695 -819 674 0
-695 -820 675 0
-695 -821 676 0
-695 -822 677 0
-695 -823 678 0
-695 -824 679 0
-695 -825 680 0
-695 -826 681 0
-695 -827 682 0
-695 -828 683 0
-695 -829 684 0
-695 -830 685 0
-695 -831 686 0
-695 -832 687 0
-695 -833 688 0
-695 -834 689 0
-695 -835 690 0
-695 -837 691 0
-695 -838 692 0
-695 -839 693 0
-695 -840 694 0
-695 -841 696 0
-696 -842 668 0
-696 -843 669 0
-696 -844 670 0
-696 -845 671 0
-696 -846 672 0
-696 -847 673 0
-696 -848 674 0
-696 -849 675 0
-696 -850 676 0
-696 -851 677 0
-696 -852 678 0
-696 -853 679 0
-696 -854 680 0
-696 -855 681 0
-696 -856 682 0
-696 -857 683 0
-696 -858 684 0
-696 -859 685 0
-696 -860 686 0
-696 -861 687 0
-696 -862 688 0
-696 -863 689 0
-696 -864 690 0
-696 -866 691 0
-696 -867 692 0
-696 -868 693 0
-696 -869 694 0
-696 -870 695 0
-697 -1 698 0
-697 -2 699 0
-697 -3 700 0
-697 -4 701 0
-697 -5 702 0
-697 -6 703 0
-697 -7 704 0
-697 -8 705 0
-697 -9 706 0
-697 -10 707 0
-697 -11 708 0
-697 -12 709 0
-697 -13 710 0
-697 -14 711 0
-697 -15 712 0
-697 -16 713 0
-697 -17 714 0
-697 -18 715 0
-697 -19 716 0
-697 -20 717 0
-697 -21 718 0
-697 -22 719 0
-697 -23 720 0
-697 -25 721 0
-697 -26 722 0
-697 -27 723 0
-697 -28 724 0
-697 -29 725 0
-698 -30 697 0
-698 -31 699 0
-698 -32 700 0
-698 -33 701 0
-698 -34 702 0
-698 -35 703 0
-698 -36 704 0
-698 -37 705 0
-698 -38 706 0
-698 -39 707 0
-698 -40 708 0
-698 -41 709 0
-698 -42 710 0
-698 -43 711 0
-698 -44 712 0
-698 -45 713 0
-698 -46 714 0
-698 -47 715 0
-698 -48 716 0
-698 -49 717 0
-698 -50 718 0
-698 -51 719 0
-698 -52 720 0
-698 -54 721 0
-698 -55 722 0
-698 -56 723 0
-698 -57 724 0
-698 -58 725 0
-699 -59 697 0
-699 -60 698 0
-699 -61 700 0
-699 -62 701 0
-699 -63 702 0
-699 -64 703 0
-699 -65 704 0
-699 -66 705 0
-699 -67 706 0
-699 -68 707 0
-699 -69 708 0
-699 -70 709 0
-699 -71 710 0
-699 -72 711 0
-699 -73 712 0
-699 -74 713 0
-699 -75 714 0
-699 -76 715 0
-699 -77 716 0
-699 -78 717 0
-699 -79 718 0
-699 -80 719 0
-699 -81 720 0
-699 -83 721 0
-699 -84 722 0
-699 -85 723 0
-699 -86 724 0
-699 -87 725 0
-700 -88 697 0
-700 -89 698 0
-700 -90 699 0
-700 -91 701 0
-700 -92 702 0
-700 -93 703 0
-700 -94 704 0
-700 -95 705 0
-700 -96 706 0
-700 -97 707 0
-700 -98 708 0
-700 -99 709 0
-700 -100 710 0
-700 -101 711 0
-700 -102 712 0
-700 -103 713 0
-700 -104 714 0
-700 -105 715 0
-700 -106 716 0
-700 -107 717 0
-700 -108 718 0
-700 -109 719 0
-700 -110 720 0
-700 -112 721 0
-700 -113 722 0
-700 -114 723 0
-700 -115 724 0
-700 -116 725 0
-701 -117 697 0
-701 -118 698 0
-701 -119 699 0
-701 -120 700 0
-701 -121 702 0
-701 -122 703 0
-701 -123 704 0
-701 -124 705 0
-701 -125 706 0
-701 -126 707 0
-701 -127 708 0
-701 -128 709 0
-701 -129 710 0
-701 -130 711 0
-701 -131 712 0
-701 -132 713 0
-701 -133 714 0
-701 -134 715 0
-701 -135 716 0
-701 -136 717 0
-701 -137 718 0
-701 -138 719 0
-701 -139 720 0
-701 -141 721 0
-701 -142 722 0
-701 -143 723 0
-701 -144 724 0
-701 -145 725 0
-702 -146 697 0
-702 -147 698 0
-702 -148 699 0
-702 -149 700 0
-702 -150 701 0
-702 -151 703 0
-702 -152 704 0
-702 -153 705 0
-702 -154 706 0
-702 -155 707 0
-702 -156 708 0
-702 -157 709 0
-702 -158 710 0
-702 -159 711 0
-702 -160 712 0
-702 -161 713 0
-702 -162 714 0
-702 -163 715 0
-702 -164 716 0
-702 -165 717 0
-702 -166 718 0
-702 -167 719 0
-702 -168 720 0
-702 -170 721 0
-702 -171 722 0
-702 -172 723 0
-702 -173 724 0
-702 -174 725 0
-703 -175 697 0
-703 -176 698 0
-703 -177 699 0
-703 -178 700 0
-703 -179 701 0
-703 -180 702 0
-703 -181 704 0
-703 -182 705 0
-703 -183 706 0
-703 -184 707 0
-703 -185 708 0
-703 -186 709 0
-703 -187 710 0
-703 -188 711 0
-703 -189 712 0
-703 -190 713 0
-703 -191 714 0
-703 -192 715 0
-703 -193 716 0
-703 -194 717 0
-703 -195 718 0
-703 -196 719 0
-703 -197 720 0
-703 -199 721 0
-703 -200 722 0
-703 -201 723 0
-703 -202 724 0
-703 -203 725 0
-704 -204 697 0
-704 -205 698 0
-704 -206 699 0
-704 -207 700 0
-704 -208 701 0
-704 -209 702 0
-704 -210 703 0
-704 -211 705 0
-704 -212 706 0
-704 -213 707 0
-704 -214 708 0
-704 -215 709 0
-704 -216 710 0
-704 -217 711 0
-704 -218 712 0
-704 -219 713 0
-704 -220 714 0
-704 -221 715 0
-704 -222 716 0
-704 -223 717 0
-704 -224 718 0
-704 -225 719 0
-704 -226 720 0
-704 -228 721 0
-704 -229 722 0
-704 -230 723 0
-704 -231 724 0
-704 -232 725 0
-705 -233 697 0
-705 -234 698 0
-705 -235 699 0
-705 -236 700 0
-705 -237 701 0
-705 -238 702 0
-705 -239 703 0
-705 -240 704 0
-705 -241 706 0
-705 -242 707 0
-705 -243 708 0
-705 -244 709 0
-705 -245 710 0
-705 -246 711 0
-705 -247 712 0
-705 -248 713 0
-705 -249 714 0
-705 -250 715 0
-705 -251 716 0
-705 -252 717 0
-705 -253 718 0
-705 -254 719 0
-705 -255 720 0
-705 -257 721 0
-705 -258 722 0
-705 -259 723 0
-705 -260 724 0
-705 -261 725 0
-706 -262 697 0
-706 -263 698 0
-706 -264 699 0
-706 -265 700 0
-706 -266 701 0
-706 -267 702 0
-706 -268 703 0
-706 -269 704 0
-706 -270 705 0
-706 -271 707 0
-706 -272 708 0
-706 -273 709 0
-706 -274 710 0
-706 -275 711 0
-706 -276 712 0
-706 -277 713 0
-706 -278 714 0
-706 -279 715 0
-706 -280 716 0
-706 -281 717 0
-706 -282 718 0
-706 -283 719 0
-706 -284 720 0
-706 -286 721 0
-706 -287 722 0
-706 -288 723 0
-706 -289 724 0
-706 -290 725 0
-707 -291 697 0
-707 -292 698 0
-707 -293 699 0
-707 -294 700 0
-707 -295 701 0
-707 -296 702 0
-707 -297 703 0
-707 -298 704 0
-707 -299 705 0
-707 -300 706 0
-707 -301 708 0
-707 -302 709 0
-707 -303 710 0
-707 -304 711 0
-707 -305 712 0
-707 -306 713 0
-707 -307 714 0
-707 -308 715 0
-707 -309 716 0
-707 -310 717 0
-707 -311 718 0
-707 -312 719 0
-707 -313 720 0
-707 -315 721 0
-707 -316 722 0
-707 -317 723 0
-707 -318 724 0
-707 -319 725 0
-708 -320 697 0
-708 -321 698 0
-708 -322 699 0
-708 -323 700 0
-708 -324 701 0
-708 -325 702 0
-708 -326 703 0
-708 -327 704 0
-708 -328 705 0
-708 -329 706 0
-708 -330 707 0
-708 -331 709 0
-708 -332 710 0
-708 -333 711 0
-708 -334 712 0
-708 -335 713 0
-708 -336 714 0
-708 -337 715 0
-708 -338 716 0
-708 -339 717 0
-708 -340 718 0
-708 -341 719 0
-708 -342 720 0
-708 -344 721 0
-708 -345 722 0
-708 -346 723 0
-708 -347 724 0
-708 -348 725 0
-709 -349 697 0
-709 -350 698 0
-709 -351 699 0
-709 -352 700 0
-709 -353 701 0
-709 -354 702 0
-709 -355 703 0
-709 -356 704 0
-709 -357 705 0
-709 -358 706 0
-709 -359 707 0
-709 -360 708 0
-709 -361 710 0
-709 -362 711 0
-709 -363 712 0
-709 -364 713 0
-709 -365 714 0
-709 -366 715 0
-709 -367 716 0
-709 -368 717 0
-709 -369 718 0
-709 -370 719 0
-709 -371 720 0
-709 -373 721 0
-709 -374 722 0
-709 -375 723 0
-709 -376 724 0
-709 -377 725 0
-710 -378 697 0
-710 -379 698 0
-710 -380 699 0
-710 -381 700 0
-710 -382 701 0
-710 -383 702 0
-710 -384 703 0
-710 -385 704 0
-710 -386 705 0
-710 -387 706 0
-710 -388 707 0
-710 -389 708 0
-710 -390 709 0
-710 -391 711 0
-710 -392 712 0
-710 -393 713 0
-710 -394 714 0
-710 -395 715 0
-710 -396 716 0
-710 -397 717 0
-710 -398 718 0
-710 -399 719 0
-710 -400 720 0
-710 -402 721 0
-710 -403 722 0
-710 -404 723 0
-710 -405 724 0
-710 -406 725 0
-711 -407 697 0
-711 -408 698 0
-711 -409 699 0
-711 -410 700 0
-711 -411 701 0
-711 -412 702 0
-711 -413 703 0
-711 -414 704 0
-711 -415 705 0
-711 -416 706 0
-711 -417 707 0
-711 -418 708 0
-711 -419 709 0
-711 -420 710 0
-711 -421 712 0
-711 -422 713 0
-711 -423 714 0
-711 -424 715 0
-711 -425 716 0
-711 -426 717 0
-711 -427 718 0
-711 -428 719 0
-711 -429 720 0
-711 -431 721 0
-711 -432 722 0
-711 -433 723 0
-711 -434 724 0
-711 -435 725 0
-712 -436 697 0
-712 -437 698 0
-712 -438 699 0
-712 -439 700 0
-712 -440 701 0
-712 -441 702 0
-712 -442 703 0
-712 -443 704 0
-712 -444 705 0
-712 -445 706 0
-712 -446 707 0
-712 -447 708 0
-712 -448 709 0
-712 -449 710 0
-712 -450 711 0
-712 -451 713 0
-712 -452 714 0
-712 -453 715 0
-712 -454 716 0
-712 -455 717 0
-712 -456 718 0
-712 -457 719 0
-712 -458 720 0
-712 -460 721 0
-712 -461 722 0
-712 -462 723 0
-712 -463 724 0
-712 -464 725 0
-713 -465 697 0
-713 -466 698 0
-713 -467 699 0
-713 -468 700 0
-713 -469 701 0
-713 -470 702 0
-713 -471 703 0
-713 -472 704 0
-713 -473 705 0
-713 -474 706 0
-713 -475 707 0
-713 -476 708 0
-713 -477 709 0
-713 -478 710 0
-713 -479 711 0
-713 -480 712 0
-713 -481 714 0
-713 -482 715 0
-713 -483 716 0
-713 -484 717 0
-713 -485 718 0
-713 -486 719 0
-713 -487 720 0
-713 -489 721 0
-713 -490 722 0
-713 -491 723 0
-713 -492 724 0
-713 -493 725 0
-714 -494 697 0
-714 -495 698 0
-714 -496 699 0
-714 -497 700 0
-714 -498 701 0
-714 -499 702 0
-714 -500 703 0
-714 -501 704 0
-714 -502 705 0
-714 -503 706 0
-714 -504 707 0
-714 -505 708 0
-714 -506 709 0
-714 -507 710 0
-714 -508 711 0
-714 -509 712 0
-714 -510 713 0
-714 -511 715 0
-714 -512 716 0
-714 -513 717 0
-714 -514 718 0
-714 -515 719 0
-714 -516 720 0
-714 -518 721 0
-714 -519 722 0
-714 -520 723 0
-714 -521 724 0
-714 -522 725 0
-715 -523 697 0
-715 -524 698 0
-715 -525 699 0
-715 -526 700 0
-715 -527 701 0
-715 -528 702 0
-715 -529 703 0
-715 -530 704 0
-715 -531 705 0
-715 -532 706 0
-715 -533 707 0
-715 -534 708 0
-715 -535 709 0
-715 -536 710 0
-715 -537 711 0
-715 -538 712 0
-715 -539 713 0
-715 -540 714 0
-715 -541 716 0
-715 -542 717 0
-715 -543 718 0
-715 -544 719 0
-715 -545 720 0
-715 -547 721 0
-715 -548 722 0
-715 -549 723 0
-715 -550 724 0
-715 -551 725 0
-716 -552 697 0
-716 -553 698 0
-716 -554 699 0
-716 -555 700 0
-716 -556 701 0
-716 -557 702 0
-716 -558 703 0
-716 -559 704 0
-716 -560 705 0
-716 -561 706 0
-716 -562 707 0
-716 -563 708 0
-716 -564 709 0
-716 -565 710 0
-716 -566 711 0
-716 -567 712 0
-716 -568 713 0
-716 -569 714 0
-716 -570 715 0
-716 -571 717 0
-716 -572 718 0
-716 -573 719 0
-716 -574 720 0
-716 -576 721 0
-716 -577 722 0
-716 -578 723 0
-716 -579 724 0
-716 -580 725 0
-717 -581 697 0
-717 -582 698 0
-717 -583 699 0
-717 -584 700 0
-717 -585 701 0
-717 -586 702 0
-717 -587 703 0
-717 -588 704 0
-717 -589 705 0
-717 -590 706 0
-717 -591 707 0
-717 -592 708 0
-717 -593 709 0
-717 -594 710 0
-717 -595 711 0
-717 -596 712 0
-717 -597 713 0
-717 -598 714 0
-717 -599 715 0
-717 -600 716 0
-717 -601 718 0
-717 -602 719 0
-717 -603 720 0
-717 -605 721 0
-717 -606 722 0
-717 -607 723 0
-717 -608 724 0
-717 -609 725 0
-718 -610 697 0
-718 -611 698 0
-718 -612 699 0
-718 -613 700 0
-718 -614 701 0
-718 -615 702 0
-718 -616 703 0
-718 -617 704 0
-718 -618 705 0
-718 -619 706 0
-718 -620 707 0
-718 -621 708 0
-718 -622 709 0
-718 -623 710 0
-718 -624 711 0
-718 -625 712 0
-718 -626 713 0
-718 -627 714 0
-718 -628 715 0
-718 -629 716 0
-718 -630 717 0
-718 -631 719 0
-718 -632 720 0
-718 -634 721 0
-718 -635 722 0
-718 -636 723 0
-718 -637 724 0
-718 -638 725 0
-719 -639 697 0
-719 -640 698 0
-719 -641 699 0
-719 -642 700 0
-719 -643 701 0
-719 -644 702 0
-719 -645 703 0
-719 -646 704 0
-719 -647 705 0
-719 -648 706 0
-719 -649 707 0
-719 -650 708 0
-719 -651 709 0
-719 -652 710 0
-719 -653 711 0
-719 -654 712 0
-719 -655 713 0
-719 -656 714 0
-719 -657 715 0
-719 -658 716 0
-719 -659 717 0
-719 -660 718 0
-719 -661 720 0
-719 -663 721 0
-719 -664 722 0
-719 -665 723 0
-719 -666 724 0
-719 -667 725 0
-720 -668 697 0
-720 -669 698 0
-720 -670 699 0
-720 -671 700 0
-720 -672 701 0
-720 -673 702 0
-720 -674 703 0
-720 -675 704 0
-720 -676 705 0
-720 -677 706 0
-720 -678 707 0
-720 -679 708 0
-720 -680 709 0
-720 -681 710 0
-720 -682 711 0
-720 -683 712 0
-720 -684 713 0
-720 -685 714 0
-720 -686 715 0
-720 -687 716 0
-720 -688 717 0
-720 -689 718 0
-720 -690 719 0
-720 -692 721 0
-720 -693 722 0
-720 -694 723 0
-720 -695 724 0
-720 -696 725 0
-721 -726 697 0
-721 -727 698 0
-721 -728 699 0
-721 -729 700 0
-721 -730 701 0
-721 -731 702 0
-721 -732 703 0
-721 -733 704 0
-721 -734 705 0
-721 -735 706 0
-721 -736 707 0
-721 -737 708 0
-721 -738 709 0
-721 -739 710 0
-721 -740 711 0
-721 -741 712 0
-721 -742 713 0
-721 -743 714 0
-721 -744 715 0
-721 -745 716 0
-721 -746 717 0
-721 -747 718 0
-721 -748 719 0
-721 -749 720 0
-721 -751 722 0
-721 -752 723 0
-721 -753 724 0
-721 -754 725 0
-722 -755 697 0
-722 -756 698 0
-722 -757 699 0
-722 -758 700 0
-722 -759 701 0
-722 -760 702 0
-722 -761 703 0
-722 -762 704 0
-722 -763 705 0
-722 -764 706 0
-722 -765 707 0
-722 -766 708 0
-722 -767 709 0
-722 -768 710 0
-722 -769 711 0
-722 -770 712 0
-722 -771 713 0
-722 -772 714 0
-722 -773 715 0
-722 -774 716 0
-722 -775 717 0
-722 -776 718 0
-722 -777 719 0
-722 -778 720 0
-722 -780 721 0
-722 -781 723 0
-722 -782 724 0
-722 -783 725 0
-723 -784 697 0
-723 -785 698 0
-723 -786 699 0
-723 -787 700 0
-723 -788 701 0
-723 -789 702 0
-723 -790 703 0
-723 -791 704 0
-723 -792 705 0
-723 -793 706 0
-723 -794 707 0
-723 -795 708 0
-723 -796 709 0
-723 -797 710 0
-723 -798 711 0
-723 -799 712 0
-723 -800 713 0
-723 -801 714 0
-723 -802 715 0
-723 -803 716 0
-723 -804 717 0
-723 -805 718 0
-723 -806 719 0
-723 -807 720 0
-723 -809 721 0
-723 -810 722 0
-723 -811 724 0
-723 -812 725 0
-724 -813 697 0
-724 -814 698 0
-724 -815 699 0
-724 -816 700 0
-724 -817 701 0
-724 -818 702 0
-724 -819 703 0
-724 -820 704 0
-724 -821 705 0
-724 -822 706 0
-724 -823 707 0
-724 -824 708 0
-724 -825 709 0
-724 -826 710 0
-724 -827 711 0
-724 -828 712 0
-724 -829 713 0
-724 -830 714 0
-724 -831 715 0
-724 -832 716 0
-724 -833 717 0
-724 -834 718 0
-724 -835 719 0
-724 -836 720 0
-724 -838 721 0
-724 -839 722 0
-724 -840 723 0
-724 -841 725 0
-725 -842 697 0
-725 -843 698 0
-725 -844 699 0
-725 -845 700 0
-725 -846 701 0
-725 -847 702 0
-725 -848 703 0
-725 -849 704 0
-725 -850 705 0
-725 -851 706 0
-725 -852 707 0
-725 -853 708 0
-725 -854 709 0
-725 -855 710 0
-725 -856 711 0
-725 -857 712 0
-725 -858 713 0
-725 -859 714 0
-725 -860 715 0
-725 -861 716 0
-725 -862 717 0
-725 -863 718 0
-725 -864 719 0
-725 -865 720 0
-725 -867 721 0
-725 -868 722 0
-725 -869 723 0
-725 -870 724 0
-726 -1 727 0
-726 -2 728 0
-726 -3 729 0
-726 -4 730 0
-726 -5 731 0
-726 -6 732 0
-726 -7 733 0
-726 -8 734 0
-726 -9 735 0
-726 -10 736 0
-726 -11 737 0
-726 -12 738 0
-726 -13 739 0
-726 -14 740 0
-726 -15 741 0
-726 -16 742 0
-726 -17 743 0
-726 -18 744 0
-726 -19 745 0
-726 -20 746 0
-726 -21 747 0
-726 -22 748 0
-726 -23 749 0
-726 -24 750 0
-726 -26 751 0
-726 -27 752 0
-726 -28 753 0
-726 -29 754 0
-727 -30 726 0
-727 -31 728 0
-727 -32 729 0
-727 -33 730 0
-727 -34 731 0
-727 -35 732 0
-727 -36 733 0
-727 -37 734 0
-727 -38 735 0
-727 -39 736 0
-727 -40 737 0
-727 -41 738 0
-727 -42 739 0
-727 -43 740 0
-727 -44 741 0
-727 -45 742 0
-727 -46 743 0
-727 -47 744 0
-727 -48 745 0
-727 -49 746 0
-727 -50 747 0
-727 -51 748 0
-727 -52 749 0
-727 -53 750 0
-727 -55 751 0
-727 -56 752 0
-727 -57 753 0
-727 -58 754 0
-728 -59 726 0
-728 -60 727 0
-728 -61 729 0
-728 -62 730 0
-728 -63 731 0
-728 -64 732 0
-728 -65 733 0
-728 -66 734 0
-728 -67 735 0
-728 -68 736 0
-728 -69 737 0
-728 -70 738 0
-728 -71 739 0
-728 -72 740 0
-728 -73 741 0
-728 -74 742 0
-728 -75 743 0
-728 -76 744 0
-728 -77 745 0
-728 -78 746 0
-728 -79 747 0
-728 -80 748 0
-728 -81 749 0
-728 -82 750 0
-728 -84 751 0
-728 -85 752 0
-728 -86 753 0
-728 -87 754 0
-729 -88 726 0
-729 -89 727 0
-729 -90 728 0
-729 -91 730 0
-729 -92 731 0
-729 -93 732 0
-729 -94 733 0
-729 -95 734 0
-729 -96 735 0
-729 -97 736 0
-729 -98 737 0
-729 -99 738 0
-729 -100 739 0
-729 -101 740 0
-729 -102 741 0
-729 -103 742 0
-729 -104 743 0
-729 -105 744 0
-729 -106 745 0
-729 -107 746 0
-729 -108 747 0
-729 -109 748 0
-729 -110 749 0
-729 -111 750 0
-729 -113 751 0
-729 -114 752 0
-729 -115 753 0
-729 -116 754 0
-730 -117 726 0
-730 -118 727 0
-730 -119 728 0
-730 -120 729 0
-730 -121 731 0
-730 -122 732 0
-730 -123 733 0
-730 -124 734 0
-730 -125 735 0
-730 -126 736 0
-730 -127 737 0
-730 -128 738 0
-730 -129 739 0
-730 -130 740 0
-730 -131 741 0
-730 -132 742 0
-730 -133 743 0
-730 -134 744 0
-730 -135 745 0
-730 -136 746 0
-730 -137 747 0
-730 -138 748 0
-730 -139 749 0
-730 -140 750 0
-730 -142 751 0
-730 -143 752 0
-730 -144 753 0
-730 -145 754 0
-731 -146 726 0
-731 -147 727 0
-731 -148 728 0
-731 -149 729 0
-731 -150 730 0
-731 -151 732 0
-731 -152 733 0
-731 -153 734 0
-731 -154 735 0
-731 -155 736 0
-731 -156 737 0
-731 -157 738 0
-731 -158 739 0
-731 -159 740 0
-731 -160 741 0
-731 -161 742 0
-731 -162 743 0
-731 -163 744 0
-731 -164 745 0
-731 -165 746 0
-731 -166 747 0
-731 -167 748 0
-731 -168 749 0
-731 -169 750 0
-731 -171 751 0
-731 -172 752 0
-731 -173 753 0
-731 -174 754 0
-732 -175 726 0
-732 -176 727 0
-732 -177 728 0
-732 -178 729 0
-732 -179 730 0
-732 -180 731 0
-732 -181 733 0
-732 -182 734 0
-732 -183 735 0
-732 -184 736 0
-732 -185 737 0
-732 -186 738 0
-732 -187 739 0
-732 -188 740 0
-732 -189 741 0
-732 -190 742 0
-732 -191 743 0
-732 -192 744 0
-732 -193 745 0
-732 -194 746 0
-732 -195 747 0
-732 -196 748 0
-732 -197 749 0
-732 -198 750 0
-732 -200 751 0
-732 -201 752 0
-732 -202 753 0
-732 -203 754 0
-733 -204 726 0
-733 -205 727 0
-733 -206 728 0
-733 -207 729 0
-733 -208 730 0
-733 -209 731 0
-733 -210 732 0
-733 -211 734 0
-733 -212 735 0
-733 -213 736 0
-733 -214 737 0
-733 -215 738 0
-733 -216 739 0
-733 -217 740 0
-733 -218 741 0
-733 -219 742 0
-733 -220 743 0
-733 -221 744 0
-733 -222 745 0
-733 -223 746 0
-733 -224 747 0
-733 -225 748 0
-733 -226 749 0
-733 -227 750 0
-733 -229 751 0
-733 -230 752 0
-733 -231 753 0
-733 -232 754 0
-734 -233 726 0
-734 -234 727 0
-734 -235 728 0
-734 -236 729 0
-734 -237 730 0
-734 -238 731 0
-734 -239 732 0
-734 -240 733 0
-734 -241 735 0
-734 -242 736 0
-734 -243 737 0
-734 -244 738 0
-734 -245 739 0
-734 -246 740 0
-734 -247 741 0
-734 -248 742 0
-734 -249 743 0
-734 -250 744 0
-734 -251 745 0
-734 -252 746 0
-734 -253 747 0
-734 -254 748 0
-734 -255 749 0
-734 -256 750 0
-734 -258 751 0
-734 -259 752 0
-734 -260 753 0
-734 -261 754 0
-735 -262 726 0
-735 -263 727 0
-735 -264 728 0
-735 -265 729 0
-735 -266 730 0
-735 -267 731 0
-735 -268 732 0
-735 -269 733 0
-735 -270 734 0
-735 -271 736 0
-735 -272 737 0
-735 -273 738 0
-735 -274 739 0
-735 -275 740 0
-735 -276 741 0
-735 -277 742 0
-735 -278 743 0
-735 -279 744 0
-735 -280 745 0
-735 -281 746 0
-735 -282 747 0
-735 -283 748 0
-735 -284 749 0
-735 -285 750 0
-735 -287 751 0
-735 -288 752 0
-735 -289 753 0
-735 -290 754 0
-736 -291 726 0
-736 -292 727 0
-736 -293 728 0
-736 -294 729 0
-736 -295 730 0
-736 -296 731 0
-736 -297 732 0
-736 -298 733 0
-736 -299 734 0
-736 -300 735 0
-736 -301 737 0
-736 -302 738 0
-736 -303 739 0
-736 -304 740 0
-736 -305 741 0
-736 -306 742 0
-736 -307 743 0
-736 -308 744 0
-736 -309 745 0
-736 -310 746 0
-736 -311 747 0
-736 -312 748 0
-736 -313 749 0
-736 -314 750 0
-736 -316 751 0
-736 -317 752 0
-736 -318 753 0
-736 -319 754 0
-737 -320 726 0
-737 -321 727 0
-737 -322 728 0
-737 -323 729 0
-737 -324 730 0
-737 -325 731 0
-737 -326 732 0
-737 -327 733 0
-737 -328 734 0
-737 -329 735 0
-737 -330 736 0
-737 -331 738 0
-737 -332 739 0
-737 -333 740 0
-737 -334 741 0
-737 -335 742 0
-737 -336 743 0
-737 -337 744 0
-737 -338 745 0
-737 -339 746 0
-737 -340 747 0
-737 -341 748 0
-737 -342 749 0
-737 -343 750 0
-737 -345 751 0
-737 -346 752 0
-737 -347 753 0
-737 -348 754 0
-738 -349 726 0
-738 -350 727 0
-738 -351 728 0
-738 -352 729 0
-738 -353 730 0
-738 -354 731 0
-738 -355 732 0
-738 -356 733 0
-738 -357 734 0
-738 -358 735 0
-738 -359 736 0
-738 -360 737 0
-738 -361 739 0
-738 -362 740 0
-738 -363 741 0
-738 -364 742 0
-738 -365 743 0
-738 -366 744 0
-738 -367 745 0
-738 -368 746 0
-738 -369 747 0
-738 -370 748 0
-738 -371 749 0
-738 -372 750 0
-738 -374 751 0
-738 -375 752 0
-738 -376 753 0
-738 -377 754 0
-739 -378 726 0
-739 -379 727 0
-739 -380 728 0
-739 -381 729 0
-739 -382 730 0
-739 -383 731 0
-739 -384 732 0
-739 -385 733 0
-739 -386 734 0
-739 -387 735 0
-739 -388 736 0
-739 -389 737 0
-739 -390 738 0
-739 -391 740 0
-739 -392 741 0
-739 -393 742 0
-739 -394 743 0
-739 -395 744 0
-739 -396 745 0
-739 -397 746 0
-739 -398 747 0
-739 -399 748 0
-739 -400 749 0
-739 -401 750 0
-739 -403 751 0
-739 -404 752 0
-739 -405 753 0
-739 -406 754 0
-740 -407 726 0
-740 -408 727 0
-740 -409 728 0
-740 -410 729 0
-740 -411 730 0
-740 -412 731 0
-740 -413 732 0
-740 -414 733 0
-740 -415 734 0
-740 -416 735 0
-740 -417 736 0
-740 -418 737 0
-740 -419 738 0
-740 -420 739 0
-740 -421 741 0
-740 -422 742 0
-740 -423 743 0
-740 -424 744 0
-740 -425 745 0
-740 -426 746 0
-740 -427 747 0
-740 -428 748 0
-740 -429 749 0
-740 -430 750 0
-740 -432 751 0
-740 -433 752 0
-740 -434 753 0
-740 -435 754 0
-741 -436 726 0
-741 -437 727 0
-741 -438 728 0
-741 -439 729 0
-741 -440 730 0
-741 -441 731 0
-741 -442 732 0
-741 -443 733 0
-741 -444 734 0
-741 -445 735 0
-741 -446 736 0
-741 -447 737 0
-741 -448 738 0
-741 -449 739 0
-741 -450 740 0
-741 -451 742 0
-741 -452 743 0
-741 -453 744 0
-741 -454 745 0
-741 -455 746 0
-741 -456 747 0
-741 -457 748 0
-741 -458 749 0
-741 -459 750 0
-741 -461 751 0
-741 -462 752 0
-741 -463 753 0
-741 -464 754 0
-742 -465 726 0
-742 -466 727 0
-742 -467 728 0
-742 -468 729 0
-742 -469 730 0
-742 -470 731 0
-742 -471 732 0
-742 -472 733 0
-742 -473 734 0
-742 -474 735 0
-742 -475 736 0
-742 -476 737 0
-742 -477 738 0
-742 -478 739 0
-742 -479 740 0
-742 -480 741 0
-742 -481 743 0
-742 -482 744 0
-742 -483 745 0
-742 -484 746 0
-742 -485 747 0
-742 -486 748 0
-742 -487 749 0
-742 -488 750 0
-742 -490 751 0
-742 -491 752 0
-742 -492 753 0
-742 -493 754 0
-743 -494 726 0
-743 -495 727 0
-743 -496 728 0
-743 -497 729 0
-743 -498 730 0
-743 -499 731 0
-743 -500 732 0
-743 -501 733 0
-743 -502 734 0
-743 -503 735 0
-743 -504 736 0
-743 -505 737 0
-743 -506 738 0
-743 -507 739 0
-743 -508 740 0
-743 -509 741 0
-743 -510 742 0
-743 -511 744 0
-743 -512 745 0
-743 -513 746 0
-743 -514 747 0
-743 -515 748 0
-743 -516 749 0
-743 -517 750 0
-743 -519 751 0
-743 -520 752 0
-743 -521 753 0
-743 -522 754 0
-744 -523 726 0
-744 -524 727 0
-744 -525 728 0
-744 -526 729 0
-744 -527 730 0
-744 -528 731 0
-744 -529 732 0
-744 -530 733 0
-744 -531 734 0
-744 -532 735 0
-744 -533 736 0
-744 -534 737 0
-744 -535 738 0
-744 -536 739 0
-744 -537 740 0
-744 -538 741 0
-744 -539 742 0
-744 -540 743 0
-744 -541 745 0
-744 -542 746 0
-744 -543 747 0
-744 -544 748 0
-744 -545 749 0
-744 -546 750 0
-744 -548 751 0
-744 -549 752 0
-744 -550 753 0
-744 -551 754 0
-745 -552 726 0
-745 -553 727 0
-745 -554 728 0
-745 -555 729 0
-745 -556 730 0
-745 -557 731 0
-745 -558 732 0
-745 -559 733 0
-745 -560 734 0
-745 -561 735 0
-745 -562 736 0
-745 -563 737 0
-745 -564 738 0
-745 -565 739 0
-745 -566 740 0
-745 -567 741 0
-745 -568 742 0
-745 -569 743 0
-745 -570 744 0
-745 -571 746 0
-745 -572 747 0
-745 -573 748 0
-745 -574 749 0
-745 -575 750 0
-745 -577 751 0
-745 -578 752 0
-745 -579 753 0
-745 -580 754 0
-746 -581 726 0
-746 -582 727 0
-746 -583 728 0
-746 -584 729 0
-746 -585 730 0
-746 -586 731 0
-746 -587 732 0
-746 -588 733 0
-746 -589 734 0
-746 -590 735 0
-746 -591 736 0
-746 -592 737 0
-746 -593 738 0
-746 -594 739 0
-746 -595 740 0
-746 -596 741 0
-746 -597 742 0
-746 -598 743 0
-746 -599 744 0
-746 -600 745 0
-746 -601 747 0
-746 -602 748 0
-746 -603 749 0
-746 -604 750 0
-746 -606 751 0
-746 -607 752 0
-746 -608 753 0
-746 -609 754 0
-747 -610 726 0
-747 -611 727 0
-747 -612 728 0
-747 -613 729 0
-747 -614 730 0
-747 -615 731 0
-747 -616 732 0
-747 -617 733 0
-747 -618 734 0
-747 -619 735 0
-747 -620 736 0
-747 -621 737 0
-747 -622 738 0
-747 -623 739 0
-747 -624 740 0
-747 -625 741 0
-747 -626 742 0
-747 -627 743 0
-747 -628 744 0
-747 -629 745 0
-747 -630 746 0
-747 -631 748 0
-747 -632 749 0
-747 -633 750 0
-747 -635 751 0
-747 -636 752 0
-747 -637 753 0
-747 -638 754 0
-748 -639 726 0
-748 -640 727 0
-748 -641 728 0
-748 -642 729 0
-748 -643 730 0
-748 -644 731 0
-748 -645 732 0
-748 -646 733 0
-748 -647 734 0
-748 -648 735 0
-748 -649 736 0
-748 -650 737 0
-748 -651 738 0
-748 -652 739 0
-748 -653 740 0
-748 -654 741 0
-748 -655 742 0
-748 -656 743 0
-748 -657 744 0
-748 -658 745 0
-748 -659 746 0
-748 -660 747 0
-748 -661 749 0
-748 -662 750 0
-748 -664 751 0
-748 -665 752 0
-748 -666 753 0
-748 -667 754 0
-749 -668 726 0
-749 -669 727 0
-749 -670 728 0
-749 -671 729 0
-749 -672 730 0
-749 -673 731 0
-749 -674 732 0
-749 -675 733 0
-749 -676 734 0
-749 -677 735 0
-749 -678 736 0
-749 -679 737 0
-749 -680 738 0
-749 -681 739 0
-749 -682 740 0
-749 -683 741 0
-749 -684 742 0
-749 -685 743 0
-749 -686 744 0
-749 -687 745 0
-749 -688 746 0
-749 -689 747 0
-749 -690 748 0
-749 -691 750 0
-749 -693 751 0
-749 -694 752 0
-749 -695 753 0
-749 -696 754 0
-750 -697 726 0
-750 -698 727 0
-750 -699 728 0
-750 -700 729 0
-750 -701 730 0
-750 -702 731 0
-750 -703 732 0
-750 -704 733 0
-750 -705 734 0
-750 -706 735 0
-750 -707 736 0
-750 -708 737 0
-750 -709 738 0
-750 -710 739 0
-750 -711 740 0
-750 -712 741 0
-750 -713 742 0
-750 -714 743 0
-750 -715 744 0
-750 -716 745 0
-750 -717 746 0
-750 -718 747 0
-750 -719 748 0
-750 -720 749 0
-750 -722 751 0
-750 -723 752 0
-750 -724 753 0
-750 -725 754 0
-751 -755 726 0
-751 -756 727 0
-751 -757 728 0
-751 -758 729 0
-751 -759 730 0
-751 -760 731 0
-751 -761 732 0
-751 -762 733 0
-751 -763 734 0
-751 -764 735 0
-751 -765 736 0
-751 -766 737 0
-751 -767 738 0
-751 -768 739 0
-751 -769 740 0
-751 -770 741 0
-751 -771 742 0
-751 -772 743 0
-751 -773 744 0
-751 -774 745 0
-751 -775 746 0
-751 -776 747 0
-751 -777 748 0
-751 -778 749 0
-751 -779 750 0
-751 -781 752 0
-751 -782 753 0
-751 -783 754 0
-752 -784 726 0
-752 -785 727 0
-752 -786 728 0
-752 -787 729 0
-752 -788 730 0
-752 -789 731 0
-752 -790 732 0
-752 -791 733 0
-752 -792 734 0
-752 -793 735 0
-752 -794 736 0
-752 -795 737 0
-752 -796 738 0
-752 -797 739 0
-752 -798 740 0
-752 -799 741 0
-752 -800 742 0
-752 -801 743 0
-752 -802 744 0
-752 -803 745 0
-752 -804 746 0
-752 -805 747 0
-752 -806 748 0
-752 -807 749 0
-752 -808 750 0
-752 -810 751 0
-752 -811 753 0
-752 -812 754 0
-753 -813 726 0
-753 -814 727 0
-753 -815 728 0
-753 -816 729 0
-753 -817 730 0
-753 -818 731 0
-753 -819 732 0
-753 -820 733 0
-753 -821 734 0
-753 -822 735 0
-753 -823 736 0
-753 -824 737 0
-753 -825 738 0
-753 -826 739 0
-753 -827 740 0
-753 -828 741 0
-753 -829 742 0
-753 -830 743 0
-753 -831 744 0
-753 -832 745 0
-753 -833 746 0
-753 -834 747 0
-753 -835 748 0
-753 -836 749 0
-753 -837 750 0
-753 -839 751 0
-753 -840 752 0
-753 -841 754 0
-754 -842 726 0
-754 -843 727 0
-754 -844 728 0
-754 -845 729 0
-754 -846 730 0
-754 -847 731 0
-754 -848 732 0
-754 -849 733 0
-754 -850 734 0
-754 -851 735 0
-754 -852 736 0
-754 -853 737 0
-754 -854 738 0
-754 -855 739 0
-754 -856 740 0
-754 -857 741 0
-754 -858 742 0
-754 -859 743 0
-754 -860 744 0
-754 -861 745 0
-754 -862 746 0
-754 -863 747 0
-754 -864 748 0
-754 -865 749 0
-754 -866 750 0
-754 -868 751 0
-754 -869 752 0
-754 -870 753 0
-755 -1 756 0
-755 -2 757 0
-755 -3 758 0
-755 -4 759 0
-755 -5 760 0
-755 -6 761 0
-755 -7 762 0
-755 -8 763 0
-755 -9 764 0
-755 -10 765 0
-755 -11 766 0
-755 -12 767 0
-755 -13 768 0
-755 -14 769 0
-755 -15 770 0
-755 -16 771 0
-755 -17 772 0
-755 -18 773 0
-755 -19 774 0
-755 -20 775 0
-755 -21 776 0
-755 -22 777 0
-755 -23 778 0
-755 -24 779 0
-755 -25 780 0
-755 -27 781 0
-755 -28 782 0
-755 -29 783 0
-756 -30 755 0
-756 -31 757 0
-756 -32 758 0
-756 -33 759 0
-756 -34 760 0
-756 -35 761 0
-756 -36 762 0
-756 -37 763 0
-756 -38 764 0
-756 -39 765 0
-756 -40 766 0
-756 -41 767 0
-756 -42 768 0
-756 -43 769 0
-756 -44 770 0
-756 -45 771 0
-756 -46 772 0
-756 -47 773 0
-756 -48 774 0
-756 -49 775 0
-756 -50 776 0
-756 -51 777 0
-756 -52 778 0
-756 -53 779 0
-756 -54 780 0
-756 -56 781 0
-756 -57 782 0
-756 -58 783 0
-757 -59 755 0
-757 -60 756 0
-757 -61 758 0
-757 -62 759 0
-757 -63 760 0
-757 -64 761 0
-757 -65 762 0
-757 -66 763 0
-757 -67 764 0
-757 -68 765 0
-757 -69 766 0
-757 -70 767 0
-757 -71 768 0
-757 -72 769 0
-757 -73 770 0
-757 -74 771 0
-757 -75 772 0
-757 -76 773 0
-757 -77 774 0
-757 -78 775 0
-757 -79 776 0
-757 -80 777 0
-757 -81 778 0
-757 -82 779 0
-757 -83 780 0
-757 -85 781 0
-757 -86 782 0
-757 -87 783 0
-758 -88 755 0
-758 -89 756 0
-758 -90 757 0
-758 -91 759 0
-758 -92 760 0
-758 -93 761 0
-758 -94 762 0
-758 -95 763 0
-758 -96 764 0
-758 -97 765 0
-758 -98 766 0
-758 -99 767 0
-758 -100 768 0
-758 -101 769 0
-758 -102 770 0
-758 -103 771 0
-758 -104 772 0
-758 -105 773 0
-758 -106 774 0
-758 -107 775 0
-758 -108 776 0
-758 -109 777 0
-758 -110 778 0
-758 -111 779 0
-758 -112 780 0
-758 -114 781 0
-758 -115 782 0
-758 -116 783 0
-759 -117 755 0
-759 -118 756 0
-759 -119 757 0
-759 -120 758 0
-759 -121 760 0
-759 -122 761 0
-759 -123 762 0
-759 -124 763 0
-759 -125 764 0
-759 -126 765 0
-759 -127 766 0
-759 -128 767 0
-759 -129 768 0
-759 -130 769 0
-759 -131 770 0
-759 -132 771 0
-759 -133 772 0
-759 -134 773 0
-759 -135 774 0
-759 -136 775 0
-759 -137 776 0
-759 -138 777 0
-759 -139 778 0
-759 -140 779 0
-759 -141 780 0
-759 -143 781 0
-759 -144 782 0
-759 -145 783 0
-760 -146 755 0
-760 -147 756 0
-760 -148 757 0
-760 -149 758 0
-760 -150 759 0
-760 -151 761 0
-760 -152 762 0
-760 -153 763 0
-760 -154 764 0
-760 -155 765 0
-760 -156 766 0
-760 -157 767 0
-760 -158 768 0
-760 -159 769 0
-760 -160 770 0
-760 -161 771 0
-760 -162 772 0
-760 -163 773 0
-760 -164 774 0
-760 -165 775 0
-760 -166 776 0
-760 -167 777 0
-760 -168 778 0
-760 -169 779 0
-760 -170 780 0
-760 -172 781 0
-760 -173 782 0
-760 -174 783 0
-761 -175 755 0
-761 -176 756 0
-761 -177 757 0
-761 -178 758 0
-761 -179 759 0
-761 -180 760 0
-761 -181 762 0
-761 -182 763 0
-761 -183 764 0
-761 -184 765 0
-761 -185 766 0
-761 -186 767 0
-761 -187 768 0
-761 -188 769 0
-761 -189 770 0
-761 -190 771 0
-761 -191 772 0
-761 -192 773 0
-761 -193 774 0
-761 -194 775 0
-761 -195 776 0
-761 -196 777 0
-761 -197 778 0
-761 -198 779 0
-761 -199 780 0
-761 -201 781 0
-761 -202 782 0
-761 -203 783 0
-762 -204 755 0
-762 -205 756 0
-762 -206 757 0
-762 -207 758 0
-762 -208 759 0
-762 -209 760 0
-762 -210 761 0
-762 -211 763 0
-762 -212 764 0
-762 -213 765 0
-762 -214 766 0
-762 -215 767 0
-762 -216 768 0
-762 -217 769 0
-762 -218 770 0
-762 -219 771 0
-762 -220 772 0
-762 -221 773 0
-762 -222 774 0
-762 -223 775 0
-762 -224 776 0
-762 -225 777 0
-762 -226 778 0
-762 -227 779 0
-762 -228 780 0
-762 -230 781 0
-762 -231 782 0
-762 -232 783 0
-763 -233 755 0
-763 -234 756 0
-763 -235 757 0
-763 -236 758 0
-763 -237 759 0
-763 -238 760 0
-763 -239 761 0
-763 -240 762 0
-763 -241 764 0
-763 -242 765 0
-763 -243 766 0
-763 -244 767 0
-763 -245 768 0
-763 -246 769 0
-763 -247 770 0
-763 -248 771 0
-763 -249 772 0
-763 -250 773 0
-763 -251 774 0
-763 -252 775 0
-763 -253 776 0
-763 -254 777 0
-763 -255 778 0
-763 -256 779 0
-763 -257 780 0
-763 -259 781 0
-763 -260 782 0
-763 -261 783 0
-764 -262 755 0
-764 -263 756 0
-764 -264 757 0
-764 -265 758 0
-764 -266 759 0
-764 -267 760 0
-764 -268 761 0
-764 -269 762 0
-764 -270 763 0
-764 -271 765 0
-764 -272 766 0
-764 -273 767 0
-764 -274 768 0
-764 -275 769 0
-764 -276 770 0
-764 -277 771 0
-764 -278 772 0
-764 -279 773 0
-764 -280 774 0
-764 -281 775 0
-764 -282 776 0
-764 -283 777 0
-764 -284 778 0
-764 -285 779 0
-764 -286 780 0
-764 -288 781 0
-764 -289 782 0
-764 -290 783 0
-765 -291 755 0
-765 -292 756 0
-765 -293 757 0
-765 -294 758 0
-765 -295 759 0
-765 -296 760 0
-765 -297 761 0
-765 -298 762 0
-765 -299 763 0
-765 -300 764 0
-765 -301 766 0
-765 -302 767 0
-765 -303 768 0
-765 -304 769 0
-765 -305 770 0
-765 -306 771 0
-765 -307 772 0
-765 -308 773 0
-765 -309 774 0
-765 -310 775 0
-765 -311 776 0
-765 -312 777 0
-765 -313 778 0
-765 -314 779 0
-765 -315 780 0
-765 -317 781 0
-765 -318 782 0
-765 -319 783 0
-766 -320 755 0
-766 -321 756 0
-766 -322 757 0
-766 -323 758 0
-766 -324 759 0
-766 -325 760 0
-766 -326 761 0
-766 -327 762 0
-766 -328 763 0
-766 -329 764 0
-766 -330 765 0
-766 -331 767 0
-766 -332 768 0
-766 -333 769 0
-766 -334 770 0
-766 -335 771 0
-766 -336 772 0
-766 -337 773 0
-766 -338 774 0
-766 -339 775 0
-766 -340 776 0
-766 -341 777 0
-766 -342 778 0
-766 -343 779 0
-766 -344 780 0
-766 -346 781 0
-766 -347 782 0
-766 -348 783 0
-767 -349 755 0
-767 -350 756 0
-767 -351 757 0
-767 -352 758 0
-767 -353 759 0
-767 -354 760 0
-767 -355 761 0
-767 -356 762 0
-767 -357 763 0
-767 -358 764 0
-767 -359 765 0
-767 -360 766 0
-767 -361 768 0
-767 -362 769 0
-767 -363 770 0
-767 -364 771 0
-767 -365 772 0
-767 -366 773 0
-767 -367 774 0
-767 -368 775 0
-767 -369 776 0
-767 -370 777 0
-767 -371 778 0
-767 -372 779 0
-767 -373 780 0
-767 -375 781 0
-767 -376 782 0
-767 -377 783 0
-768 -378 755 0
-768 -379 756 0
-768 -380 757 0
-768 -381 758 0
-768 -382 759 0
-768 -383 760 0
-768 -384 761 0
-768 -385 762 0
-768 -386 763 0
-768 -387 764 0
-768 -388 765 0
-768 -389 766 0
-768 -390 767 0
-768 -391 769 0
-768 -392 770 0
-768 -393 771 0
-768 -394 772 0
-768 -395 773 0
-768 -396 774 0
-768 -397 775 0
-768 -398 776 0
-768 -399 777 0
-768 -400 778 0
-768 -401 779 0
-768 -402 780 0
-768 -404 781 0
-768 -405 782 0
-768 -406 783 0
-769 -407 755 0
-769 -408 756 0
-769 -409 757 0
-769 -410 758 0
-769 -411 759 0
-769 -412 760 0
-769 -413 761 0
-769 -414 762 0
-769 -415 763 0
-769 -416 764 0
-769 -417 765 0
-769 -418 766 0
-769 -419 767 0
-769 -420 768 0
-769 -421 770 0
-769 -422 771 0
-769 -423 772 0
-769 -424 773 0
-769 -425 774 0
-769 -426 775 0
-769 -427 776 0
-769 -428 777 0
-769 -429 778 0
-769 -430 779 0
-769 -431 780 0
-769 -433 781 0
-769 -434 782 0
-769 -435 783 0
-770 -436 755 0
-770 -437 756 0
-770 -438 757 0
-770 -439 758 0
-770 -440 759 0
-770 -441 760 0
-770 -442 761 0
-770 -443 762 0
-770 -444 763 0
-770 -445 764 0
-770 -446 765 0
-770 -447 766 0
-770 -448 767 0
-770 -449 768 0
-770 -450 769 0
-770 -451 771 0
-770 -452 772 0
-770 -453 773 0
-770 -454 774 0
-770 -455 775 0
-770 -456 776 0
-770 -457 777 0
-770 -458 778 0
-770 -459 779 0
-770 -460 780 0
-770 -462 781 0
-770 -463 782 0
-770 -464 783 0
-771 -465 755 0
-771 -466 756 0
-771 -467 757 0
-771 -468 758 0
-771 -469 759 0
-771 -470 760 0
-771 -471 761 0
-771 -472 762 0
-771 -473 763 0
-771 -474 764 0
-771 -475 765 0
-771 -476 766 0
-771 -477 767 0
-771 -478 768 0
-771 -479 769 0
-771 -480 770 0
-771 -481 772 0
-771 -482 773 0
-771 -483 774 0
-771 -484 775 0
-771 -485 776 0
-771 -486 777 0
-771 -487 778 0
-771 -488 779 0
-771 -489 780 0
-771 -491 781 0
-771 -492 782 0
-771 -493 783 0
-772 -494 755 0
-772 -495 756 0
-772 -496 757 0
-772 -497 758 0
-772 -498 759 0
-772 -499 760 0
-772 -500 761 0
-772 -501 762 0
-772 -502 763 0
-772 -503 764 0
-772 -504 765 0
-772 -505 766 0
-772 -506 767 0
-772 -507 768 0
-772 -508 769 0
-772 -509 770 0
-772 -510 771 0
-772 -511 773 0
-772 -512 774 0
-772 -513 775 0
-772 -514 776 0
-772 -515 777 0
-772 -516 778 0
-772 -517 779 0
-772 -518 780 0
-772 -520 781 0
-772 -521 782 0
-772 -522 783 0
-773 -523 755 0
-773 -524 756 0
-773 -525 757 0
-773 -526 758 0
-773 -527 759 0
-773 -528 760 0
-773 -529 761 0
-773 -530 762 0
-773 -531 763 0
-773 -532 764 0
-773 -533 765 0
-773 -534 766 0
-773 -535 767 0
-773 -536 768 0
-773 -537 769 0
-773 -538 770 0
-773 -539 771 0
-773 -540 772 0
-773 -541 774 0
-773 -542 775 0
-773 -543 776 0
-773 -544 777 0
-773 -545 778 0
-773 -546 779 0
-773 -547 780 0
-773 -549 781 0
-773 -550 782 0
-773 -551 783 0
-774 -552 755 0
-774 -553 756 0
-774 -554 757 0
-774 -555 758 0
-774 -556 759 0
-774 -557 760 0
-774 -558 761 0
-774 -559 762 0
-774 -560 763 0
-774 -561 764 0
-774 -562 765 0
-774 -563 766 0
-774 -564 767 0
-774 -565 768 0
-774 -566 769 0
-774 -567 770 0
-774 -568 771 0
-774 -569 772 0
-774 -570 773 0
-774 -571 775 0
-774 -572 776 0
-774 -573 777 0
-774 -574 778 0
-774 -575 779 0
-774 -576 780 0
-774 -578 781 0
-774 -579 782 0
-774 -580 783 0
-775 -581 755 0
-775 -582 756 0
-775 -583 757 0
-775 -584 758 0
-775 -585 759 0
-775 -586 760 0
-775 -587 761 0
-775 -588 762 0
-775 -589 763 0
-775 -590 764 0
-775 -591 765 0
-775 -592 766 0
-775 -593 767 0
-775 -594 768 0
-775 -595 769 0
-775 -596 770 0
-775 -597 771 0
-775 -598 772 0
-775 -599 773 0
-775 -600 774 0
-775 -601 776 0
-775 -602 777 0
-775 -603 778 0
-775 -604 779 0
-775 -605 780 0
-775 -607 781 0
-775 -608 782 0
-775 -609 783 0
-776 -610 755 0
-776 -611 756 0
-776 -612 757 0
-776 -613 758 0
-776 -614 759 0
-776 -615 760 0
-776 -616 761 0
-776 -617 762 0
-776 -618 763 0
-776 -619 764 0
-776 -620 765 0
-776 -621 766 0
-776 -622 767 0
-776 -623 768 0
-776 -624 769 0
-776 -625 770 0
-776 -626 771 0
-776 -627 772 0
-776 -628 773 0
-776 -629 774 0
-776 -630 775 0
-776 -631 777 0
-776 -632 778 0
-776 -633 779 0
-776 -634 780 0
-776 -636 781 0
-776 -637 782 0
-776 -638 783 0
-777 -639 755 0
-777 -640 756 0
-777 -641 757 0
-777 -642 758 0
-777 -643 759 0
-777 -644 760 0
-777 -645 761 0
-777 -646 762 0
-777 -647 763 0
-777 -648 764 0
-777 -649 765 0
-777 -650 766 0
-777 -651 767 0
-777 -652 768 0
-777 -653 769 0
-777 -654 770 0
-777 -655 771 0
-777 -656 772 0
-777 -657 773 0
-777 -658 774 0
-777 -659 775 0
-777 -660 776 0
-777 -661 778 0
-777 -662 779 0
-777 -663 780 0
-777 -665 781 0
-777 -666 782 0
-777 -667 783 0
-778 -668 755 0
-778 -669 756 0
-778 -670 757 0
-778 -671 758 0
-778 -672 759 0
-778 -673 760 0
-778 -674 761 0
-778 -675 762 0
-778 -676 763 0
-778 -677 764 0
-778 -678 765 0
-778 -679 766 0
-778 -680 767 0
-778 -681 768 0
-778 -682 769 0
-778 -683 770 0
-778 -684 771 0
-778 -685 772 0
-778 -686 773 0
-778 -687 774 0
-778 -688 775 0
-778 -689 776 0
-778 -690 777 0
-778 -691 779 0
-778 -692 780 0
-778 -694 781 0
-778 -695 782 0
-778 -696 783 0
-779 -697 755 0
-779 -698 756 0
-779 -699 757 0
-779 -700 758 0
-779 -701 759 0
-779 -702 760 0
-779 -703 761 0
-779 -704 762 0
-779 -705 763 0
-779 -706 764 0
-779 -707 765 0
-779 -708 766 0
-779 -709 767 0
-779 -710 768 0
-779 -711 769 0
-779 -712 770 0
-779 -713 771 0
-779 -714 772 0
-779 -715 773 0
-779 -716 774 0
-779 -717 775 0
-779 -718 776 0
-779 -719 777 0
-779 -720 778 0
-779 -721 780 0
-779 -723 781 0
-779 -724 782 0
-779 -725 783 0
-780 -726 755 0
-780 -727 756 0
-780 -728 757 0
-780 -729 758 0
-780 -730 759 0
-780 -731 760 0
-780 -732 761 0
-780 -733 762 0
-780 -734 763 0
-780 -735 764 0
-780 -736 765 0
-780 -737 766 0
-780 -738 767 0
-780 -739 768 0
-780 -740 769 0
-780 -741 770 0
-780 -742 771 0
-780 -743 772 0
-780 -744 773 0
-780 -745 774 0
-780 -746 775 0
-780 -747 776 0
-780 -748 777 0
-780 -749 778 0
-780 -750 779 0
-780 -752 781 0
-780 -753 782 0
-780 -754 783 0
-781 -784 755 0
-781 -785 756 0
-781 -786 757 0
-781 -787 758 0
-781 -788 759 0
-781 -789 760 0
-781 -790 761 0
-781 -791 762 0
-781 -792 763 0
-781 -793 764 0
-781 -794 765 0
-781 -795 766 0
-781 -796 767 0
-781 -797 768 0
-781 -798 769 0
-781 -799 770 0
-781 -800 771 0
-781 -801 772 0
-781 -802 773 0
-781 -803 774 0
-781 -804 775 0
-781 -805 776 0
-781 -806 777 0
-781 -807 778 0
-781 -808 779 0
-781 -809 780 0
-781 -811 782 0
-781 -812 783 0
-782 -813 755 0
-782 -814 756 0
-782 -815 757 0
-782 -816 758 0
-782 -817 759 0
-782 -818 760 0
-782 -819 761 0
-782 -820 762 0
-782 -821 763 0
-782 -822 764 0
-782 -823 765 0
-782 -824 766 0
-782 -825 767 0
-782 -826 768 0
-782 -827 769 0
-782 -828 770 0
-782 -829 771 0
-782 -830 772 0
-782 -831 773 0
-782 -832 774 0
-782 -833 775 0
-782 -834 776 0
-782 -835 777 0
-782 -836 778 0
-782 -837 779 0
-782 -838 780 0
-782 -840 781 0
-782 -841 783 0
-783 -842 755 0
-783 -843 756 0
-783 -844 757 0
-783 -845 758 0
-783 -846 759 0
-783 -847 760 0
-783 -848 761 0
-783 -849 762 0
-783 -850 763 0
-783 -851 764 0
-783 -852 765 0
-783 -853 766 0
-783 -854 767 0
-783 -855 768 0
-783 -856 769 0
-783 -857 770 0
-783 -858 771 0
-783 -859 772 0
-783 -860 773 0
-783 -861 774 0
-783 -862 775 0
-783 -863 776 0
-783 -864 777 0
-783 -865 778 0
-783 -866 779 0
-783 -867 780 0
-783 -869 781 0
-783 -870 782 0
-784 -1 785 0
-784 -2 786 0
-784 -3 787 0
-784 -4 788 0
-784 -5 789 0
-784 -6 790 0
-784 -7 791 0
-784 -8 792 0
-784 -9 793 0
-784 -10 794 0
-784 -11 795 0
-784 -12 796 0
-784 -13 797 0
-784 -14 798 0
-784 -15 799 0
-784 -16 800 0
-784 -17 801 0
-784 -18 802 0
-784 -19 803 0
-784 -20 804 0
-784 -21 805 0
-784 -22 806 0
-784 -23 807 0
-784 -24 808 0
-784 -25 809 0
-784 -26 810 0
-784 -28 811 0
-784 -29 812 0
-785 -30 784 0
-785 -31 786 0
-785 -32 787 0
-785 -33 788 0
-785 -34 789 0
-785 -35 790 0
-785 -36 791 0
-785 -37 792 0
-785 -38 793 0
-785 -39 794 0
-785 -40 795 0
-785 -41 796 0
-785 -42 797 0
-785 -43 798 0
-785 -44 799 0
-785 -45 800 0
-785 -46 801 0
-785 -47 802 0
-785 -48 803 0
-785 -49 804 0
-785 -50 805 0
-785 -51 806 0
-785 -52 807 0
-785 -53 808 0
-785 -54 809 0
-785 -55 810 0
-785 -57 811 0
-785 -58 812 0
-786 -59 784 0
-786 -60 785 0
-786 -61 787 0
-786 -62 788 0
-786 -63 789 0
-786 -64 790 0
-786 -65 791 0
-786 -66 792 0
-786 -67 793 0
-786 -68 794 0
-786 -69 795 0
-786 -70 796 0
-786 -71 797 0
-786 -72 798 0
-786 -73 799 0
-786 -74 800 0
-786 -75 801 0
-786 -76 802 0
-786 -77 803 0
-786 -78 804 0
-786 -79 805 0
-786 -80 806 0
-786 -81 807 0
-786 -82 808 0
-786 -83 809 0
-786 -84 810 0
-786 -86 811 0
-786 -87 812 0
-787 -88 784 0
-787 -89 785 0
-787 -90 786 0
-787 -91 788 0
-787 -92 789 0
-787 -93 790 0
-787 -94 791 0
-787 -95 792 0
-787 -96 793 0
-787 -97 794 0
-787 -98 795 0
-787 -99 796 0
-787 -100 797 0
-787 -101 798 0
-787 -102 799 0
-787 -103 800 0
-787 -104 801 0
-787 -105 802 0
-787 -106 803 0
-787 -107 804 0
-787 -108 805 0
-787 -109 806 0
-787 -110 807 0
-787 -111 808 0
-787 -112 809 0
-787 -113 810 0
-787 -115 811 0
-787 -116 812 0
-788 -117 784 0
-788 -118 785 0
-788 -119 786 0
-788 -120 787 0
-788 -121 789 0
-788 -122 790 0
-788 -123 791 0
-788 -124 792 0
-788 -125 793 0
-788 -126 794 0
-788 -127 795 0
-788 -128 796 0
-788 -129 797 0
-788 -130 798 0
-788 -131 799 0
-788 -132 800 0
-788 -133 801 0
-788 -134 802 0
-788 -135 803 0
-788 -136 804 0
-788 -137 805 0
-788 -138 806 0
-788 -139 807 0
-788 -140 808 0
-788 -141 809 0
-788 -142 810 0
-788 -144 811 0
-788 -145 812 0
-789 -146 784 0
-789 -147 785 0
-789 -148 786 0
-789 -149 787 0
-789 -150 788 0
-789 -151 790 0
-789 -152 791 0
-789 -153 792 0
-789 -154 793 0
-789 -155 794 0
-789 -156 795 0
-789 -157 796 0
-789 -158 797 0
-789 -159 798 0
-789 -160 799 0
-789 -161 800 0
-789 -162 801 0
-789 -163 802 0
-789 -164 803 0
-789 -165 804 0
-789 -166 805 0
-789 -167 806 0
-789 -168 807 0
-789 -169 808 0
-789 -170 809 0
-789 -171 810 0
-789 -173 811 0
-789 -174 812 0
-790 -175 784 0
-790 -176 785 0
-790 -177 786 0
-790 -178 787 0
-790 -179 788 0
-790 -180 789 0
-790 -181 791 0
-790 -182 792 0
-790 -183 793 0
-790 -184 794 0
-790 -185 795 0
-790 -186 796 0
-790 -187 797 0
-790 -188 798 0
-790 -189 799 0
-790 -190 800 0
-790 -191 801 0
-790 -192 802 0
-790 -193 803 0
-790 -194 804 0
-790 -195 805 0
-790 -196 806 0
-790 -197 807 0
-790 -198 808 0
-790 -199 809 0
-790 -200 810 0
-790 -202 811 0
-790 -203 812 0
-791 -204 784 0
-791 -205 785 0
-791 -206 786 0
-791 -207 787 0
-791 -208 788 0
-791 -209 789 0
-791 -210 790 0
-791 -211 792 0
-791 -212 793 0
-791 -213 794 0
-791 -214 795 0
-791 -215 796 0
-791 -216 797 0
-791 -217 798 0
-791 -218 799 0
-791 -219 800 0
-791 -220 801 0
-791 -221 802 0
-791 -222 803 0
-791 -223 804 0
-791 -224 805 0
-791 -225 806 0
-791 -226 807 0
-791 -227 808 0
-791 -228 809 0
-791 -229 810 0
-791 -231 811 0
-791 -232 812 0
-792 -233 784 0
-792 -234 785 0
-792 -235 786 0
-792 -236 787 0
-792 -237 788 0
-792 -238 789 0
-792 -239 790 0
-792 -240 791 0
-792 -241 793 0
-792 -242 794 0
-792 -243 795 0
-792 -244 796 0
-792 -245 797 0
-792 -246 798 0
-792 -247 799 0
-792 -248 800 0
-792 -249 801 0
-792 -250 802 0
-792 -251 803 0
-792 -252 804 0
-792 -253 805 0
-792 -254 806 0
-792 -255 807 0
-792 -256 808 0
-792 -257 809 0
-792 -258 810 0
-792 -260 811 0
-792 -261 812 0
-793 -262 784 0
-793 -263 785 0
-793 -264 786 0
-793 -265 787 0
-793 -266 788 0
-793 -267 789 0
-793 -268 790 0
-793 -269 791 0
-793 -270 792 0
-793 -271 794 0
-793 -272 795 0
-793 -273 796 0
-793 -274 797 0
-793 -275 798 0
-793 -276 799 0
-793 -277 800 0
-793 -278 801 0
-793 -279 802 0
-793 -280 803 0
-793 -281 804 0
-793 -282 805 0
-793 -283 806 0
-793 -284 807 0
-793 -285 808 0
-793 -286 809 0
-793 -287 810 0
-793 -289 811 0
-793 -290 812 0
-794 -291 784 0
-794 -292 785 0
-794 -293 786 0
-794 -294 787 0
-794 -295 788 0
-794 -296 789 0
-794 -297 790 0
-794 -298 791 0
-794 -299 792 0
-794 -300 793 0
-794 -301 795 0
-794 -302 796 0
-794 -303 797 0
-794 -304 798 0
-794 -305 799 0
-794 -306 800 0
-794 -307 801 0
-794 -308 802 0
-794 -309 803 0
-794 -310 804 0
-794 -311 805 0
-794 -312 806 0
-794 -313 807 0
-794 -314 808 0
-794 -315 809 0
-794 -316 810 0
-794 -318 811 0
-794 -319 812 0
-795 -320 784 0
-795 -321 785 0
-795 -322 786 0
-795 -323 787 0
-795 -324 788 0
-795 -325 789 0
-795 -326 790 0
-795 -327 791 0
-795 -328 792 0
-795 -329 793 0
-795 -330 794 0
-795 -331 796 0
-795 -332 797 0
-795 -333 798 0
-795 -334 799 0
-795 -335 800 0
-795 -336 801 0
-795 -337 802 0
-795 -338 803 0
-795 -339 804 0
-795 -340 805 0
-795 -341 806 0
-795 -342 807 0
-795 -343 808 0
-795 -344 809 0
-795 -345 810 0
-795 -347 811 0
-795 -348 812 0
-796 -349 784 0
-796 -350 785 0
-796 -351 786 0
-796 -352 787 0
-796 -353 788 0
-796 -354 789 0
-796 -355 790 0
-796 -356 791 0
-796 -357 792 0
-796 -358 793 0
-796 -359 794 0
-796 -360 795 0
-796 -361 797 0
-796 -362 798 0
-796 -363 799 0
-796 -364 800 0
-796 -365 801 0
-796 -366 802 0
-796 -367 803 0
-796 -368 804 0
-796 -369 805 0
-796 -370 806 0
-796 -371 807 0
-796 -372 808 0
-796 -373 809 0
-796 -374 810 0
-796 -376 811 0
-796 -377 812 0
-797 -378 784 0
-797 -379 785 0
-797 -380 786 0
-797 -381 787 0
-797 -382 788 0
-797 -383 789 0
-797 -384 790 0
-797 -385 791 0
-797 -386 792 0
-797 -387 793 0
-797 -388 794 0
-797 -389 795 0
-797 -390 796 0
-797 -391 798 0
-797 -392 799 0
-797 -393 800 0
-797 -394 801 0
-797 -395 802 0
-797 -396 803 0
-797 -397 804 0
-797 -398 805 0
-797 -399 806 0
-797 -400 807 0
-797 -401 808 0
-797 -402 809 0
-797 -403 810 0
-797 -405 811 0
-797 -406 812 0
-798 -407 784 0
-798 -408 785 0
-798 -409 786 0
-798 -410 787 0
-798 -411 788 0
-798 -412 789 0
-798 -413 790 0
-798 -414 791 0
-798 -415 792 0
-798 -416 793 0
-798 -417 794 0
-798 -418 795 0
-798 -419 796 0
-798 -420 797 0
-798 -421 799 0
-798 -422 800 0
-798 -423 801 0
-798 -424 802 0
-798 -425 803 0
-798 -426 804 0
-798 -427 805 0
-798 -428 806 0
-798 -429 807 0
-798 -430 808 0
-798 -431 809 0
-798 -432 810 0
-798 -434 811 0
-798 -435 812 0
-799 -436 784 0
-799 -437 785 0
-799 -438 786 0
-799 -439 787 0
-799 -440 788 0
-799 -441 789 0
-799 -442 790 0
-799 -443 791 0
-799 -444 792 0
-799 -445 793 0
-799 -446 794 0
-799 -447 795 0
-799 -448 796 0
-799 -449 797 0
-799 -450 798 0
-799 -451 800 0
-799 -452 801 0
-799 -453 802 0
-799 -454 803 0
-799 -455 804 0
-799 -456 805 0
-799 -457 806 0
-799 -458 807 0
-799 -459 808 0
-799 -460 809 0
-799 -461 810 0
-799 -463 811 0
-799 -464 812 0
-800 -465 784 0
-800 -466 785 0
-800 -467 786 0
-800 -468 787 0
-800 -469 788 0
-800 -470 789 0
-800 -471 790 0
-800 -472 791 0
-800 -473 792 0
-800 -474 793 0
-800 -475 794 0
-800 -476 795 0
-800 -477 796 0
-800 -478 797 0
-800 -479 798 0
-800 -480 799 0
-800 -481 801 0
-800 -482 802 0
-800 -483 803 0
-800 -484 804 0
-800 -485 805 0
-800 -486 806 0
-800 -487 807 0
-800 -488 808 0
-800 -489 809 0
-800 -490 810 0
-800 -492 811 0
-800 -493 812 0
-801 -494 784 0
-801 -495 785 0
-801 -496 786 0
-801 -497 787 0
-801 -498 788 0
-801 -499 789 0
-801 -500 790 0
-801 -501 791 0
-801 -502 792 0
-801 -503 793 0
-801 -504 794 0
-801 -505 795 0
-801 -506 796 0
-801 -507 797 0
-801 -508 798 0
-801 -509 799 0
-801 -510 800 0
-801 -511 802 0
-801 -512 803 0
-801 -513 804 0
-801 -514 805 0
-801 -515 806 0
-801 -516 807 0
-801 -517 808 0
-801 -518 809 0
-801 -519 810 0
-801 -521 811 0
-801 -522 812 0
-802 -523 784 0
-802 -524 785 0
-802 -525 786 0
-802 -526 787 0
-802 -527 788 0
-802 -528 789 0
-802 -529 790 0
-802 -530 791 0
-802 -531 792 0
-802 -532 793 0
-802 -533 794 0
-802 -534 795 0
-802 -535 796 0
-802 -536 797 0
-802 -537 798 0
-802 -538 799 0
-802 -539 800 0
-802 -540 801 0
-802 -541 803 0
-802 -542 804 0
-802 -543 805 0
-802 -544 806 0
-802 -545 807 0
-802 -546 808 0
-802 -547 809 0
-802 -548 810 0
-802 -550 811 0
-802 -551 812 0
-803 -552 784 0
-803 -553 785 0
-803 -554 786 0
-803 -555 787 0
-803 -556 788 0
-803 -557 789 0
-803 -558 790 0
-803 -559 791 0
-803 -560 792 0
-803 -561 793 0
-803 -562 794 0
-803 -563 795 0
-803 -564 796 0
-803 -565 797 0
-803 -566 798 0
-803 -567 799 0
-803 -568 800 0
-803 -569 801 0
-803 -570 802 0
-803 -571 804 0
-803 -572 805 0
-803 -573 806 0
-803 -574 807 0
-803 -575 808 0
-803 -576 809 0
-803 -577 810 0
-803 -579 811 0
-803 -580 812 0
-804 -581 784 0
-804 -582 785 0
-804 -583 786 0
-804 -584 787 0
-804 -585 788 0
-804 -586 789 0
-804 -587 790 0
-804 -588 791 0
-804 -589 792 0
-804 -590 793 0
-804 -591 794 0
-804 -592 795 0
-804 -593 796 0
-804 -594 797 0
-804 -595 798 0
-804 -596 799 0
-804 -597 800 0
-804 -598 801 0
-804 -599 802 0
-804 -600 803 0
-804 -601 805 0
-804 -602 806 0
-804 -603 807 0
-804 -604 808 0
-804 -605 809 0
-804 -606 810 0
-804 -608 811 0
-804 -609 812 0
-805 -610 784 0
-805 -611 785 0
-805 -612 786 0
-805 -613 787 0
-805 -614 788 0
-805 -615 789 0
-805 -616 790 0
-805 -617 791 0
-805 -618 792 0
-805 -619 793 0
-805 -620 794 0
-805 -621 795 0
-805 -622 796 0
-805 -623 797 0
-805 -624 798 0
-805 -625 799 0
-805 -626 800 0
-805 -627 801 0
-805 -628 802 0
-805 -629 803 0
-805 -630 804 0
-805 -631 806 0
-805 -632 807 0
-805 -633 808 0
-805 -634 809 0
-805 -635 810 0
-805 -637 811 0
-805 -638 812 0
-806 -639 784 0
-806 -640 785 0
-806 -641 786 0
-806 -642 787 0
-806 -643 788 0
-806 -644 789 0
-806 -645 790 0
-806 -646 791 0
-806 -647 792 0
-806 -648 793 0
-806 -649 794 0
-806 -650 795 0
-806 -651 796 0
-806 -652 797 0
-806 -653 798 0
-806 -654 799 0
-806 -655 800 0
-806 -656 801 0
-806 -657 802 0
-806 -658 803 0
-806 -659 804 0
-806 -660 805 0
-806 -661 807 0
-806 -662 808 0
-806 -663 809 0
-806 -664 810 0
-806 -666 811 0
-806 -667 812 0
-807 -668 784 0
-807 -669 785 0
-807 -670 786 0
-807 -671 787 0
-807 -672 788 0
-807 -673 789 0
-807 -674 790 0
-807 -675 791 0
-807 -676 792 0
-807 -677 793 0
-807 -678 794 0
-807 -679 795 0
-807 -680 796 0
-807 -681 797 0
-807 -682 798 0
-807 -683 799 0
-807 -684 800 0
-807 -685 801 0
-807 -686 802 0
-807 -687 803 0
-807 -688 804 0
-807 -689 805 0
-807 -690 806 0
-807 -691 808 0
-807 -692 809 0
-807 -693 810 0
-807 -695 811 0
-807 -696 812 0
-808 -697 784 0
-808 -698 785 0
-808 -699 786 0
-808 -700 787 0
-808 -701 788 0
-808 -702 789 0
-808 -703 790 0
-808 -704 791 0
-808 -705 792 0
-808 -706 793 0
-808 -707 794 0
-808 -708 795 0
-808 -709 796 0
-808 -710 797 0
-808 -711 798 0
-808 -712 799 0
-808 -713 800 0
-808 -714 801 0
-808 -715 802 0
-808 -716 803 0
-808 -717 804 0
-808 -718 805 0
-808 -719 806 0
-808 -720 807 0
-808 -721 809 0
-808 -722 810 0
-808 -724 811 0
-808 -725 812 0
-809 -726 784 0
-809 -727 785 0
-809 -728 786 0
-809 -729 787 0
-809 -730 788 0
-809 -731 789 0
-809 -732 790 0
-809 -733 791 0
-809 -734 792 0
-809 -735 793 0
-809 -736 794 0
-809 -737 795 0
-809 -738 796 0
-809 -739 797 0
-809 -740 798 0
-809 -741 799 0
-809 -742 800 0
-809 -743 801 0
-809 -744 802 0
-809 -745 803 0
-809 -746 804 0
-809 -747 805 0
-809 -748 806 0
-809 -749 807 0
-809 -750 808 0
-809 -751 810 0
-809 -753 811 0
-809 -754 812 0
-810 -755 784 0
-810 -756 785 0
-810 -757 786 0
-810 -758 787 0
-810 -759 788 0
-810 -760 789 0
-810 -761 790 0
-810 -762 791 0
-810 -763 792 0
-810 -764 793 0
-810 -765 794 0
-810 -766 795 0
-810 -767 796 0
-810 -768 797 0
-810 -769 798 0
-810 -770 799 0
-810 -771 800 0
-810 -772 801 0
-810 -773 802 0
-810 -774 803 0
-810 -775 804 0
-810 -776 805 0
-810 -777 806 0
-810 -778 807 0
-810 -779 808 0
-810 -780 809 0
-810 -782 811 0
-810 -783 812 0
-811 -813 784 0
-811 -814 785 0
-811 -815 786 0
-811 -816 787 0
-811 -817 788 0
-811 -818 789 0
-811 -819 790 0
-811 -820 791 0
-811 -821 792 0
-811 -822 793 0
-811 -823 794 0
-811 -824 795 0
-811 -825 796 0
-811 -826 797 0
-811 -827 798 0
-811 -828 799 0
-811 -829 800 0
-811 -830 801 0
-811 -831 802 0
-811 -832 803 0
-811 -833 804 0
-811 -834 805 0
-811 -835 806 0
-811 -836 807 0
-811 -837 808 0
-811 -838 809 0
-811 -839 810 0
-811 -841 812 0
-812 -842 784 0
-812 -843 785 0
-812 -844 786 0
-812 -845 787 0
-812 -846 788 0
-812 -847 789 0
-812 -848 790 0
-812 -849 791 0
-812 -850 792 0
-812 -851 793 0
-812 -852 794 0
-812 -853 795 0
-812 -854 796 0
-812 -855 797 0
-812 -856 798 0
-812 -857 799 0
-812 -858 800 0
-812 -859 801 0
-812 -860 802 0
-812 -861 803 0
-812 -862 804 0
-812 -863 805 0
-812 -864 806 0
-812 -865 807 0
-812 -866 808 0
-812 -867 809 0
-812 -868 810 0
-812 -870 811 0
-813 -1 814 0
-813 -2 815 0
-813 -3 816 0
-813 -4 817 0
-813 -5 818 0
-813 -6 819 0
-813 -7 820 0
-813 -8 821 0
-813 -9 822 0
-813 -10 823 0
-813 -11 824 0
-813 -12 825 0
-813 -13 826 0
-813 -14 827 0
-813 -15 828 0
-813 -16 829 0
-813 -17 830 0
-813 -18 831 0
-813 -19 832 0
-813 -20 833 0
-813 -21 834 0
-813 -22 835 0
-813 -23 836 0
-813 -24 837 0
-813 -25 838 0
-813 -26 839 0
-813 -27 840 0
-813 -29 841 0
-814 -30 813 0
-814 -31 815 0
-814 -32 816 0
-814 -33 817 0
-814 -34 818 0
-814 -35 819 0
-814 -36 820 0
-814 -37 821 0
-814 -38 822 0
-814 -39 823 0
-814 -40 824 0
-814 -41 825 0
-814 -42 826 0
-814 -43 827 0
-814 -44 828 0
-814 -45 829 0
-814 -46 830 0
-814 -47 831 0
-814 -48 832 0
-814 -49 833 0
-814 -50 834 0
-814 -51 835 0
-814 -52 836 0
-814 -53 837 0
-814 -54 838 0
-814 -55 839 0
-814 -56 840 0
-814 -58 841 0
-815 -59 813 0
-815 -60 814 0
-815 -61 816 0
-815 -62 817 0
-815 -63 818 0
-815 -64 819 0
-815 -65 820 0
-815 -66 821 0
-815 -67 822 0
-815 -68 823 0
-815 -69 824 0
-815 -70 825 0
-815 -71 826 0
-815 -72 827 0
-815 -73 828 0
-815 -74 829 0
-815 -75 830 0
-815 -76 831 0
-815 -77 832 0
-815 -78 833 0
-815 -79 834 0
-815 -80 835 0
-815 -81 836 0
-815 -82 837 0
-815 -83 838 0
-815 -84 839 0
-815 -85 840 0
-815 -87 841 0
-816 -88 813 0
-816 -89 814 0
-816 -90 815 0
-816 -91 817 0
-816 -92 818 0
-816 -93 819 0
-816 -94 820 0
-816 -95 821 0
-816 -96 822 0
-816 -97 823 0
-816 -98 824 0
-816 -99 825 0
-816 -100 826 0
-816 -101 827 0
-816 -102 828 0
-816 -103 829 0
-816 -104 830 0
-816 -105 831 0
-816 -106 832 0
-816 -107 833 0
-816 -108 834 0
-816 -109 835 0
-816 -110 836 0
-816 -111 837 0
-816 -112 838 0
-816 -113 839 0
-816 -114 840 0
-816 -116 841 0
-817 -117 813 0
-817 -118 814 0
-817 -119 815 0
-817 -120 816 0
-817 -121 818 0
-817 -122 819 0
-817 -123 820 0
-817 -124 821 0
-817 -125 822 0
-817 -126 823 0
-817 -127 824 0
-817 -128 825 0
-817 -129 826 0
-817 -130 827 0
-817 -131 828 0
-817 -132 829 0
-817 -133 830 0
-817 -134 831 0
-817 -135 832 0
-817 -136 833 0
-817 -137 834 0
-817 -138 835 0
-817 -139 836 0
-817 -140 837 0
-817 -141 838 0
-817 -142 839 0
-817 -143 840 0
-817 -145 841 0
-818 -146 813 0
-818 -147 814 0
-818 -148 815 0
-818 -149 816 0
-818 -150 817 0
-818 -151 819 0
-818 -152 820 0
-818 -153 821 0
-818 -154 822 0
-818 -155 823 0
-818 -156 824 0
-818 -157 825 0
-818 -158 826 0
-818 -159 827 0
-818 -160 828 0
-818 -161 829 0
-818 -162 830 0
-818 -163 831 0
-818 -164 832 0
-818 -165 833 0
-818 -166 834 0
-818 -167 835 0
-818 -168 836 0
-818 -169 837 0
-818 -170 838 0
-818 -171 839 0
-818 -172 840 0
-818 -174 841 0
-819 -175 813 0
-819 -176 814 0
-819 -177 815 0
-819 -178 816 0
-819 -179 817 0
-819 -180 818 0
-819 -181 820 0
-819 -182 821 0
-819 -183 822 0
-819 -184 823 0
-819 -185 824 0
-819 -186 825 0
-819 -187 826 0
-819 -188 827 0
-819 -189 828 0
-819 -190 829 0
-819 -191 830 0
-819 -192 831 0
-819 -193 832 0
-819 -194 833 0
-819 -195 834 0
-819 -196 835 0
-819 -197 836 0
-819 -198 837 0
-819 -199 838 0
-819 -200 839 0
-819 -201 840 0
-819 -203 841 0
-820 -204 813 0
-820 -205 814 0
-820 -206 815 0
-820 -207 816 0
-820 -208 817 0
-820 -209 818 0
-820 -210 819 0
-820 -211 821 0
-820 -212 822 0
-820 -213 823 0
-820 -214 824 0
-820 -215 825 0
-820 -216 826 0
-820 -217 827 0
-820 -218 828 0
-820 -219 829 0
-820 -220 830 0
-820 -221 831 0
-820 -222 832 0
-820 -223 833 0
-820 -224 834 0
-820 -225 835 0
-820 -226 836 0
-820 -227 837 0
-820 -228 838 0
-820 -229 839 0
-820 -230 840 0
-820 -232 841 0
-821 -233 813 0
-821 -234 814 0
-821 -235 815 0
-821 -236 816 0
-821 -237 817 0
-821 -238 818 0
-821 -239 819 0
-821 -240 820 0
-821 -241 822 0
-821 -242 823 0
-821 -243 824 0
-821 -244 825 0
-821 -245 826 0
-821 -246 827 0
-821 -247 828 0
-821 -248 829 0
-821 -249 830 0
-821 -250 831 0
-821 -251 832 0
-821 -252 833 0
-821 -253 834 0
-821 -254 835 0
-821 -255 836 0
-821 -256 837 0
-821 -257 838 0
-821 -258 839 0
-821 -259 840 0
-821 -261 841 0
-822 -262 813 0
-822 -263 814 0
-822 -264 815 0
-822 -265 816 0
-822 -266 817 0
-822 -267 818 0
-822 -268 819 0
-822 -269 820 0
-822 -270 821 0
-822 -271 823 0
-822 -272 824 0
-822 -273 825 0
-822 -274 826 0
-822 -275 827 0
-822 -276 828 0
-822 -277 829 0
-822 -278 830 0
-822 -279 831 0
-822 -280 832 0
-822 -281 833 0
-822 -282 834 0
-822 -283 835 0
-822 -284 836 0
-822 -285 837 0
-822 -286 838 0
-822 -287 839 0
-822 -288 840 0
-822 -290 841 0
-823 -291 813 0
-823 -292 814 0
-823 -293 815 0
-823 -294 816 0
-823 -295 817 0
-823 -296 818 0
-823 -297 819 0
-823 -298 820 0
-823 -299 821 0
-823 -300 822 0
-823 -301 824 0
-823 -302 825 0
-823 -303 826 0
-823 -304 827 0
-823 -305 828 0
-823 -306 829 0
-823 -307 830 0
-823 -308 831 0
-823 -309 832 0
-823 -310 833 0
-823 -311 834 0
-823 -312 835 0
-823 -313 836 0
-823 -314 837 0
-823 -315 838 0
-823 -316 839 0
-823 -317 840 0
-823 -319 841 0
-824 -320 813 0
-824 -321 814 0
-824 -322 815 0
-824 -323 816 0
-824 -324 817 0
-824 -325 818 0
-824 -326 819 0
-824 -327 820 0
-824 -328 821 0
-824 -329 822 0
-824 -330 823 0
-824 -331 825 0
-824 -332 826 0
-824 -333 827 0
-824 -334 828 0
-824 -335 829 0
-824 -336 830 0
-824 -337 831 0
-824 -338 832 0
-824 -339 833 0
-824 -340 834 0
-824 -341 835 0
-824 -342 836 0
-824 -343 837 0
-824 -344 838 0
-824 -345 839 0
-824 -346 840 0
-824 -348 841 0
-825 -349 813 0
-825 -350 814 0
-825 -351 815 0
-825 -352 816 0
-825 -353 817 0
-825 -354 818 0
-825 -355 819 0
-825 -356 820 0
-825 -357 821 0
-825 -358 822 0
-825 -359 823 0
-825 -360 824 0
-825 -361 826 0
-825 -362 827 0
-825 -363 828 0
-825 -364 829 0
-825 -365 830 0
-825 -366 831 0
-825 -367 832 0
-825 -368 833 0
-825 -369 834 0
-825 -370 835 0
-825 -371 836 0
-825 -372 837 0
-825 -373 838 0
-825 -374 839 0
-825 -375 840 0
-825 -377 841 0
-826 -378 813 0
-826 -379 814 0
-826 -380 815 0
-826 -381 816 0
-826 -382 817 0
-826 -383 818 0
-826 -384 819 0
-826 -385 820 0
-826 -386 821 0
-826 -387 822 0
-826 -388 823 0
-826 -389 824 0
-826 -390 825 0
-826 -391 827 0
-826 -392 828 0
-826 -393 829 0
-826 -394 830 0
-826 -395 831 0
-826 -396 832 0
-826 -397 833 0
-826 -398 834 0
-826 -399 835 0
-826 -400 836 0
-826 -401 837 0
-826 -402 838 0
-826 -403 839 0
-826 -404 840 0
-826 -406 841 0
-827 -407 813 0
-827 -408 814 0
-827 -409 815 0
-827 -410 816 0
-827 -411 817 0
-827 -412 818 0
-827 -413 819 0
-827 -414 820 0
-827 -415 821 0
-827 -416 822 0
-827 -417 823 0
-827 -418 824 0
-827 -419 825 0
-827 -420 826 0
-827 -421 828 0
-827 -422 829 0
-827 -423 830 0
-827 -424 831 0
-827 -425 832 0
-827 -426 833 0
-827 -427 834 0
-827 -428 835 0
-827 -429 836 0
-827 -430 837 0
-827 -431 838 0
-827 -432 839 0
-827 -433 840 0
-827 -435 841 0
-828 -436 813 0
-828 -437 814 0
-828 -438 815 0
-828 -439 816 0
-828 -440 817 0
-828 -441 818 0
-828 -442 819 0
-828 -443 820 0
-828 -444 821 0
-828 -445 822 0
-828 -446 823 0
-828 -447 824 0
-828 -448 825 0
-828 -449 826 0
-828 -450 827 0
-828 -451 829 0
-828 -452 830 0
-828 -453 831 0
-828 -454 832 0
-828 -455 833 0
-828 -456 834 0
-828 -457 835 0
-828 -458 836 0
-828 -459 837 0
-828 -460 838 0
-828 -461 839 0
-828 -462 840 0
-828 -464 841 0
-829 -465 813 0
-829 -466 814 0
-829 -467 815 0
-829 -468 816 0
-829 -469 817 0
-829 -470 818 0
-829 -471 819 0
-829 -472 820 0
-829 -473 821 0
-829 -474 822 0
-829 -475 823 0
-829 -476 824 0
-829 -477 825 0
-829 -478 826 0
-829 -479 827 0
-829 -480 828 0
-829 -481 830 0
-829 -482 831 0
-829 -483 832 0
-829 -484 833 0
-829 -485 834 0
-829 -486 835 0
-829 -487 836 0
-829 -488 837 0
-829 -489 838 0
-829 -490 839 0
-829 -491 840 0
-829 -493 841 0
-830 -494 813 0
-830 -495 814 0
-830 -496 815 0
-830 -497 816 0
-830 -498 817 0
-830 -499 818 0
-830 -500 819 0
-830 -501 820 0
-830 -502 821 0
-830 -503 822 0
-830 -504 823 0
-830 -505 824 0
-830 -506 825 0
-830 -507 826 0
-830 -508 827 0
-830 -509 828 0
-830 -510 829 0
-830 -511 831 0
-830 -512 832 0
-830 -513 833 0
-830 -514 834 0
-830 -515 835 0
-830 -516 836 0
-830 -517 837 0
-830 -518 838 0
-830 -519 839 0
-830 -520 840 0
-830 -522 841 0
-831 -523 813 0
-831 -524 814 0
-831 -525 815 0
-831 -526 816 0
-831 -527 817 0
-831 -528 818 0
-831 -529 819 0
-831 -530 820 0
-831 -531 821 0
-831 -532 822 0
-831 -533 823 0
-831 -534 824 0
-831 -535 825 0
-831 -536 826 0
-831 -537 827 0
-831 -538 828 0
-831 -539 829 0
-831 -540 830 0
-831 -541 832 0
-831 -542 833 0
-831 -543 834 0
-831 -544 835 0
-831 -545 836 0
-831 -546 837 0
-831 -547 838 0
-831 -548 839 0
-831 -549 840 0
-831 -551 841 0
-832 -552 813 0
-832 -553 814 0
-832 -554 815 0
-832 -555 816 0
-832 -556 817 0
-832 -557 818 0
-832 -558 819 0
-832 -559 820 0
-832 -560 821 0
-832 -561 822 0
-832 -562 823 0
-832 -563 824 0
-832 -564 825 0
-832 -565 826 0
-832 -566 827 0
-832 -567 828 0
-832 -568 829 0
-832 -569 830 0
-832 -570 831 0
-832 -571 833 0
-832 -572 834 0
-832 -573 835 0
-832 -574 836 0
-832 -575 837 0
-832 -576 838 0
-832 -577 839 0
-832 -578 840 0
-832 -580 841 0
-833 -581 813 0
-833 -582 814 0
-833 -583 815 0
-833 -584 816 0
-833 -585 817 0
-833 -586 818 0
-833 -587 819 0
-833 -588 820 0
-833 -589 821 0
-833 -590 822 0
-833 -591 823 0
-833 -592 824 0
-833 -593 825 0
-833 -594 826 0
-833 -595 827 0
-833 -596 828 0
-833 -597 829 0
-833 -598 830 0
-833 -599 831 0
-833 -600 832 0
-833 -601 834 0
-833 -602 835 0
-833 -603 836 0
-833 -604 837 0
-833 -605 838 0
-833 -606 839 0
-833 -607 840 0
-833 -609 841 0
-834 -610 813 0
-834 -611 814 0
-834 -612 815 0
-834 -613 816 0
-834 -614 817 0
-834 -615 818 0
-834 -616 819 0
-834 -617 820 0
-834 -618 821 0
-834 -619 822 0
-834 -620 823 0
-834 -621 824 0
-834 -622 825 0
-834 -623 826 0
-834 -624 827 0
-834 -625 828 0
-834 -626 829 0
-834 -627 830 0
-834 -628 831 0
-834 -629 832 0
-834 -630 833 0
-834 -631 835 0
-834 -632 836 0
-834 -633 837 0
-834 -634 838 0
-834 -635 839 0
-834 -636 840 0
-834 -638 841 0
-835 -639 813 0
-835 -640 814 0
-835 -641 815 0
-835 -642 816 0
-835 -643 817 0
-835 -644 818 0
-835 -645 819 0
-835 -646 820 0
-835 -647 821 0
-835 -648 822 0
-835 -649 823 0
-835 -650 824 0
-835 -651 825 0
-835 -652 826 0
-835 -653 827 0
-835 -654 828 0
-835 -655 829 0
-835 -656 830 0
-835 -657 831 0
-835 -658 832 0
-835 -659 833 0
-835 -660 834 0
-835 -661 836 0
-835 -662 837 0
-835 -663 838 0
-835 -664 839 0
-835 -665 840 0
-835 -667 841 0
-836 -668 813 0
-836 -669 814 0
-836 -670 815 0
-836 -671 816 0
-836 -672 817 0
-836 -673 818 0
-836 -674 819 0
-836 -675 820 0
-836 -676 821 0
-836 -677 822 0
-836 -678 823 0
-836 -679 824 0
-836 -680 825 0
-836 -681 826 0
-836 -682 827 0
-836 -683 828 0
-836 -684 829 0
-836 -685 830 0
-836 -686 831 0
-836 -687 832 0
-836 -688 833 0
-836 -689 834 0
-836 -690 835 0
-836 -691 837 0
-836 -692 838 0
-836 -693 839 0
-836 -694 840 0
-836 -696 841 0
-837 -697 813 0
-837 -698 814 0
-837 -699 815 0
-837 -700 816 0
-837 -701 817 0
-837 -702 818 0
-837 -703 819 0
-837 -704 820 0
-837 -705 821 0
-837 -706 822 0
-837 -707 823 0
-837 -708 824 0
-837 -709 825 0
-837 -710 826 0
-837 -711 827 0
-837 -712 828 0
-837 -713 829 0
-837 -714 830 0
-837 -715 831 0
-837 -716 832 0
-837 -717 833 0
-837 -718 834 0
-837 -719 835 0
-837 -720 836 0
-837 -721 838 0
-837 -722 839 0
-837 -723 840 0
-837 -725 841 0
-838 -726 813 0
-838 -727 814 0
-838 -728 815 0
-838 -729 816 0
-838 -730 817 0
-838 -731 818 0
-838 -732 819 0
-838 -733 820 0
-838 -734 821 0
-838 -735 822 0
-838 -736 823 0
-838 -737 824 0
-838 -738 825 0
-838 -739 826 0
-838 -740 827 0
-838 -741 828 0
-838 -742 829 0
-838 -743 830 0
-838 -744 831 0
-838 -745 832 0
-838 -746 833 0
-838 -747 834 0
-838 -748 835 0
-838 -749 836 0
-838 -750 837 0
-838 -751 839 0
-838 -752 840 0
-838 -754 841 0
-839 -755 813 0
-839 -756 814 0
-839 -757 815 0
-839 -758 816 0
-839 -759 817 0
-839 -760 818 0
-839 -761 819 0
-839 -762 820 0
-839 -763 821 0
-839 -764 822 0
-839 -765 823 0
-839 -766 824 0
-839 -767 825 0
-839 -768 826 0
-839 -769 827 0
-839 -770 828 0
-839 -771 829 0
-839 -772 830 0
-839 -773 831 0
-839 -774 832 0
-839 -775 833 0
-839 -776 834 0
-839 -777 835 0
-839 -778 836 0
-839 -779 837 0
-839 -780 838 0
-839 -781 840 0
-839 -783 841 0
-840 -784 813 0
-840 -785 814 0
-840 -786 815 0
-840 -787 816 0
-840 -788 817 0
-840 -789 818 0
-840 -790 819 0
-840 -791 820 0
-840 -792 821 0
-840 -793 822 0
-840 -794 823 0
-840 -795 824 0
-840 -796 825 0
-840 -797 826 0
-840 -798 827 0
-840 -799 828 0
-840 -800 829 0
-840 -801 830 0
-840 -802 831 0
-840 -803 832 0
-840 -804 833 0
-840 -805 834 0
-840 -806 835 0
-840 -807 836 0
-840 -808 837 0
-840 -809 838 0
-840 -810 839 0
-840 -812 841 0
-841 -842 813 0
-841 -843 814 0
-841 -844 815 0
-841 -845 816 0
-841 -846 817 0
-841 -847 818 0
-841 -848 819 0
-841 -849 820 0
-841 -850 821 0
-841 -851 822 0
-841 -852 823 0
-841 -853 824 0
-841 -854 825 0
-841 -855 826 0
-841 -856 827 0
-841 -857 828 0
-841 -858 829 0
-841 -859 830 0
-841 -860 831 0
-841 -861 832 0
-841 -862 833 0
-841 -863 834 0
-841 -864 835 0
-841 -865 836 0
-841 -866 837 0
-841 -867 838 0
-841 -868 839 0
-841 -869 840 0
-842 -1 843 0
-842 -2 844 0
-842 -3 845 0
-842 -4 846 0
-842 -5 847 0
-842 -6 848 0
-842 -7 849 0
-842 -8 850 0
-842 -9 851 0
-842 -10 852 0
-842 -11 853 0
-842 -12 854 0
-842 -13 855 0
-842 -14 856 0
-842 -15 857 0
-842 -16 858 0
-842 -17 859 0
-842 -18 860 0
-842 -19 861 0
-842 -20 862 0
-842 -21 863 0
-842 -22 864 0
-842 -23 865 0
-842 -24 866 0
-842 -25 867 0
-842 -26 868 0
-842 -27 869 0
-842 -28 870 0
-843 -30 842 0
-843 -31 844 0
-843 -32 845 0
-843 -33 846 0
-843 -34 847 0
-843 -35 848 0
-843 -36 849 0
-843 -37 850 0
-843 -38 851 0
-843 -39 852 0
-843 -40 853 0
-843 -41 854 0
-843 -42 855 0
-843 -43 856 0
-843 -44 857 0
-843 -45 858 0
-843 -46 859 0
-843 -47 860 0
-843 -48 861 0
-843 -49 862 0
-843 -50 863 0
-843 -51 864 0
-843 -52 865 0
-843 -53 866 0
-843 -54 867 0
-843 -55 868 0
-843 -56 869 0
-843 -57 870 0
-844 -59 842 0
-844 -60 843 0
-844 -61 845 0
-844 -62 846 0
-844 -63 847 0
-844 -64 848 0
-844 -65 849 0
-844 -66 850 0
-844 -67 851 0
-844 -68 852 0
-844 -69 853 0
-844 -70 854 0
-844 -71 855 0
-844 -72 856 0
-844 -73 857 0
-844 -74 858 0
-844 -75 859 0
-844 -76 860 0
-844 -77 861 0
-844 -78 862 0
-844 -79 863 0
-844 -80 864 0
-844 -81 865 0
-844 -82 866 0
-844 -83 867 0
-844 -84 868 0
-844 -85 869 0
-844 -86 870 0
-845 -88 842 0
-845 -89 843 0
-845 -90 844 0
-845 -91 846 0
-845 -92 847 0
-845 -93 848 0
-845 -94 849 0
-845 -95 850 0
-845 -96 851 0
-845 -97 852 0
-845 -98 853 0
-845 -99 854 0
-845 -100 855 0
-845 -101 856 0
-845 -102 857 0
-845 -103 858 0
-845 -104 859 0
-845 -105 860 0
-845 -106 861 0
-845 -107 862 0
-845 -108 863 0
-845 -109 864 0
-845 -110 865 0
-845 -111 866 0
-845 -112 867 0
-845 -113 868 0
-845 -114 869 0
-845 -115 870 0
-846 -117 842 0
-846 -118 843 0
-846 -119 844 0
-846 -120 845 0
-846 -121 847 0
-846 -122 848 0
-846 -123 849 0
-846 -124 850 0
-846 -125 851 0
-846 -126 852 0
-846 -127 853 0
-846 -128 854 0
-846 -129 855 0
-846 -130 856 0
-846 -131 857 0
-846 -132 858 0
-846 -133 859 0
-846 -134 860 0
-846 -135 861 0
-846 -136 862 0
-846 -137 863 0
-846 -138 864 0
-846 -139 865 0
-846 -140 866 0
-846 -141 867 0
-846 -142 868 0
-846 -143 869 0
-846 -144 870 0
-847 -146 842 0
-847 -147 843 0
-847 -148 844 0
-847 -149 845 0
-847 -150 846 0
-847 -151 848 0
-847 -152 849 0
-847 -153 850 0
-847 -154 851 0
-847 -155 852 0
-847 -156 853 0
-847 -157 854 0
-847 -158 855 0
-847 -159 856 0
-847 -160 857 0
-847 -161 858 0
-847 -162 859 0
-847 -163 860 0
-847 -164 861 0
-847 -165 862 0
-847 -166 863 0
-847 -167 864 0
-847 -168 865 0
-847 -169 866 0
-847 -170 867 0
-847 -171 868 0
-847 -172 869 0
-847 -173 870 0
-848 -175 842 0
-848 -176 843 0
-848 -177 844 0
-848 -178 845 0
-848 -179 846 0
-848 -180 847 0
-848 -181 849 0
-848 -182 850 0
-848 -183 851 0
-848 -184 852 0
-848 -185 853 0
-848 -186 854 0
-848 -187 855 0
-848 -188 856 0
-848 -189 857 0
-848 -190 858 0
-848 -191 859 0
-848 -192 860 0
-848 -193 861 0
-848 -194 862 0
-848 -195 863 0
-848 -196 864 0
-848 -197 865 0
-848 -198 866 0
-848 -199 867 0
-848 -200 868 0
-848 -201 869 0
-848 -202 870 0
-849 -204 842 0
-849 -205 843 0
-849 -206 844 0
-849 -207 845 0
-849 -208 846 0
-849 -209 847 0
-849 -210 848 0
-849 -211 850 0
-849 -212 851 0
-849 -213 852 0
-849 -214 853 0
-849 -215 854 0
-849 -216 855 0
-849 -217 856 0
-849 -218 857 0
-849 -219 858 0
-849 -220 859 0
-849 -221 860 0
-849 -222 861 0
-849 -223 862 0
-849 -224 863 0
-849 -225 864 0
-849 -226 865 0
-849 -227 866 0
-849 -228 867 0
-849 -229 868 0
-849 -230 869 0
-849 -231 870 0
-850 -233 842 0
-850 -234 843 0
-850 -235 844 0
-850 -236 845 0
-850 -237 846 0
-850 -238 847 0
-850 -239 848 0
-850 -240 849 0
-850 -241 851 0
-850 -242 852 0
-850 -243 853 0
-850 -244 854 0
-850 -245 855 0
-850 -246 856 0
-850 -247 857 0
-850 -248 858 0
-850 -249 859 0
-850 -250 860 0
-850 -251 861 0
-850 -252 862 0
-850 -253 863 0
-850 -254 864 0
-850 -255 865 0
-850 -256 866 0
-850 -257 867 0
-850 -258 868 0
-850 -259 869 0
-850 -260 870 0
-851 -262 842 0
-851 -263 843 0
-851 -264 844 0
-851 -265 845 0
-851 -266 846 0
-851 -267 847 0
-851 -268 848 0
-851 -269 849 0
-851 -270 850 0
-851 -271 852 0
-851 -272 853 0
-851 -273 854 0
-851 -274 855 0
-851 -275 856 0
-851 -276 857 0
-851 -277 858 0
-851 -278 859 0
-851 -279 860 0
-851 -280 861 0
-851 -281 862 0
-851 -282 863 0
-851 -283 864 0
-851 -284 865 0
-851 -285 866 0
-851 -286 867 0
-851 -287 868 0
-851 -288 869 0
-851 -289 870 0
-852 -291 842 0
-852 -292 843 0
-852 -293 844 0
-852 -294 845 0
-852 -295 846 0
-852 -296 847 0
-852 -297 848 0
-852 -298 849 0
-852 -299 850 0
-852 -300 851 0
-852 -301 853 0
-852 -302 854 0
-852 -303 855 0
-852 -304 856 0
-852 -305 857 0
-852 -306 858 0
-852 -307 859 0
-852 -308 860 0
-852 -309 861 0
-852 -310 862 0
-852 -311 863 0
-852 -312 864 0
-852 -313 865 0
-852 -314 866 0
-852 -315 867 0
-852 -316 868 0
-852 -317 869 0
-852 -318 870 0
-853 -320 842 0
-853 -321 843 0
-853 -322 844 0
-853 -323 845 0
-853 -324 846 0
-853 -325 847 0
-853 -326 848 0
-853 -327 849 0
-853 -328 850 0
-853 -329 851 0
-853 -330 852 0
-853 -331 854 0
-853 -332 855 0
-853 -333 856 0
-853 -334 857 0
-853 -335 858 0
-853 -336 859 0
-853 -337 860 0
-853 -338 861 0
-853 -339 862 0
-853 -340 863 0
-853 -341 864 0
-853 -342 865 0
-853 -343 866 0
-853 -344 867 0
-853 -345 868 0
-853 -346 869 0
-853 -347 870 0
-854 -349 842 0
-854 -350 843 0
-854 -351 844 0
-854 -352 845 0
-854 -353 846 0
-854 -354 847 0
-854 -355 848 0
-854 -356 849 0
-854 -357 850 0
-854 -358 851 0
-854 -359 852 0
-854 -360 853 0
-854 -361 855 0
-854 -362 856 0
-854 -363 857 0
-854 -364 858 0
-854 -365 859 0
-854 -366 860 0
-854 -367 861 0
-854 -368 862 0
-854 -369 863 0
-854 -370 864 0
-854 -371 865 0
-854 -372 866 0
-854 -373 867 0
-854 -374 868 0
-854 -375 869 0
-854 -376 870 0
-855 -378 842 0
-855 -379 843 0
-855 -380 844 0
-855 -381 845 0
-855 -382 846 0
-855 -383 847 0
-855 -384 848 0
-855 -385 849 0
-855 -386 850 0
-855 -387 851 0
-855 -388 852 0
-855 -389 853 0
-855 -390 854 0
-855 -391 856 0
-855 -392 857 0
-855 -393 858 0
-855 -394 859 0
-855 -395 860 0
-855 -396 861 0
-855 -397 862 0
-855 -398 863 0
-855 -399 864 0
-855 -400 865 0
-855 -401 866 0
-855 -402 867 0
-855 -403 868 0
-855 -404 869 0
-855 -405 870 0
-856 -407 842 0
-856 -408 843 0
-856 -409 844 0
-856 -410 845 0
-856 -411 846 0
-856 -412 847 0
-856 -413 848 0
-856 -414 849 0
-856 -415 850 0
-856 -416 851 0
-856 -417 852 0
-856 -418 853 0
-856 -419 854 0
-856 -420 855 0
-856 -421 857 0
-856 -422 858 0
-856 -423 859 0
-856 -424 860 0
-856 -425 861 0
-856 -426 862 0
-856 -427 863 0
-856 -428 864 0
-856 -429 865 0
-856 -430 866 0
-856 -431 867 0
-856 -432 868 0
-856 -433 869 0
-856 -434 870 0
-857 -436 842 0
-857 -437 843 0
-857 -438 844 0
-857 -439 845 0
-857 -440 846 0
-857 -441 847 0
-857 -442 848 0
-857 -443 849 0
-857 -444 850 0
-857 -445 851 0
-857 -446 852 0
-857 -447 853 0
-857 -448 854 0
-857 -449 855 0
-857 -450 856 0
-857 -451 858 0
-857 -452 859 0
-857 -453 860 0
-857 -454 861 0
-857 -455 862 0
-857 -456 863 0
-857 -457 864 0
-857 -458 865 0
-857 -459 866 0
-857 -460 867 0
-857 -461 868 0
-857 -462 869 0
-857 -463 870 0
-858 -465 842 0
-858 -466 843 0
-858 -467 844 0
-858 -468 845 0
-858 -469 846 0
-858 -470 847 0
-858 -471 848 0
-858 -472 849 0
-858 -473 850 0
-858 -474 851 0
-858 -475 852 0
-858 -476 853 0
-858 -477 854 0
-858 -478 855 0
-858 -479 856 0
-858 -480 857 0
-858 -481 859 0
-858 -482 860 0
-858 -483 861 0
-858 -484 862 0
-858 -485 863 0
-858 -486 864 0
-858 -487 865 0
-858 -488 866 0
-858 -489 867 0
-858 -490 868 0
-858 -491 869 0
-858 -492 870 0
-859 -494 842 0
-859 -495 843 0
-859 -496 844 0
-859 -497 845 0
-859 -498 846 0
-859 -499 847 0
-859 -500 848 0
-859 -501 849 0
-859 -502 850 0
-859 -503 851 0
-859 -504 852 0
-859 -505 853 0
-859 -506 854 0
-859 -507 855 0
-859 -508 856 0
-859 -509 857 0
-859 -510 858 0
-859 -511 860 0
-859 -512 861 0
-859 -513 862 0
-859 -514 863 0
-859 -515 864 0
-859 -516 865 0
-859 -517 866 0
-859 -518 867 0
-859 -519 868 0
-859 -520 869 0
-859 -521 870 0
-860 -523 842 0
-860 -524 843 0
-860 -525 844 0
-860 -526 845 0
-860 -527 846 0
-860 -528 847 0
-860 -529 848 0
-860 -530 849 0
-860 -531 850 0
-860 -532 851 0
-860 -533 852 0
-860 -534 853 0
-860 -535 854 0
-860 -536 855 0
-860 -537 856 0
-860 -538 857 0
-860 -539 858 0
-860 -540 859 0
-860 -541 861 0
-860 -542 862 0
-860 -543 863 0
-860 -544 864 0
-860 -545 865 0
-860 -546 866 0
-860 -547 867 0
-860 -548 868 0
-860 -549 869 0
-860 -550 870 0
-861 -552 842 0
-861 -553 843 0
-861 -554 844 0
-861 -555 845 0
-861 -556 846 0
-861 -557 847 0
-861 -558 848 0
-861 -559 849 0
-861 -560 850 0
-861 -561 851 0
-861 -562 852 0
-861 -563 853 0
-861 -564 854 0
-861 -565 855 0
-861 -566 856 0
-861 -567 857 0
-861 -568 858 0
-861 -569 859 0
-861 -570 860 0
-861 -571 862 0
-861 -572 863 0
-861 -573 864 0
-861 -574 865 0
-861 -575 866 0
-861 -576 867 0
-861 -577 868 0
-861 -578 869 0
-861 -579 870 0
-862 -581 842 0
-862 -582 843 0
-862 -583 844 0
-862 -584 845 0
-862 -585 846 0
-862 -586 847 0
-862 -587 848 0
-862 -588 849 0
-862 -589 850 0
-862 -590 851 0
-862 -591 852 0
-862 -592 853 0
-862 -593 854 0
-862 -594 855 0
-862 -595 856 0
-862 -596 857 0
-862 -597 858 0
-862 -598 859 0
-862 -599 860 0
-862 -600 861 0
-862 -601 863 0
-862 -602 864 0
-862 -603 865 0
-862 -604 866 0
-862 -605 867 0
-862 -606 868 0
-862 -607 869 0
-862 -608 870 0
-863 -610 842 0
-863 -611 843 0
-863 -612 844 0
-863 -613 845 0
-863 -614 846 0
-863 -615 847 0
-863 -616 848 0
-863 -617 849 0
-863 -618 850 0
-863 -619 851 0
-863 -620 852 0
-863 -621 853 0
-863 -622 854 0
-863 -623 855 0
-863 -624 856 0
-863 -625 857 0
-863 -626 858 0
-863 -627 859 0
-863 -628 860 0
-863 -629 861 0
-863 -630 862 0
-863 -631 864 0
-863 -632 865 0
-863 -633 866 0
-863 -634 867 0
-863 -635 868 0
-863 -636 869 0
-863 -637 870 0
-864 -639 842 0
-864 -640 843 0
-864 -641 844 0
-864 -642 845 0
-864 -643 846 0
-864 -644 847 0
-864 -645 848 0
-864 -646 849 0
-864 -647 850 0
-864 -648 851 0
-864 -649 852 0
-864 -650 853 0
-864 -651 854 0
-864 -652 855 0
-864 -653 856 0
-864 -654 857 0
-864 -655 858 0
-864 -656 859 0
-864 -657 860 0
-864 -658 861 0
-864 -659 862 0
-864 -660 863 0
-864 -661 865 0
-864 -662 866 0
-864 -663 867 0
-864 -664 868 0
-864 -665 869 0
-864 -666 870 0
-865 -668 842 0
-865 -669 843 0
-865 -670 844 0
-865 -671 845 0
-865 -672 846 0
-865 -673 847 0
-865 -674 848 0
-865 -675 849 0
-865 -676 850 0
-865 -677 851 0
-865 -678 852 0
-865 -679 853 0
-865 -680 854 0
-865 -681 855 0
-865 -682 856 0
-865 -683 857 0
-865 -684 858 0
-865 -685 859 0
-865 -686 860 0
-865 -687 861 0
-865 -688 862 0
-865 -689 863 0
-865 -690 864 0
-865 -691 866 0
-865 -692 867 0
-865 -693 868 0
-865 -694 869 0
-865 -695 870 0
-866 -697 842 0
-866 -698 843 0
-866 -699 844 0
-866 -700 845 0
-866 -701 846 0
-866 -702 847 0
-866 -703 848 0
-866 -704 849 0
-866 -705 850 0
-866 -706 851 0
-866 -707 852 0
-866 -708 853 0
-866 -709 854 0
-866 -710 855 0
-866 -711 856 0
-866 -712 857 0
-866 -713 858 0
-866 -714 859 0
-866 -715 860 0
-866 -716 861 0
-866 -717 862 0
-866 -718 863 0
-866 -719 864 0
-866 -720 865 0
-866 -721 867 0
-866 -722 868 0
-866 -723 869 0
-866 -724 870 0
-867 -726 842 0
-867 -727 843 0
-867 -728 844 0
-867 -729 845 0
-867 -730 846 0
-867 -731 847 0
-867 -732 848 0
-867 -733 849 0
-867 -734 850 0
-867 -735 851 0
-867 -736 852 0
-867 -737 853 0
-867 -738 854 0
-867 -739 855 0
-867 -740 856 0
-867 -741 857 0
-867 -742 858 0
-867 -743 859 0
-867 -744 860 0
-867 -745 861 0
-867 -746 862 0
-867 -747 863 0
-867 -748 864 0
-867 -749 865 0
-867 -750 866 0
-867 -751 868 0
-867 -752 869 0
-867 -753 870 0
-868 -755 842 0
-868 -756 843 0
-868 -757 844 0
-868 -758 845 0
-868 -759 846 0
-868 -760 847 0
-868 -761 848 0
-868 -762 849 0
-868 -763 850 0
-868 -764 851 0
-868 -765 852 0
-868 -766 853 0
-868 -767 854 0
-868 -768 855 0
-868 -769 856 0
-868 -770 857 0
-868 -771 858 0
-868 -772 859 0
-868 -773 860 0
-868 -774 861 0
-868 -775 862 0
-868 -776 863 0
-868 -777 864 0
-868 -778 865 0
-868 -779 866 0
-868 -780 867 0
-868 -781 869 0
-868 -782 870 0
-869 -784 842 0
-869 -785 843 0
-869 -786 844 0
-869 -787 845 0
-869 -788 846 0
-869 -789 847 0
-869 -790 848 0
-869 -791 849 0
-869 -792 850 0
-869 -793 851 0
-869 -794 852 0
-869 -795 853 0
-869 -796 854 0
-869 -797 855 0
-869 -798 856 0
-869 -799 857 0
-869 -800 858 0
-869 -801 859 0
-869 -802 860 0
-869 -803 861 0
-869 -804 862 0
-869 -805 863 0
-869 -806 864 0
-869 -807 865 0
-869 -808 866 0
-869 -809 867 0
-869 -810 868 0
-869 -811 870 0
-870 -813 842 0
-870 -814 843 0
-870 -815 844 0
-870 -816 845 0
-870 -817 846 0
-870 -818 847 0
-870 -819 848 0
-870 -820 849 0
-870 -821 850 0
-870 -822 851 0
-870 -823 852 0
-870 -824 853 0
-870 -825 854 0
-870 -826 855 0
-870 -827 856 0
-870 -828 857 0
-870 -829 858 0
-870 -830 859 0
-870 -831 860 0
-870 -832 861 0
-870 -833 862 0
-870 -834 863 0
-870 -835 864 0
-870 -836 865 0
-870 -837 866 0
-870 -838 867 0
-870 -839 868 0
-870 -840 869 0
-1 -30 0
-2 -59 0
-3 -88 0
-4 -117 0
-5 -146 0
-6 -175 0
-7 -204 0
-8 -233 0
-9 -262 0
-10 -291 0
-11 -320 0
-12 -349 0
-13 -378 0
-14 -407 0
-15 -436 0
-16 -465 0
-17 -494 0
-18 -523 0
-19 -552 0
-20 -581 0
-21 -610 0
-22 -639 0
-23 -668 0
-24 -697 0
-25 -726 0
-26 -755 0
-27 -784 0
-28 -813 0
-29 -842 0
-31 -60 0
-32 -89 0
-33 -118 0
-34 -147 0
-35 -176 0
-36 -205 0
-37 -234 0
-38 -263 0
-39 -292 0
-40 -321 0
-41 -350 0
-42 -379 0
-43 -408 0
-44 -437 0
-45 -466 0
-46 -495 0
-47 -524 0
-48 -553 0
-49 -582 0
-50 -611 0
-51 -640 0
-52 -669 0
-53 -698 0
-54 -727 0
-55 -756 0
-56 -785 0
-57 -814 0
-58 -843 0
-61 -90 0
-62 -119 0
-63 -148 0
-64 -177 0
-65 -206 0
-66 -235 0
-67 -264 0
-68 -293 0
-69 -322 0
-70 -351 0
-71 -380 0
-72 -409 0
-73 -438 0
-74 -467 0
-75 -496 0
-76 -525 0
-77 -554 0
-78 -583 0
-79 -612 0
-80 -641 0
-81 -670 0
-82 -699 0
-83 -728 0
-84 -757 0
-85 -786 0
-86 -815 0
-87 -844 0
-91 -120 0
-92 -149 0
-93 -178 0
-94 -207 0
-95 -236 0
-96 -265 0
-97 -294 0
-98 -323 0
-99 -352 0
-100 -381 0
-101 -410 0
-102 -439 0
-103 -468 0
-104 -497 0
-105 -526 0
-106 -555 0
-107 -584 0
-108 -613 0
-109 -642 0
-110 -671 0
-111 -700 0
-112 -729 0
-113 -758 0
-114 -787 0
-115 -816 0
-116 -845 0
-121 -150 0
-122 -179 0
-123 -208 0
-124 -237 0
-125 -266 0
-126 -295 0
-127 -324 0
-128 -353 0
-129 -382 0
-130 -411 0
-131 -440 0
-132 -469 0
-133 -498 0
-134 -527 0
-135 -556 0
-136 -585 0
-137 -614 0
-138 -643 0
-139 -672 0
-140 -701 0
-141 -730 0
-142 -759 0
-143 -788 0
-144 -817 0
-145 -846 0
-151 -180 0
-152 -209 0
-153 -238 0
-154 -267 0
-155 -296 0
-156 -325 0
-157 -354 0
-158 -383 0
-159 -412 0
-160 -441 0
-161 -470 0
-162 -499 0
-163 -528 0
-164 -557 0
-165 -586 0
-166 -615 0
-167 -644 0
-168 -673 0
-169 -702 0
-170 -731 0
-171 -760 0
-172 -789 0
-173 -818 0
-174 -847 0
-181 -210 0
-182 -239 0
-183 -268 0
-184 -297 0
-185 -326 0
-186 -355 0
-187 -384 0
-188 -413 0
-189 -442 0
-190 -471 0
-191 -500 0
-192 -529 0
-193 -558 0
-194 -587 0
-195 -616 0
-196 -645 0
-197 -674 0
-198 -703 0
-199 -732 0
-200 -761 0
-201 -790 0
-202 -819 0
-203 -848 0
-211 -240 0
-212 -269 0
-213 -298 0
-214 -327 0
-215 -356 0
-216 -385 0
-217 -414 0
-218 -443 0
-219 -472 0
-220 -501 0
-221 -530 0
-222 -559 0
-223 -588 0
-224 -617 0
-225 -646 0
-226 -675 0
-227 -704 0
-228 -733 0
-229 -762 0
-230 -791 0
-231 -820 0
-232 -849 0
-241 -270 0
-242 -299 0
-243 -328 0
-244 -357 0
-245 -386 0
-246 -415 0
-247 -444 0
-248 -473 0
-249 -502 0
-250 -531 0
-251 -560 0
-252 -589 0
-253 -618 0
-254 -647 0
-255 -676 0
-256 -705 0
-257 -734 0
-258 -763 0
-259 -792 0
-260 -821 0
-261 -850 0
-271 -300 0
-272 -329 0
-273 -358 0
-274 -387 0
-275 -416 0
-276 -445 0
-277 -474 0
-278 -503 0
-279 -532 0
-280 -561 0
-281 -590 0
-282 -619 0
-283 -648 0
-284 -677 0
-285 -706 0
-286 -735 0
-287 -764 0
-288 -793 0
-289 -822 0
-290 -851 0
-301 -330 0
-302 -359 0
-303 -388 0
-304 -417 0
-305 -446 0
-306 -475 0
-307 -504 0
-308 -533 0
-309 -562 0
-310 -591 0
-311 -620 0
-312 -649 0
-313 -678 0
-314 -707 0
-315 -736 0
-316 -765 0
-317 -794 0
-318 -823 0
-319 -852 0
-331 -360 0
-332 -389 0
-333 -418 0
-334 -447 0
-335 -476 0
-336 -505 0
-337 -534 0
-338 -563 0
-339 -592 0
-340 -621 0
-341 -650 0
-342 -679 0
-343 -708 0
-344 -737 0
-345 -766 0
-346 -795 0
-347 -824 0
-348 -853 0
-361 -390 0
-362 -419 0
-363 -448 0
-364 -477 0
-365 -506 0
-366 -535 0
-367 -564 0
-368 -593 0
-369 -622 0
-370 -651 0
-371 -680 0
-372 -709 0
-373 -738 0
-374 -767 0
-375 -796 0
-376 -825 0
-377 -854 0
-391 -420 0
-392 -449 0
-393 -478 0
-394 -507 0
-395 -536 0
-396 -565 0
-397 -594 0
-398 -623 0
-399 -652 0
-400 -681 0
-401 -710 0
-402 -739 0
-403 -768 0
-404 -797 0
-405 -826 0
-406 -855 0
-421 -450 0
-422 -479 0
-423 -508 0
-424 -537 0
-425 -566 0
-426 -595 0
-427 -624 0
-428 -653 0
-429 -682 0
-430 -711 0
-431 -740 0
-432 -769 0
-433 -798 0
-434 -827 0
-435 -856 0
-451 -480 0
-452 -509 0
-453 -538 0
-454 -567 0
-455 -596 0
-456 -625 0
-457 -654 0
-458 -683 0
-459 -712 0
-460 -741 0
-461 -770 0
-462 -799 0
-463 -828 0
-464 -857 0
-481 -510 0
-482 -539 0
-483 -568 0
-484 -597 0
-485 -626 0
-486 -655 0
-487 -684 0
-488 -713 0
-489 -742 0
-490 -771 0
-491 -800 0
-492 -829 0
-493 -858 0
-511 -540 0
-512 -569 0
-513 -598 0
-514 -627 0
-515 -656 0
-516 -685 0
-517 -714 0
-518 -743 0
-519 -772 0
-520 -801 0
-521 -830 0
-522 -859 0
-541 -570 0
-542 -599 0
-543 -628 0
-544 -657 0
-545 -686 0
-546 -715 0
-547 -744 0
-548 -773 0
-549 -802 0
-550 -831 0
-551 -860 0
-571 -600 0
-572 -629 0
-573 -658 0
-574 -687 0
-575 -716 0
-576 -745 0
-577 -774 0
-578 -803 0
-579 -832 0
-580 -861 0
-601 -630 0
-602 -659 0
-603 -688 0
-604 -717 0
-605 -746 0
-606 -775 0
-607 -804 0
-608 -833 0
-609 -862 0
-631 -660 0
-632 -689 0
-633 -718 0
-634 -747 0
-635 -776 0
-636 -805 0
-637 -834 0
-638 -863 0
-661 -690 0
-662 -719 0
-663 -748 0
-664 -777 0
-665 -806 0
-666 -835 0
-667 -864 0
-691 -720 0
-692 -749 0
-693 -778 0
-694 -807 0
-695 -836 0
-696 -865 0
-721 -750 0
-722 -779 0
-723 -808 0
-724 -837 0
-725 -866 0
-751 -780 0
-752 -809 0
-753 -838 0
-754 -867 0
-781 -810 0
-782 -839 0
-783 -868 0
-811 -840 0
-812 -869 0
-841 -870 0
