c description: Counting Principle: 15 divided in parts of size 2.
c generator: CNFgen (0.9.6)
c copyright: (C) 2012-2026 Massimo Lauria <massimo.lauria@uniroma1.it>
c url: https://massimolauria.net/cnfgen
c command line: cnfgen parity 15
c
p cnf 105 1380
-1 -2 0
-1 -3 0
-1 -4 0
-1 -5 0
-1 -6 0
-1 -7 0
-1 -8 0
-1 -9 0
-1 -10 0
-1 -11 0
-1 -12 0
-1 -13 0
-1 -14 0
-2 -3 0
-2 -4 0
-2 -5 0
-2 -6 0
-2 -7 0
-2 -8 0
-2 -9 0
-2 -10 0
-2 -11 0
-2 -12 0
-2 -13 0
-2 -14 0
-3 -4 0
-3 -5 0
-3 -6 0
-3 -7 0
-3 -8 0
-3 -9 0
-3 -10 0
-3 -11 0
-3 -12 0
-3 -13 0
-3 -14 0
-4 -5 0
-4 -6 0
-4 -7 0
-4 -8 0
-4 -9 0
-4 -10 0
-4 -11 0
-4 -12 0
-4 -13 0
-4 -14 0
-5 -6 0
-5 -7 0
-5 -8 0
-5 -9 0
-5 -10 0
-5 -11 0
-5 -12 0
-5 -13 0
-5 -14 0
-6 -7 0
-6 -8 0
-6 -9 0
-6 -10 0
-6 -11 0
-6 -12 0
-6 -13 0
-6 -14 0
-7 -8 0
-7 -9 0
-7 -10 0
-7 -11 0
-7 -12 0
-7 -13 0
-7 -14 0
-8 -9 0
-8 -10 0
-8 -11 0
-8 -12 0
-8 -13 0
-8 -14 0
-9 -10 0
-9 -11 0
-9 -12 0
-9 -13 0
-9 -14 0
-10 -11 0
-10 -12 0
-10 -13 0
-10 -14 0
-11 -12 0
-11 -13 0
-11 -14 0
-12 -13 0
-12 -14 0
-13 -14 0
1 2 3 4 5 6 7 8 9 10 11 12 13 14 0
-1 -15 0
-1 -16 0
-1 -17 0
-1 -18 0
-1 -19 0
-1 -20 0
-1 -21 0
-1 -22 0
-1 -23 0
-1 -24 0
-1 -25 0
-1 -26 0
-1 -27 0
-15 -16 0
-15 -17 0
-15 -18 0
-15 -19 0
-15 -20 0
-15 -21 0
-15 -22 0
-15 -23 0
-15 -24 0
-15 -25 0
-15 -26 0
-15 -27 0
-16 -17 0
-16 -18 0
-16 -19 0
-16 -20 0
-16 -21 0
-16 -22 0
-16 -23 0
-16 -24 0
-16 -25 0
-16 -26 0
-16 -27 0
-17 -18 0
-17 -19 0
-17 -20 0
-17 -21 0
-17 -22 0
-17 -23 0
-17 -24 0
-17 -25 0
-17 -26 0
-17 -27 0
-18 -19 0
-18 -20 0
-18 -21 0
-18 -22 0
-18 -23 0
-18 -24 0
-18 -25 0
-18 -26 0
-18 -27 0
-19 -20 0
-19 -21 0
-19 -22 0
-19 -23 0
-19 -24 0
-19 -25 0
-19 -26 0
-19 -27 0
-20 -21 0
-20 -22 0
-20 -23 0
-20 -24 0
-20 -25 0
-20 -26 0
-20 -27 0
-21 -22 0
-21 -23 0
-21 -24 0
-21 -25 0
-21 -26 0
-21 -27 0
-22 -23 0
-22 -24 0
-22 -25 0
-22 -26 0
-22 -27 0
-23 -24 0
-23 -25 0
-23 -26 0
-23 -27 0
-24 -25 0
-24 -26 0
-24 -27 0
-25 -26 0
-25 -27 0
-26 -27 0
1 15 16 17 18 19 20 21 22 23 24 25 26 27 0
-2 -15 0
-2 -28 0
-2 -29 0
-2 -30 0
-2 -31 0
-2 -32 0
-2 -33 0
-2 -34 0
-2 -35 0
-2 -36 0
-2 -37 0
-2 -38 0
-2 -39 0
-15 -28 0
-15 -29 0
-15 -30 0
-15 -31 0
-15 -32 0
-15 -33 0
-15 -34 0
-15 -35 0
-15 -36 0
-15 -37 0
-15 -38 0
-15 -39 0
-28 -29 0
-28 -30 0
-28 -31 0
-28 -32 0
-28 -33 0
-28 -34 0
-28 -35 0
-28 -36 0
-28 -37 0
-28 -38 0
-28 -39 0
-29 -30 0
-29 -31 0
-29 -32 0
-29 -33 0
-29 -34 0
-29 -35 0
-29 -36 0
-29 -37 0
-29 -38 0
-29 -39 0
-30 -31 0
-30 -32 0
-30 -33 0
-30 -34 0
-30 -35 0
-30 -36 0
-30 -37 0
-30 -38 0
-30 -39 0
-31 -32 0
-31 -33 0
-31 -34 0
-31 -35 0
-31 -36 0
-31 -37 0
-31 -38 0
-31 -39 0
-32 -33 0
-32 -34 0
-32 -35 0
-32 -36 0
-32 -37 0
-32 -38 0
-32 -39 0
-33 -34 0
-33 -35 0
-33 -36 0
-33 -37 0
-33 -38 0
-33 -39 0
-34 -35 0
-34 -36 0
-34 -37 0
-34 -38 0
-34 -39 0
-35 -36 0
-35 -37 0
-35 -38 0
-35 -39 0
-36 -37 0
-36 -38 0
-36 -39 0
-37 -38 0
-37 -39 0
-38 -39 0
2 15 28 29 30 31 32 33 34 35 36 37 38 39 0
-3 -16 0
-3 -28 0
-3 -40 0
-3 -41 0
-3 -42 0
-3 -43 0
-3 -44 0
-3 -45 0
-3 -46 0
-3 -47 0
-3 -48 0
-3 -49 0
-3 -50 0
-16 -28 0
-16 -40 0
-16 -41 0
-16 -42 0
-16 -43 0
-16 -44 0
-16 -45 0
-16 -46 0
-16 -47 0
-16 -48 0
-16 -49 0
-16 -50 0
-28 -40 0
-28 -41 0
-28 -42 0
-28 -43 0
-28 -44 0
-28 -45 0
-28 -46 0
-28 -47 0
-28 -48 0
-28 -49 0
-28 -50 0
-40 -41 0
-40 -42 0
-40 -43 0
-40 -44 0
-40 -45 0
-40 -46 0
-40 -47 0
-40 -48 0
-40 -49 0
-40 -50 0
-41 -42 0
-41 -43 0
-41 -44 0
-41 -45 0
-41 -46 0
-41 -47 0
-41 -48 0
-41 -49 0
-41 -50 0
-42 -43 0
-42 -44 0
-42 -45 0
-42 -46 0
-42 -47 0
-42 -48 0
-42 -49 0
-42 -50 0
-43 -44 0
-43 -45 0
-43 -46 0
-43 -47 0
-43 -48 0
-43 -49 0
-43 -50 0
-44 -45 0
-44 -46 0
-44 -47 0
-44 -48 0
-44 -49 0
-44 -50 0
-45 -46 0
-45 -47 0
-45 -48 0
-45 -49 0
-45 -50 0
-46 -47 0
-46 -48 0
-46 -49 0
-46 -50 0
-47 -48 0
-47 -49 0
-47 -50 0
-48 -49 0
-48 -50 0
-49 -50 0
3 16 28 40 41 42 43 44 45 46 47 48 49 50 0
-4 -17 0
-4 -29 0
-4 -40 0
-4 -51 0
-4 -52 0
-4 -53 0
-4 -54 0
-4 -55 0
-4 -56 0
-4 -57 0
-4 -58 0
-4 -59 0
-4 -60 0
-17 -29 0
-17 -40 0
-17 -51 0
-17 -52 0
-17 -53 0
-17 -54 0
-17 -55 0
-17 -56 0
-17 -57 0
-17 -58 0
-17 -59 0
-17 -60 0
-29 -40 0
-29 -51 0
-29 -52 0
-29 -53 0
-29 -54 0
-29 -55 0
-29 -56 0
-29 -57 0
-29 -58 0
-29 -59 0
-29 -60 0
-40 -51 0
-40 -52 0
-40 -53 0
-40 -54 0
-40 -55 0
-40 -56 0
-40 -57 0
-40 -58 0
-40 -59 0
-40 -60 0
-51 -52 0
-51 -53 0
-51 -54 0
-51 -55 0
-51 -56 0
-51 -57 0
-51 -58 0
-51 -59 0
-51 -60 0
-52 -53 0
-52 -54 0
-52 -55 0
-52 -56 0
-52 -57 0
-52 -58 0
-52 -59 0
-52 -60 0
-53 -54 0
-53 -55 0
-53 -56 0
-53 -57 0
-53 -58 0
-53 -59 0
-53 -60 0
-54 -55 0
-54 -56 0
-54 -57 0
-54 -58 0
-54 -59 0
-54 -60 0
-55 -56 0
-55 -57 0
-55 -58 0
-55 -59 0
-55 -60 0
-56 -57 0
-56 -58 0
-56 -59 0
-56 -60 0
-57 -58 0
-57 -59 0
-57 -60 0
-58 -59 0
-58 -60 0
-59 -60 0
4 17 29 40 51 52 53 54 55 56 57 58 59 60 0
-5 -18 0
-5 -30 0
-5 -41 0
-5 -51 0
-5 -61 0
-5 -62 0
-5 -63 0
-5 -64 0
-5 -65 0
-5 -66 0
-5 -67 0
-5 -68 0
-5 -69 0
-18 -30 0
-18 -41 0
-18 -51 0
-18 -61 0
-18 -62 0
-18 -63 0
-18 -64 0
-18 -65 0
-18 -66 0
-18 -67 0
-18 -68 0
-18 -69 0
-30 -41 0
-30 -51 0
-30 -61 0
-30 -62 0
-30 -63 0
-30 -64 0
-30 -65 0
-30 -66 0
-30 -67 0
-30 -68 0
-30 -69 0
-41 -51 0
-41 -61 0
-41 -62 0
-41 -63 0
-41 -64 0
-41 -65 0
-41 -66 0
-41 -67 0
-41 -68 0
-41 -69 0
-51 -61 0
-51 -62 0
-51 -63 0
-51 -64 0
-51 -65 0
-51 -66 0
-51 -67 0
-51 -68 0
-51 -69 0
-61 -62 0
-61 -63 0
-61 -64 0
-61 -65 0
-61 -66 0
-61 -67 0
-61 -68 0
-61 -69 0
-62 -63 0
-62 -64 0
-62 -65 0
-62 -66 0
-62 -67 0
-62 -68 0
-62 -69 0
-63 -64 0
-63 -65 0
-63 -66 0
-63 -67 0
-63 -68 0
-63 -69 0
-64 -65 0
-64 -66 0
-64 -67 0
-64 -68 0
-64 -69 0
-65 -66 0
-65 -67 0
-65 -68 0
-65 -69 0
-66 -67 0
-66 -68 0
-66 -69 0
-67 -68 0
-67 -69 0
-68 -69 0
5 18 30 41 51 61 62 63 64 65 66 67 68 69 0
-6 -19 0
-6 -31 0
-6 -42 0
-6 -52 0
-6 -61 0
-6 -70 0
-6 -71 0
-6 -72 0
-6 -73 0
-6 -74 0
-6 -75 0
-6 -76 0
-6 -77 0
-19 -31 0
-19 -42 0
-19 -52 0
-19 -61 0
-19 -70 0
-19 -71 0
-19 -72 0
-19 -73 0
-19 -74 0
-19 -75 0
-19 -76 0
-19 -77 0
-31 -42 0
-31 -52 0
-31 -61 0
-31 -70 0
-31 -71 0
-31 -72 0
-31 -73 0
-31 -74 0
-31 -75 0
-31 -76 0
-31 -77 0
-42 -52 0
-42 -61 0
-42 -70 0
-42 -71 0
-42 -72 0
-42 -73 0
-42 -74 0
-42 -75 0
-42 -76 0
-42 -77 0
-52 -61 0
-52 -70 0
-52 -71 0
-52 -72 0
-52 -73 0
-52 -74 0
-52 -75 0
-52 -76 0
-52 -77 0
-61 -70 0
-61 -71 0
-61 -72 0
-61 -73 0
-61 -74 0
-61 -75 0
-61 -76 0
-61 -77 0
-70 -71 0
-70 -72 0
-70 -73 0
-70 -74 0
-70 -75 0
-70 -76 0
-70 -77 0
-71 -72 0
-71 -73 0
-71 -74 0
-71 -75 0
-71 -76 0
-71 -77 0
-72 -73 0
-72 -74 0
-72 -75 0
-72 -76 0
-72 -77 0
-73 -74 0
-73 -75 0
-73 -76 0
-73 -77 0
-74 -75 0
-74 -76 0
-74 -77 0
-75 -76 0
-75 -77 0
-76 -77 0
6 19 31 42 52 61 70 71 72 73 74 75 76 77 0
-7 -20 0
-7 -32 0
-7 -43 0
-7 -53 0
-7 -62 0
-7 -70 0
-7 -78 0
-7 -79 0
-7 -80 0
-7 -81 0
-7 -82 0
-7 -83 0
-7 -84 0
-20 -32 0
-20 -43 0
-20 -53 0
-20 -62 0
-20 -70 0
-20 -78 0
-20 -79 0
-20 -80 0
-20 -81 0
-20 -82 0
-20 -83 0
-20 -84 0
-32 -43 0
-32 -53 0
-32 -62 0
-32 -70 0
-32 -78 0
-32 -79 0
-32 -80 0
-32 -81 0
-32 -82 0
-32 -83 0
-32 -84 0
-43 -53 0
-43 -62 0
-43 -70 0
-43 -78 0
-43 -79 0
-43 -80 0
-43 -81 0
-43 -82 0
-43 -83 0
-43 -84 0
-53 -62 0
-53 -70 0
-53 -78 0
-53 -79 0
-53 -80 0
-53 -81 0
-53 -82 0
-53 -83 0
-53 -84 0
-62 -70 0
-62 -78 0
-62 -79 0
-62 -80 0
-62 -81 0
-62 -82 0
-62 -83 0
-62 -84 0
-70 -78 0
-70 -79 0
-70 -80 0
-70 -81 0
-70 -82 0
-70 -83 0
-70 -84 0
-78 -79 0
-78 -80 0
-78 -81 0
-78 -82 0
-78 -83 0
-78 -84 0
-79 -80 0
-79 -81 0
-79 -82 0
-79 -83 0
-79 -84 0
-80 -81 0
-80 -82 0
-80 -83 0
-80 -84 0
-81 -82 0
-81 -83 0
-81 -84 0
-82 -83 0
-82 -84 0
-83 -84 0
7 20 32 43 53 62 70 78 79 80 81 82 83 84 0
-8 -21 0
-8 -33 0
-8 -44 0
-8 -54 0
-8 -63 0
-8 -71 0
-8 -78 0
-8 -85 0
-8 -86 0
-8 -87 0
-8 -88 0
-8 -89 0
-8 -90 0
-21 -33 0
-21 -44 0
-21 -54 0
-21 -63 0
-21 -71 0
-21 -78 0
-21 -85 0
-21 -86 0
-21 -87 0
-21 -88 0
-21 -89 0
-21 -90 0
-33 -44 0
-33 -54 0
-33 -63 0
-33 -71 0
-33 -78 0
-33 -85 0
-33 -86 0
-33 -87 0
-33 -88 0
-33 -89 0
-33 -90 0
-44 -54 0
-44 -63 0
-44 -71 0
-44 -78 0
-44 -85 0
-44 -86 0
-44 -87 0
-44 -88 0
-44 -89 0
-44 -90 0
-54 -63 0
-54 -71 0
-54 -78 0
-54 -85 0
-54 -86 0
-54 -87 0
-54 -88 0
-54 -89 0
-54 -90 0
-63 -71 0
-63 -78 0
-63 -85 0
-63 -86 0
-63 -87 0
-63 -88 0
-63 -89 0
-63 -90 0
-71 -78 0
-71 -85 0
-71 -86 0
-71 -87 0
-71 -88 0
-71 -89 0
-71 -90 0
-78 -85 0
-78 -86 0
-78 -87 0
-78 -88 0
-78 -89 0
-78 -90 0
-85 -86 0
-85 -87 0
-85 -88 0
-85 -89 0
-85 -90 0
-86 -87 0
-86 -88 0
-86 -89 0
-86 -90 0
-87 -88 0
-87 -89 0
-87 -90 0
-88 -89 0
-88 -90 0
-89 -90 0
8 21 33 44 54 63 71 78 85 86 87 88 89 90 0
-9 -22 0
-9 -34 0
-9 -45 0
-9 -55 0
-9 -64 0
-9 -72 0
-9 -79 0
-9 -85 0
-9 -91 0
-9 -92 0
-9 -93 0
-9 -94 0
-9 -95 0
-22 -34 0
-22 -45 0
-22 -55 0
-22 -64 0
-22 -72 0
-22 -79 0
-22 -85 0
-22 -91 0
-22 -92 0
-22 -93 0
-22 -94 0
-22 -95 0
-34 -45 0
-34 -55 0
-34 -64 0
-34 -72 0
-34 -79 0
-34 -85 0
-34 -91 0
-34 -92 0
-34 -93 0
-34 -94 0
-34 -95 0
-45 -55 0
-45 -64 0
-45 -72 0
-45 -79 0
-45 -85 0
-45 -91 0
-45 -92 0
-45 -93 0
-45 -94 0
-45 -95 0
-55 -64 0
-55 -72 0
-55 -79 0
-55 -85 0
-55 -91 0
-55 -92 0
-55 -93 0
-55 -94 0
-55 -95 0
-64 -72 0
-64 -79 0
-64 -85 0
-64 -91 0
-64 -92 0
-64 -93 0
-64 -94 0
-64 -95 0
-72 -79 0
-72 -85 0
-72 -91 0
-72 -92 0
-72 -93 0
-72 -94 0
-72 -95 0
-79 -85 0
-79 -91 0
-79 -92 0
-79 -93 0
-79 -94 0
-79 -95 0
-85 -91 0
-85 -92 0
-85 -93 0
-85 -94 0
-85 -95 0
-91 -92 0
-91 -93 0
-91 -94 0
-91 -95 0
-92 -93 0
-92 -94 0
-92 -95 0
-93 -94 0
-93 -95 0
-94 -95 0
9 22 34 45 55 64 72 79 85 91 92 93 94 95 0
-10 -23 0
-10 -35 0
-10 -46 0
-10 -56 0
-10 -65 0
-10 -73 0
-10 -80 0
-10 -86 0
-10 -91 0
-10 -96 0
-10 -97 0
-10 -98 0
-10 -99 0
-23 -35 0
-23 -46 0
-23 -56 0
-23 -65 0
-23 -73 0
-23 -80 0
-23 -86 0
-23 -91 0
-23 -96 0
-23 -97 0
-23 -98 0
-23 -99 0
-35 -46 0
-35 -56 0
-35 -65 0
-35 -73 0
-35 -80 0
-35 -86 0
-35 -91 0
-35 -96 0
-35 -97 0
-35 -98 0
-35 -99 0
-46 -56 0
-46 -65 0
-46 -73 0
-46 -80 0
-46 -86 0
-46 -91 0
-46 -96 0
-46 -97 0
-46 -98 0
-46 -99 0
-56 -65 0
-56 -73 0
-56 -80 0
-56 -86 0
-56 -91 0
-56 -96 0
-56 -97 0
-56 -98 0
-56 -99 0
-65 -73 0
-65 -80 0
-65 -86 0
-65 -91 0
-65 -96 0
-65 -97 0
-65 -98 0
-65 -99 0
-73 -80 0
-73 -86 0
-73 -91 0
-73 -96 0
-73 -97 0
-73 -98 0
-73 -99 0
-80 -86 0
-80 -91 0
-80 -96 0
-80 -97 0
-80 -98 0
-80 -99 0
-86 -91 0
-86 -96 0
-86 -97 0
-86 -98 0
-86 -99 0
-91 -96 0
-91 -97 0
-91 -98 0
-91 -99 0
-96 -97 0
-96 -98 0
-96 -99 0
-97 -98 0
-97 -99 0
-98 -99 0
10 23 35 46 56 65 73 80 86 91 96 97 98 99 0
-11 -24 0
-11 -36 0
-11 -47 0
-11 -57 0
-11 -66 0
-11 -74 0
-11 -81 0
-11 -87 0
-11 -92 0
-11 -96 0
-11 -100 0
-11 -101 0
-11 -102 0
-24 -36 0
-24 -47 0
-24 -57 0
-24 -66 0
-24 -74 0
-24 -81 0
-24 -87 0
-24 -92 0
-24 -96 0
-24 -100 0
-24 -101 0
-24 -102 0
-36 -47 0
-36 -57 0
-36 -66 0
-36 -74 0
-36 -81 0
-36 -87 0
-36 -92 0
-36 -96 0
-36 -100 0
-36 -101 0
-36 -102 0
-47 -57 0
-47 -66 0
-47 -74 0
-47 -81 0
-47 -87 0
-47 -92 0
-47 -96 0
-47 -100 0
-47 -101 0
-47 -102 0
-57 -66 0
-57 -74 0
-57 -81 0
-57 -87 0
-57 -92 0
-57 -96 0
-57 -100 0
-57 -101 0
-57 -102 0
-66 -74 0
-66 -81 0
-66 -87 0
-66 -92 0
-66 -96 0
-66 -100 0
-66 -101 0
-66 -102 0
-74 -81 0
-74 -87 0
-74 -92 0
-74 -96 0
-74 -100 0
-74 -101 0
-74 -102 0
-81 -87 0
-81 -92 0
-81 -96 0
-81 -100 0
-81 -101 0
-81 -102 0
-87 -92 0
-87 -96 0
-87 -100 0
-87 -101 0
-87 -102 0
-92 -96 0
-92 -100 0
-92 -101 0
-92 -102 0
-96 -100 0
-96 -101 0
-96 -102 0
-100 -101 0
-100 -102 0
-101 -102 0
11 24 36 47 57 66 74 81 87 92 96 100 101 102 0
-12 -25 0
-12 -37 0
-12 -48 0
-12 -58 0
-12 -67 0
-12 -75 0
-12 -82 0
-12 -88 0
-12 -93 0
-12 -97 0
-12 -100 0
-12 -103 0
-12 -104 0
-25 -37 0
-25 -48 0
-25 -58 0
-25 -67 0
-25 -75 0
-25 -82 0
-25 -88 0
-25 -93 0
-25 -97 0
-25 -100 0
-25 -103 0
-25 -104 0
-37 -48 0
-37 -58 0
-37 -67 0
-37 -75 0
-37 -82 0
-37 -88 0
-37 -93 0
-37 -97 0
-37 -100 0
-37 -103 0
-37 -104 0
-48 -58 0
-48 -67 0
-48 -75 0
-48 -82 0
-48 -88 0
-48 -93 0
-48 -97 0
-48 -100 0
-48 -103 0
-48 -104 0
-58 -67 0
-58 -75 0
-58 -82 0
-58 -88 0
-58 -93 0
-58 -97 0
-58 -100 0
-58 -103 0
-58 -104 0
-67 -75 0
-67 -82 0
-67 -88 0
-67 -93 0
-67 -97 0
-67 -100 0
-67 -103 0
-67 -104 0
-75 -82 0
-75 -88 0
-75 -93 0
-75 -97 0
-75 -100 0
-75 -103 0
-75 -104 0
-82 -88 0
-82 -93 0
-82 -97 0
-82 -100 0
-82 -103 0
-82 -104 0
-88 -93 0
-88 -97 0
-88 -100 0
-88 -103 0
-88 -104 0
-93 -97 0
-93 -100 0
-93 -103 0
-93 -104 0
-97 -100 0
-97 -103 0
-97 -104 0
-100 -103 0
-100 -104 0
-103 -104 0
12 25 37 48 58 67 75 82 88 93 97 100 103 104 0
-13 -26 0
-13 -38 0
-13 -49 0
-13 -59 0
-13 -68 0
-13 -76 0
-13 -83 0
-13 -89 0
-13 -94 0
-13 -98 0
-13 -101 0
-13 -103 0
-13 -105 0
-26 -38 0
-26 -49 0
-26 -59 0
-26 -68 0
-26 -76 0
-26 -83 0
-26 -89 0
-26 -94 0
-26 -98 0
-26 -101 0
-26 -103 0
-26 -105 0
-38 -49 0
-38 -59 0
-38 -68 0
-38 -76 0
-38 -83 0
-38 -89 0
-38 -94 0
-38 -98 0
-38 -101 0
-38 -103 0
-38 -105 0
-49 -59 0
-49 -68 0
-49 -76 0
-49 -83 0
-49 -89 0
-49 -94 0
-49 -98 0
-49 -101 0
-49 -103 0
-49 -105 0
-59 -68 0
-59 -76 0
-59 -83 0
-59 -89 0
-59 -94 0
-59 -98 0
-59 -101 0
-59 -103 0
-59 -105 0
-68 -76 0
-68 -83 0
-68 -89 0
-68 -94 0
-68 -98 0
-68 -101 0
-68 -103 0
-68 -105 0
-76 -83 0
-76 -89 0
-76 -94 0
-76 -98 0
-76 -101 0
-76 -103 0
-76 -105 0
-83 -89 0
-83 -94 0
-83 -98 0
-83 -101 0
-83 -103 0
-83 -105 0
-89 -94 0
-89 -98 0
-89 -101 0
-89 -103 0
-89 -105 0
-94 -98 0
-94 -101 0
-94 -103 0
-94 -105 0
-98 -101 0
-98 -103 0
-98 -105 0
-101 -103 0
-101 -105 0
-103 -105 0
13 26 38 49 59 68 76 83 89 94 98 101 103 105 0
-14 -27 0
-14 -39 0
-14 -50 0
-14 -60 0
-14 -69 0
-14 -77 0
-14 -84 0
-14 -90 0
-14 -95 0
-14 -99 0
-14 -102 0
-14 -104 0
-14 -105 0
-27 -39 0
-27 -50 0
-27 -60 0
-27 -69 0
-27 -77 0
-27 -84 0
-27 -90 0
-27 -95 0
-27 -99 0
-27 -102 0
-27 -104 0
-27 -105 0
-39 -50 0
-39 -60 0
-39 -69 0
-39 -77 0
-39 -84 0
-39 -90 0
-39 -95 0
-39 -99 0
-39 -102 0
-39 -104 0
-39 -105 0
-50 -60 0
-50 -69 0
-50 -77 0
-50 -84 0
-50 -90 0
-50 -95 0
-50 -99 0
-50 -102 0
-50 -104 0
-50 -105 0
-60 -69 0
-60 -77 0
-60 -84 0
-60 -90 0
-60 -95 0
-60 -99 0
-60 -102 0
-60 -104 0
-60 -105 0
-69 -77 0
-69 -84 0
-69 -90 0
-69 -95 0
-69 -99 0
-69 -102 0
-69 -104 0
-69 -105 0
-77 -84 0
-77 -90 0
-77 -95 0
-77 -99 0
-77 -102 0
-77 -104 0
-77 -105 0
-84 -90 0
-84 -95 0
-84 -99 0
-84 -102 0
-84 -104 0
-84 -105 0
-90 -95 0
-90 -99 0
-90 -102 0
-90 -104 0
-90 -105 0
-95 -99 0
-95 -102 0
-95 -104 0
-95 -105 0
-99 -102 0
-99 -104 0
-99 -105 0
-102 -104 0
-102 -105 0
-104 -105 0
14 27 39 50 60 69 77 84 90 95 99 102 104 105 0
