c description: Tseitin formula on random 4-regular graph on 24 verices, with odd charge
c generator: CNFgen (0.9.6)
c copyright: (C) 2012-2026 Massimo Lauria <massimo.lauria@uniroma1.it>
c url: https://massimolauria.net/cnfgen
c command line: cnfgen tseitin 24
c
p cnf 48 192
1 2 3 -4 0
1 2 -3 4 0
1 -2 3 4 0
1 -2 -3 -4 0
-1 2 3 4 0
-1 2 -3 -4 0
-1 -2 3 -4 0
-1 -2 -3 4 0
5 6 7 -8 0
5 6 -7 8 0
5 -6 7 8 0
5 -6 -7 -8 0
-5 6 7 8 0
-5 6 -7 -8 0
-5 -6 7 -8 0
-5 -6 -7 8 0
9 10 11 -12 0
9 10 -11 12 0
9 -10 11 12 0
9 -10 -11 -12 0
-9 10 11 12 0
-9 10 -11 -12 0
-9 -10 11 -12 0
-9 -10 -11 12 0
13 14 15 16 0
13 14 -15 -16 0
13 -14 15 -16 0
13 -14 -15 16 0
-13 14 15 -16 0
-13 14 -15 16 0
-13 -14 15 16 0
-13 -14 -15 -16 0
17 18 19 -20 0
17 18 -19 20 0
17 -18 19 20 0
17 -18 -19 -20 0
-17 18 19 20 0
-17 18 -19 -20 0
-17 -18 19 -20 0
-17 -18 -19 20 0
21 22 23 24 0
21 22 -23 -24 0
21 -22 23 -24 0
21 -22 -23 24 0
-21 22 23 -24 0
-21 22 -23 24 0
-21 -22 23 24 0
-21 -22 -23 -24 0
1 9 21 -25 0
1 9 -21 25 0
1 -9 21 25 0
1 -9 -21 -25 0
-1 9 21 25 0
-1 9 -21 -25 0
-1 -9 21 -25 0
-1 -9 -21 25 0
5 17 26 -27 0
5 17 -26 27 0
5 -17 26 27 0
5 -17 -26 -27 0
-5 17 26 27 0
-5 17 -26 -27 0
-5 -17 26 -27 0
-5 -17 -26 27 0
22 28 29 30 0
22 28 -29 -30 0
22 -28 29 -30 0
22 -28 -29 30 0
-22 28 29 -30 0
-22 28 -29 30 0
-22 -28 29 30 0
-22 -28 -29 -30 0
2 31 32 -33 0
2 31 -32 33 0
2 -31 32 33 0
2 -31 -32 -33 0
-2 31 32 33 0
-2 31 -32 -33 0
-2 -31 32 -33 0
-2 -31 -32 33 0
23 28 34 -35 0
23 28 -34 35 0
23 -28 34 35 0
23 -28 -34 -35 0
-23 28 34 35 0
-23 28 -34 -35 0
-23 -28 34 -35 0
-23 -28 -34 35 0
26 36 37 -38 0
26 36 -37 38 0
26 -36 37 38 0
26 -36 -37 -38 0
-26 36 37 38 0
-26 36 -37 -38 0
-26 -36 37 -38 0
-26 -36 -37 38 0
3 10 24 39 0
3 10 -24 -39 0
3 -10 24 -39 0
3 -10 -24 39 0
-3 10 24 -39 0
-3 10 -24 39 0
-3 -10 24 39 0
-3 -10 -24 -39 0
31 34 40 41 0
31 34 -40 -41 0
31 -34 40 -41 0
31 -34 -40 41 0
-31 34 40 -41 0
-31 34 -40 41 0
-31 -34 40 41 0
-31 -34 -40 -41 0
32 36 42 43 0
32 36 -42 -43 0
32 -36 42 -43 0
32 -36 -42 43 0
-32 36 42 -43 0
-32 36 -42 43 0
-32 -36 42 43 0
-32 -36 -42 -43 0
11 13 37 -44 0
11 13 -37 44 0
11 -13 37 44 0
11 -13 -37 -44 0
-11 13 37 44 0
-11 13 -37 -44 0
-11 -13 37 -44 0
-11 -13 -37 44 0
29 35 44 45 0
29 35 -44 -45 0
29 -35 44 -45 0
29 -35 -44 45 0
-29 35 44 -45 0
-29 35 -44 45 0
-29 -35 44 45 0
-29 -35 -44 -45 0
6 14 45 46 0
6 14 -45 -46 0
6 -14 45 -46 0
6 -14 -45 46 0
-6 14 45 -46 0
-6 14 -45 46 0
-6 -14 45 46 0
-6 -14 -45 -46 0
7 18 42 -47 0
7 18 -42 47 0
7 -18 42 47 0
7 -18 -42 -47 0
-7 18 42 47 0
-7 18 -42 -47 0
-7 -18 42 -47 0
-7 -18 -42 47 0
19 33 40 -46 0
19 33 -40 46 0
19 -33 40 46 0
19 -33 -40 -46 0
-19 33 40 46 0
-19 33 -40 -46 0
-19 -33 40 -46 0
-19 -33 -40 46 0
20 27 43 -48 0
20 27 -43 48 0
20 -27 43 48 0
20 -27 -43 -48 0
-20 27 43 48 0
-20 27 -43 -48 0
-20 -27 43 -48 0
-20 -27 -43 48 0
25 30 38 39 0
25 30 -38 -39 0
25 -30 38 -39 0
25 -30 -38 39 0
-25 30 38 -39 0
-25 30 -38 39 0
-25 -30 38 39 0
-25 -30 -38 -39 0
4 8 15 47 0
4 8 -15 -47 0
4 -8 15 -47 0
4 -8 -15 47 0
-4 8 15 -47 0
-4 8 -15 47 0
-4 -8 15 47 0
-4 -8 -15 -47 0
12 16 41 48 0
12 16 -41 -48 0
12 -16 41 -48 0
12 -16 -41 48 0
-12 16 41 -48 0
-12 16 -41 48 0
-12 -16 41 48 0
-12 -16 -41 -48 0
