c description: Tseitin formula on random 4-regular graph on 23 verices, with odd charge
c generator: CNFgen (0.9.6)
c copyright: (C) 2012-2026 Massimo Lauria <massimo.lauria@uniroma1.it>
c url: https://massimolauria.net/cnfgen
c command line: cnfgen tseitin 23
c
p cnf 46 184
1 2 3 4 0
1 2 -3 -4 0
1 -2 3 -4 0
1 -2 -3 4 0
-1 2 3 -4 0
-1 2 -3 4 0
-1 -2 3 4 0
-1 -2 -3 -4 0
5 6 7 -8 0
5 6 -7 8 0
5 -6 7 8 0
5 -6 -7 -8 0
-5 6 7 8 0
-5 6 -7 -8 0
-5 -6 7 -8 0
-5 -6 -7 8 0
9 10 11 -12 0
9 10 -11 12 0
9 -10 11 12 0
9 -10 -11 -12 0
-9 10 11 12 0
-9 10 -11 -12 0
-9 -10 11 -12 0
-9 -10 -11 12 0
1 13 14 15 0
1 13 -14 -15 0
1 -13 14 -15 0
1 -13 -14 15 0
-1 13 14 -15 0
-1 13 -14 15 0
-1 -13 14 15 0
-1 -13 -14 -15 0
2 16 17 -18 0
2 16 -17 18 0
2 -16 17 18 0
2 -16 -17 -18 0
-2 16 17 18 0
-2 16 -17 -18 0
-2 -16 17 -18 0
-2 -16 -17 18 0
19 20 21 22 0
19 20 -21 -22 0
19 -20 21 -22 0
19 -20 -21 22 0
-19 20 21 -22 0
-19 20 -21 22 0
-19 -20 21 22 0
-19 -20 -21 -22 0
5 9 19 -23 0
5 9 -19 23 0
5 -9 19 23 0
5 -9 -19 -23 0
-5 9 19 23 0
-5 9 -19 -23 0
-5 -9 19 -23 0
-5 -9 -19 23 0
3 24 25 26 0
3 24 -25 -26 0
3 -24 25 -26 0
3 -24 -25 26 0
-3 24 25 -26 0
-3 24 -25 26 0
-3 -24 25 26 0
-3 -24 -25 -26 0
10 27 28 29 0
10 27 -28 -29 0
10 -27 28 -29 0
10 -27 -28 29 0
-10 27 28 -29 0
-10 27 -28 29 0
-10 -27 28 29 0
-10 -27 -28 -29 0
11 13 30 31 0
11 13 -30 -31 0
11 -13 30 -31 0
11 -13 -30 31 0
-11 13 30 -31 0
-11 13 -30 31 0
-11 -13 30 31 0
-11 -13 -30 -31 0
6 12 16 -32 0
6 12 -16 32 0
6 -12 16 32 0
6 -12 -16 -32 0
-6 12 16 32 0
-6 12 -16 -32 0
-6 -12 16 -32 0
-6 -12 -16 32 0
7 14 24 -33 0
7 14 -24 33 0
7 -14 24 33 0
7 -14 -24 -33 0
-7 14 24 33 0
-7 14 -24 -33 0
-7 -14 24 -33 0
-7 -14 -24 33 0
20 34 35 36 0
20 34 -35 -36 0
20 -34 35 -36 0
20 -34 -35 36 0
-20 34 35 -36 0
-20 34 -35 36 0
-20 -34 35 36 0
-20 -34 -35 -36 0
17 34 37 -38 0
17 34 -37 38 0
17 -34 37 38 0
17 -34 -37 -38 0
-17 34 37 38 0
-17 34 -37 -38 0
-17 -34 37 -38 0
-17 -34 -37 38 0
15 25 39 -40 0
15 25 -39 40 0
15 -25 39 40 0
15 -25 -39 -40 0
-15 25 39 40 0
-15 25 -39 -40 0
-15 -25 39 -40 0
-15 -25 -39 40 0
41 42 43 -44 0
41 42 -43 44 0
41 -42 43 44 0
41 -42 -43 -44 0
-41 42 43 44 0
-41 42 -43 -44 0
-41 -42 43 -44 0
-41 -42 -43 44 0
18 35 39 -45 0
18 35 -39 45 0
18 -35 39 45 0
18 -35 -39 -45 0
-18 35 39 45 0
-18 35 -39 -45 0
-18 -35 39 -45 0
-18 -35 -39 45 0
21 30 33 36 0
21 30 -33 -36 0
21 -30 33 -36 0
21 -30 -33 36 0
-21 30 33 -36 0
-21 30 -33 36 0
-21 -30 33 36 0
-21 -30 -33 -36 0
4 32 41 -46 0
4 32 -41 46 0
4 -32 41 46 0
4 -32 -41 -46 0
-4 32 41 46 0
-4 32 -41 -46 0
-4 -32 41 -46 0
-4 -32 -41 46 0
27 40 42 -45 0
27 40 -42 45 0
27 -40 42 45 0
27 -40 -42 -45 0
-27 40 42 45 0
-27 40 -42 -45 0
-27 -40 42 -45 0
-27 -40 -42 45 0
23 28 37 -43 0
23 28 -37 43 0
23 -28 37 43 0
23 -28 -37 -43 0
-23 28 37 43 0
-23 28 -37 -43 0
-23 -28 37 -43 0
-23 -28 -37 43 0
8 26 31 46 0
8 26 -31 -46 0
8 -26 31 -46 0
8 -26 -31 46 0
-8 26 31 -46 0
-8 26 -31 46 0
-8 -26 31 46 0
-8 -26 -31 -46 0
22 29 38 -44 0
22 29 -38 44 0
22 -29 38 44 0
22 -29 -38 -44 0
-22 29 38 44 0
-22 29 -38 -44 0
-22 -29 38 -44 0
-22 -29 -38 44 0
