c description: Tseitin formula on random 4-regular graph on 19 verices, with odd charge
c generator: CNFgen (0.9.6)
c copyright: (C) 2012-2026 Massimo Lauria <massimo.lauria@uniroma1.it>
c url: https://massimolauria.net/cnfgen
c command line: cnfgen tseitin 19
c
p cnf 38 152
1 2 3 4 0
1 2 -3 -4 0
1 -2 3 -4 0
1 -2 -3 4 0
-1 2 3 -4 0
-1 2 -3 4 0
-1 -2 3 4 0
-1 -2 -3 -4 0
5 6 7 8 0
5 6 -7 -8 0
5 -6 7 -8 0
5 -6 -7 8 0
-5 6 7 -8 0
-5 6 -7 8 0
-5 -6 7 8 0
-5 -6 -7 -8 0
9 10 11 12 0
9 10 -11 -12 0
9 -10 11 -12 0
9 -10 -11 12 0
-9 10 11 -12 0
-9 10 -11 12 0
-9 -10 11 12 0
-9 -10 -11 -12 0
5 13 14 -15 0
5 13 -14 15 0
5 -13 14 15 0
5 -13 -14 -15 0
-5 13 14 15 0
-5 13 -14 -15 0
-5 -13 14 -15 0
-5 -13 -14 15 0
16 17 18 19 0
16 17 -18 -19 0
16 -17 18 -19 0
16 -17 -18 19 0
-16 17 18 -19 0
-16 17 -18 19 0
-16 -17 18 19 0
-16 -17 -18 -19 0
6 20 21 22 0
6 20 -21 -22 0
6 -20 21 -22 0
6 -20 -21 22 0
-6 20 21 -22 0
-6 20 -21 22 0
-6 -20 21 22 0
-6 -20 -21 -22 0
1 16 23 24 0
1 16 -23 -24 0
1 -16 23 -24 0
1 -16 -23 24 0
-1 16 23 -24 0
-1 16 -23 24 0
-1 -16 23 24 0
-1 -16 -23 -24 0
2 17 25 26 0
2 17 -25 -26 0
2 -17 25 -26 0
2 -17 -25 26 0
-2 17 25 -26 0
-2 17 -25 26 0
-2 -17 25 26 0
-2 -17 -25 -26 0
27 28 29 30 0
27 28 -29 -30 0
27 -28 29 -30 0
27 -28 -29 30 0
-27 28 29 -30 0
-27 28 -29 30 0
-27 -28 29 30 0
-27 -28 -29 -30 0
3 7 25 27 0
3 7 -25 -27 0
3 -7 25 -27 0
3 -7 -25 27 0
-3 7 25 -27 0
-3 7 -25 27 0
-3 -7 25 27 0
-3 -7 -25 -27 0
9 20 31 -32 0
9 20 -31 32 0
9 -20 31 32 0
9 -20 -31 -32 0
-9 20 31 32 0
-9 20 -31 -32 0
-9 -20 31 -32 0
-9 -20 -31 32 0
10 13 23 28 0
10 13 -23 -28 0
10 -13 23 -28 0
10 -13 -23 28 0
-10 13 23 -28 0
-10 13 -23 28 0
-10 -13 23 28 0
-10 -13 -23 -28 0
11 18 33 -34 0
11 18 -33 34 0
11 -18 33 34 0
11 -18 -33 -34 0
-11 18 33 34 0
-11 18 -33 -34 0
-11 -18 33 -34 0
-11 -18 -33 34 0
12 21 31 -35 0
12 21 -31 35 0
12 -21 31 35 0
12 -21 -31 -35 0
-12 21 31 35 0
-12 21 -31 -35 0
-12 -21 31 -35 0
-12 -21 -31 35 0
29 33 36 37 0
29 33 -36 -37 0
29 -33 36 -37 0
29 -33 -36 37 0
-29 33 36 -37 0
-29 33 -36 37 0
-29 -33 36 37 0
-29 -33 -36 -37 0
14 26 32 -36 0
14 26 -32 36 0
14 -26 32 36 0
14 -26 -32 -36 0
-14 26 32 36 0
-14 26 -32 -36 0
-14 -26 32 -36 0
-14 -26 -32 36 0
19 24 34 -38 0
19 24 -34 38 0
19 -24 34 38 0
19 -24 -34 -38 0
-19 24 34 38 0
-19 24 -34 -38 0
-19 -24 34 -38 0
-19 -24 -34 38 0
8 15 30 -38 0
8 15 -30 38 0
8 -15 30 38 0
8 -15 -30 -38 0
-8 15 30 38 0
-8 15 -30 -38 0
-8 -15 30 -38 0
-8 -15 -30 38 0
4 22 35 -37 0
4 22 -35 37 0
4 -22 35 37 0
4 -22 -35 -37 0
-4 22 35 37 0
-4 22 -35 -37 0
-4 -22 35 -37 0
-4 -22 -35 37 0
