c description: Tseitin formula on random 4-regular graph on 12 verices, with odd charge
c generator: CNFgen (0.9.6)
c copyright: (C) 2012-2026 Massimo Lauria <massimo.lauria@uniroma1.it>
c url: https://massimolauria.net/cnfgen
c command line: cnfgen tseitin 12
c
p cnf 24 96
1 2 3 4 0
1 2 -3 -4 0
1 -2 3 -4 0
1 -2 -3 4 0
-1 2 3 -4 0
-1 2 -3 4 0
-1 -2 3 4 0
-1 -2 -3 -4 0
1 5 6 7 0
1 5 -6 -7 0
1 -5 6 -7 0
1 -5 -6 7 0
-1 5 6 -7 0
-1 5 -6 7 0
-1 -5 6 7 0
-1 -5 -6 -7 0
2 8 9 10 0
2 8 -9 -10 0
2 -8 9 -10 0
2 -8 -9 10 0
-2 8 9 -10 0
-2 8 -9 10 0
-2 -8 9 10 0
-2 -8 -9 -10 0
5 8 11 12 0
5 8 -11 -12 0
5 -8 11 -12 0
5 -8 -11 12 0
-5 8 11 -12 0
-5 8 -11 12 0
-5 -8 11 12 0
-5 -8 -11 -12 0
6 13 14 15 0
6 13 -14 -15 0
6 -13 14 -15 0
6 -13 -14 15 0
-6 13 14 -15 0
-6 13 -14 15 0
-6 -13 14 15 0
-6 -13 -14 -15 0
13 16 17 -18 0
13 16 -17 18 0
13 -16 17 18 0
13 -16 -17 -18 0
-13 16 17 18 0
-13 16 -17 -18 0
-13 -16 17 -18 0
-13 -16 -17 18 0
3 7 16 19 0
3 7 -16 -19 0
3 -7 16 -19 0
3 -7 -16 19 0
-3 7 16 -19 0
-3 7 -16 19 0
-3 -7 16 19 0
-3 -7 -16 -19 0
9 14 17 20 0
9 14 -17 -20 0
9 -14 17 -20 0
9 -14 -17 20 0
-9 14 17 -20 0
-9 14 -17 20 0
-9 -14 17 20 0
-9 -14 -17 -20 0
11 21 22 23 0
11 21 -22 -23 0
11 -21 22 -23 0
11 -21 -22 23 0
-11 21 22 -23 0
-11 21 -22 23 0
-11 -21 22 23 0
-11 -21 -22 -23 0
15 19 21 24 0
15 19 -21 -24 0
15 -19 21 -24 0
15 -19 -21 24 0
-15 19 21 -24 0
-15 19 -21 24 0
-15 -19 21 24 0
-15 -19 -21 -24 0
4 18 22 -24 0
4 18 -22 24 0
4 -18 22 24 0
4 -18 -22 -24 0
-4 18 22 24 0
-4 18 -22 -24 0
-4 -18 22 -24 0
-4 -18 -22 24 0
10 12 20 -23 0
10 12 -20 23 0
10 -12 20 23 0
10 -12 -20 -23 0
-10 12 20 23 0
-10 12 -20 -23 0
-10 -12 20 -23 0
-10 -12 -20 23 0
