c description: Tseitin formula on random 4-regular graph on 13 verices, with odd charge
c generator: CNFgen (0.9.6)
c copyright: (C) 2012-2026 Massimo Lauria <massimo.lauria@uniroma1.it>
c url: https://massimolauria.net/cnfgen
c command line: cnfgen tseitin 13
c
p cnf 26 104
1 2 3 -4 0
1 2 -3 4 0
1 -2 3 4 0
1 -2 -3 -4 0
-1 2 3 4 0
-1 2 -3 -4 0
-1 -2 3 -4 0
-1 -2 -3 4 0
1 5 6 7 0
1 5 -6 -7 0
1 -5 6 -7 0
1 -5 -6 7 0
-1 5 6 -7 0
-1 5 -6 7 0
-1 -5 6 7 0
-1 -5 -6 -7 0
8 9 10 11 0
8 9 -10 -11 0
8 -9 10 -11 0
8 -9 -10 11 0
-8 9 10 -11 0
-8 9 -10 11 0
-8 -9 10 11 0
-8 -9 -10 -11 0
5 12 13 -14 0
5 12 -13 14 0
5 -12 13 14 0
5 -12 -13 -14 0
-5 12 13 14 0
-5 12 -13 -14 0
-5 -12 13 -14 0
-5 -12 -13 14 0
15 16 17 18 0
15 16 -17 -18 0
15 -16 17 -18 0
15 -16 -17 18 0
-15 16 17 -18 0
-15 16 -17 18 0
-15 -16 17 18 0
-15 -16 -17 -18 0
8 12 19 -20 0
8 12 -19 20 0
8 -12 19 20 0
8 -12 -19 -20 0
-8 12 19 20 0
-8 12 -19 -20 0
-8 -12 19 -20 0
-8 -12 -19 20 0
2 6 21 -22 0
2 6 -21 22 0
2 -6 21 22 0
2 -6 -21 -22 0
-2 6 21 22 0
-2 6 -21 -22 0
-2 -6 21 -22 0
-2 -6 -21 22 0
13 15 23 -24 0
13 15 -23 24 0
13 -15 23 24 0
13 -15 -23 -24 0
-13 15 23 24 0
-13 15 -23 -24 0
-13 -15 23 -24 0
-13 -15 -23 24 0
7 9 19 -25 0
7 9 -19 25 0
7 -9 19 25 0
7 -9 -19 -25 0
-7 9 19 25 0
-7 9 -19 -25 0
-7 -9 19 -25 0
-7 -9 -19 25 0
10 20 21 -26 0
10 20 -21 26 0
10 -20 21 26 0
10 -20 -21 -26 0
-10 20 21 26 0
-10 20 -21 -26 0
-10 -20 21 -26 0
-10 -20 -21 26 0
3 14 16 23 0
3 14 -16 -23 0
3 -14 16 -23 0
3 -14 -16 23 0
-3 14 16 -23 0
-3 14 -16 23 0
-3 -14 16 23 0
-3 -14 -16 -23 0
4 17 22 -26 0
4 17 -22 26 0
4 -17 22 26 0
4 -17 -22 -26 0
-4 17 22 26 0
-4 17 -22 -26 0
-4 -17 22 -26 0
-4 -17 -22 26 0
11 18 24 25 0
11 18 -24 -25 0
11 -18 24 -25 0
11 -18 -24 25 0
-11 18 24 -25 0
-11 18 -24 25 0
-11 -18 24 25 0
-11 -18 -24 -25 0
