c Problem generated from carry-save[n-bit] multiplication circuit
c by Paul Purdom and Amr Sabry
c
c Circuit for product = 994009 [True,True,True,True,False,False,True,False,True,False,True,False,True,True,False,True,True,False,False,True]
c Variables for output [msb,...,lsb]: [1062,1061,1056,1051,1046,1041,1036,1031,1026,1021,1016,1011,1006,1001,996,991,986,981,977,871,762,653,544,435,326,217,108,51,30]
c Variables for first input [msb,...,lsb]: [19,18,17,16,15,14,13,12,11,10,9,8,7,6,5,4,3,2,1]
c Variables for second input [msb,...,lsb]: [29,28,27,26,25,24,23,22,21,20]
c
c
p cnf 1062 4161
1 20 -30 0
1 -20 -30 0
-1 20 -30 0
-1 -20 30 0
2 20 -31 0
2 -20 -31 0
-2 20 -31 0
-2 -20 31 0
3 20 -32 0
3 -20 -32 0
-3 20 -32 0
-3 -20 32 0
4 20 -33 0
4 -20 -33 0
-4 20 -33 0
-4 -20 33 0
5 20 -34 0
5 -20 -34 0
-5 20 -34 0
-5 -20 34 0
6 20 -35 0
6 -20 -35 0
-6 20 -35 0
-6 -20 35 0
7 20 -36 0
7 -20 -36 0
-7 20 -36 0
-7 -20 36 0
8 20 -37 0
8 -20 -37 0
-8 20 -37 0
-8 -20 37 0
9 20 -38 0
9 -20 -38 0
-9 20 -38 0
-9 -20 38 0
10 20 -39 0
10 -20 -39 0
-10 20 -39 0
-10 -20 39 0
11 20 -40 0
11 -20 -40 0
-11 20 -40 0
-11 -20 40 0
12 20 -41 0
12 -20 -41 0
-12 20 -41 0
-12 -20 41 0
13 20 -42 0
13 -20 -42 0
-13 20 -42 0
-13 -20 42 0
14 20 -43 0
14 -20 -43 0
-14 20 -43 0
-14 -20 43 0
15 20 -44 0
15 -20 -44 0
-15 20 -44 0
-15 -20 44 0
16 20 -45 0
16 -20 -45 0
-16 20 -45 0
-16 -20 45 0
17 20 -46 0
17 -20 -46 0
-17 20 -46 0
-17 -20 46 0
18 20 -47 0
18 -20 -47 0
-18 20 -47 0
-18 -20 47 0
19 20 -48 0
19 -20 -48 0
-19 20 -48 0
-19 -20 48 0
1 21 -49 0
1 -21 -49 0
-1 21 -49 0
-1 -21 49 0
31 49 -50 0
31 -49 -50 0
-31 49 -50 0
-31 -49 50 0
31 49 -51 0
31 -49 51 0
-31 49 51 0
-31 -49 -51 0
2 21 -52 0
2 -21 -52 0
-2 21 -52 0
-2 -21 52 0
32 52 -53 0
32 -52 -53 0
-32 52 -53 0
-32 -52 53 0
32 52 -54 0
32 -52 54 0
-32 52 54 0
-32 -52 -54 0
3 21 -55 0
3 -21 -55 0
-3 21 -55 0
-3 -21 55 0
33 55 -56 0
33 -55 -56 0
-33 55 -56 0
-33 -55 56 0
33 55 -57 0
33 -55 57 0
-33 55 57 0
-33 -55 -57 0
4 21 -58 0
4 -21 -58 0
-4 21 -58 0
-4 -21 58 0
34 58 -59 0
34 -58 -59 0
-34 58 -59 0
-34 -58 59 0
34 58 -60 0
34 -58 60 0
-34 58 60 0
-34 -58 -60 0
5 21 -61 0
5 -21 -61 0
-5 21 -61 0
-5 -21 61 0
35 61 -62 0
35 -61 -62 0
-35 61 -62 0
-35 -61 62 0
35 61 -63 0
35 -61 63 0
-35 61 63 0
-35 -61 -63 0
6 21 -64 0
6 -21 -64 0
-6 21 -64 0
-6 -21 64 0
36 64 -65 0
36 -64 -65 0
-36 64 -65 0
-36 -64 65 0
36 64 -66 0
36 -64 66 0
-36 64 66 0
-36 -64 -66 0
7 21 -67 0
7 -21 -67 0
-7 21 -67 0
-7 -21 67 0
37 67 -68 0
37 -67 -68 0
-37 67 -68 0
-37 -67 68 0
37 67 -69 0
37 -67 69 0
-37 67 69 0
-37 -67 -69 0
8 21 -70 0
8 -21 -70 0
-8 21 -70 0
-8 -21 70 0
38 70 -71 0
38 -70 -71 0
-38 70 -71 0
-38 -70 71 0
38 70 -72 0
38 -70 72 0
-38 70 72 0
-38 -70 -72 0
9 21 -73 0
9 -21 -73 0
-9 21 -73 0
-9 -21 73 0
39 73 -74 0
39 -73 -74 0
-39 73 -74 0
-39 -73 74 0
39 73 -75 0
39 -73 75 0
-39 73 75 0
-39 -73 -75 0
10 21 -76 0
10 -21 -76 0
-10 21 -76 0
-10 -21 76 0
40 76 -77 0
40 -76 -77 0
-40 76 -77 0
-40 -76 77 0
40 76 -78 0
40 -76 78 0
-40 76 78 0
-40 -76 -78 0
11 21 -79 0
11 -21 -79 0
-11 21 -79 0
-11 -21 79 0
41 79 -80 0
41 -79 -80 0
-41 79 -80 0
-41 -79 80 0
41 79 -81 0
41 -79 81 0
-41 79 81 0
-41 -79 -81 0
12 21 -82 0
12 -21 -82 0
-12 21 -82 0
-12 -21 82 0
42 82 -83 0
42 -82 -83 0
-42 82 -83 0
-42 -82 83 0
42 82 -84 0
42 -82 84 0
-42 82 84 0
-42 -82 -84 0
13 21 -85 0
13 -21 -85 0
-13 21 -85 0
-13 -21 85 0
43 85 -86 0
43 -85 -86 0
-43 85 -86 0
-43 -85 86 0
43 85 -87 0
43 -85 87 0
-43 85 87 0
-43 -85 -87 0
14 21 -88 0
14 -21 -88 0
-14 21 -88 0
-14 -21 88 0
44 88 -89 0
44 -88 -89 0
-44 88 -89 0
-44 -88 89 0
44 88 -90 0
44 -88 90 0
-44 88 90 0
-44 -88 -90 0
15 21 -91 0
15 -21 -91 0
-15 21 -91 0
-15 -21 91 0
45 91 -92 0
45 -91 -92 0
-45 91 -92 0
-45 -91 92 0
45 91 -93 0
45 -91 93 0
-45 91 93 0
-45 -91 -93 0
16 21 -94 0
16 -21 -94 0
-16 21 -94 0
-16 -21 94 0
46 94 -95 0
46 -94 -95 0
-46 94 -95 0
-46 -94 95 0
46 94 -96 0
46 -94 96 0
-46 94 96 0
-46 -94 -96 0
17 21 -97 0
17 -21 -97 0
-17 21 -97 0
-17 -21 97 0
47 97 -98 0
47 -97 -98 0
-47 97 -98 0
-47 -97 98 0
47 97 -99 0
47 -97 99 0
-47 97 99 0
-47 -97 -99 0
18 21 -100 0
18 -21 -100 0
-18 21 -100 0
-18 -21 100 0
48 100 -101 0
48 -100 -101 0
-48 100 -101 0
-48 -100 101 0
48 100 -102 0
48 -100 102 0
-48 100 102 0
-48 -100 -102 0
19 21 -103 0
19 -21 -103 0
-19 21 -103 0
-19 -21 103 0
1 22 -104 0
1 -22 -104 0
-1 22 -104 0
-1 -22 104 0
54 104 -105 0
54 -104 -105 0
-54 104 -105 0
-54 -104 105 0
54 104 -106 0
54 -104 106 0
-54 104 106 0
-54 -104 -106 0
50 106 -107 0
50 -106 -107 0
-50 106 -107 0
-50 -106 107 0
50 106 -108 0
50 -106 108 0
-50 106 108 0
-50 -106 -108 0
105 107 -109 0
105 -107 109 0
-105 107 109 0
-105 -107 -109 0
2 22 -110 0
2 -22 -110 0
-2 22 -110 0
-2 -22 110 0
57 110 -111 0
57 -110 -111 0
-57 110 -111 0
-57 -110 111 0
57 110 -112 0
57 -110 112 0
-57 110 112 0
-57 -110 -112 0
53 112 -113 0
53 -112 -113 0
-53 112 -113 0
-53 -112 113 0
53 112 -114 0
53 -112 114 0
-53 112 114 0
-53 -112 -114 0
111 113 -115 0
111 -113 115 0
-111 113 115 0
-111 -113 -115 0
3 22 -116 0
3 -22 -116 0
-3 22 -116 0
-3 -22 116 0
60 116 -117 0
60 -116 -117 0
-60 116 -117 0
-60 -116 117 0
60 116 -118 0
60 -116 118 0
-60 116 118 0
-60 -116 -118 0
56 118 -119 0
56 -118 -119 0
-56 118 -119 0
-56 -118 119 0
56 118 -120 0
56 -118 120 0
-56 118 120 0
-56 -118 -120 0
117 119 -121 0
117 -119 121 0
-117 119 121 0
-117 -119 -121 0
4 22 -122 0
4 -22 -122 0
-4 22 -122 0
-4 -22 122 0
63 122 -123 0
63 -122 -123 0
-63 122 -123 0
-63 -122 123 0
63 122 -124 0
63 -122 124 0
-63 122 124 0
-63 -122 -124 0
59 124 -125 0
59 -124 -125 0
-59 124 -125 0
-59 -124 125 0
59 124 -126 0
59 -124 126 0
-59 124 126 0
-59 -124 -126 0
123 125 -127 0
123 -125 127 0
-123 125 127 0
-123 -125 -127 0
5 22 -128 0
5 -22 -128 0
-5 22 -128 0
-5 -22 128 0
66 128 -129 0
66 -128 -129 0
-66 128 -129 0
-66 -128 129 0
66 128 -130 0
66 -128 130 0
-66 128 130 0
-66 -128 -130 0
62 130 -131 0
62 -130 -131 0
-62 130 -131 0
-62 -130 131 0
62 130 -132 0
62 -130 132 0
-62 130 132 0
-62 -130 -132 0
129 131 -133 0
129 -131 133 0
-129 131 133 0
-129 -131 -133 0
6 22 -134 0
6 -22 -134 0
-6 22 -134 0
-6 -22 134 0
69 134 -135 0
69 -134 -135 0
-69 134 -135 0
-69 -134 135 0
69 134 -136 0
69 -134 136 0
-69 134 136 0
-69 -134 -136 0
65 136 -137 0
65 -136 -137 0
-65 136 -137 0
-65 -136 137 0
65 136 -138 0
65 -136 138 0
-65 136 138 0
-65 -136 -138 0
135 137 -139 0
135 -137 139 0
-135 137 139 0
-135 -137 -139 0
7 22 -140 0
7 -22 -140 0
-7 22 -140 0
-7 -22 140 0
72 140 -141 0
72 -140 -141 0
-72 140 -141 0
-72 -140 141 0
72 140 -142 0
72 -140 142 0
-72 140 142 0
-72 -140 -142 0
68 142 -143 0
68 -142 -143 0
-68 142 -143 0
-68 -142 143 0
68 142 -144 0
68 -142 144 0
-68 142 144 0
-68 -142 -144 0
141 143 -145 0
141 -143 145 0
-141 143 145 0
-141 -143 -145 0
8 22 -146 0
8 -22 -146 0
-8 22 -146 0
-8 -22 146 0
75 146 -147 0
75 -146 -147 0
-75 146 -147 0
-75 -146 147 0
75 146 -148 0
75 -146 148 0
-75 146 148 0
-75 -146 -148 0
71 148 -149 0
71 -148 -149 0
-71 148 -149 0
-71 -148 149 0
71 148 -150 0
71 -148 150 0
-71 148 150 0
-71 -148 -150 0
147 149 -151 0
147 -149 151 0
-147 149 151 0
-147 -149 -151 0
9 22 -152 0
9 -22 -152 0
-9 22 -152 0
-9 -22 152 0
78 152 -153 0
78 -152 -153 0
-78 152 -153 0
-78 -152 153 0
78 152 -154 0
78 -152 154 0
-78 152 154 0
-78 -152 -154 0
74 154 -155 0
74 -154 -155 0
-74 154 -155 0
-74 -154 155 0
74 154 -156 0
74 -154 156 0
-74 154 156 0
-74 -154 -156 0
153 155 -157 0
153 -155 157 0
-153 155 157 0
-153 -155 -157 0
10 22 -158 0
10 -22 -158 0
-10 22 -158 0
-10 -22 158 0
81 158 -159 0
81 -158 -159 0
-81 158 -159 0
-81 -158 159 0
81 158 -160 0
81 -158 160 0
-81 158 160 0
-81 -158 -160 0
77 160 -161 0
77 -160 -161 0
-77 160 -161 0
-77 -160 161 0
77 160 -162 0
77 -160 162 0
-77 160 162 0
-77 -160 -162 0
159 161 -163 0
159 -161 163 0
-159 161 163 0
-159 -161 -163 0
11 22 -164 0
11 -22 -164 0
-11 22 -164 0
-11 -22 164 0
84 164 -165 0
84 -164 -165 0
-84 164 -165 0
-84 -164 165 0
84 164 -166 0
84 -164 166 0
-84 164 166 0
-84 -164 -166 0
80 166 -167 0
80 -166 -167 0
-80 166 -167 0
-80 -166 167 0
80 166 -168 0
80 -166 168 0
-80 166 168 0
-80 -166 -168 0
165 167 -169 0
165 -167 169 0
-165 167 169 0
-165 -167 -169 0
12 22 -170 0
12 -22 -170 0
-12 22 -170 0
-12 -22 170 0
87 170 -171 0
87 -170 -171 0
-87 170 -171 0
-87 -170 171 0
87 170 -172 0
87 -170 172 0
-87 170 172 0
-87 -170 -172 0
83 172 -173 0
83 -172 -173 0
-83 172 -173 0
-83 -172 173 0
83 172 -174 0
83 -172 174 0
-83 172 174 0
-83 -172 -174 0
171 173 -175 0
171 -173 175 0
-171 173 175 0
-171 -173 -175 0
13 22 -176 0
13 -22 -176 0
-13 22 -176 0
-13 -22 176 0
90 176 -177 0
90 -176 -177 0
-90 176 -177 0
-90 -176 177 0
90 176 -178 0
90 -176 178 0
-90 176 178 0
-90 -176 -178 0
86 178 -179 0
86 -178 -179 0
-86 178 -179 0
-86 -178 179 0
86 178 -180 0
86 -178 180 0
-86 178 180 0
-86 -178 -180 0
177 179 -181 0
177 -179 181 0
-177 179 181 0
-177 -179 -181 0
14 22 -182 0
14 -22 -182 0
-14 22 -182 0
-14 -22 182 0
93 182 -183 0
93 -182 -183 0
-93 182 -183 0
-93 -182 183 0
93 182 -184 0
93 -182 184 0
-93 182 184 0
-93 -182 -184 0
89 184 -185 0
89 -184 -185 0
-89 184 -185 0
-89 -184 185 0
89 184 -186 0
89 -184 186 0
-89 184 186 0
-89 -184 -186 0
183 185 -187 0
183 -185 187 0
-183 185 187 0
-183 -185 -187 0
15 22 -188 0
15 -22 -188 0
-15 22 -188 0
-15 -22 188 0
96 188 -189 0
96 -188 -189 0
-96 188 -189 0
-96 -188 189 0
96 188 -190 0
96 -188 190 0
-96 188 190 0
-96 -188 -190 0
92 190 -191 0
92 -190 -191 0
-92 190 -191 0
-92 -190 191 0
92 190 -192 0
92 -190 192 0
-92 190 192 0
-92 -190 -192 0
189 191 -193 0
189 -191 193 0
-189 191 193 0
-189 -191 -193 0
16 22 -194 0
16 -22 -194 0
-16 22 -194 0
-16 -22 194 0
99 194 -195 0
99 -194 -195 0
-99 194 -195 0
-99 -194 195 0
99 194 -196 0
99 -194 196 0
-99 194 196 0
-99 -194 -196 0
95 196 -197 0
95 -196 -197 0
-95 196 -197 0
-95 -196 197 0
95 196 -198 0
95 -196 198 0
-95 196 198 0
-95 -196 -198 0
195 197 -199 0
195 -197 199 0
-195 197 199 0
-195 -197 -199 0
17 22 -200 0
17 -22 -200 0
-17 22 -200 0
-17 -22 200 0
102 200 -201 0
102 -200 -201 0
-102 200 -201 0
-102 -200 201 0
102 200 -202 0
102 -200 202 0
-102 200 202 0
-102 -200 -202 0
98 202 -203 0
98 -202 -203 0
-98 202 -203 0
-98 -202 203 0
98 202 -204 0
98 -202 204 0
-98 202 204 0
-98 -202 -204 0
201 203 -205 0
201 -203 205 0
-201 203 205 0
-201 -203 -205 0
18 22 -206 0
18 -22 -206 0
-18 22 -206 0
-18 -22 206 0
103 206 -207 0
103 -206 -207 0
-103 206 -207 0
-103 -206 207 0
103 206 -208 0
103 -206 208 0
-103 206 208 0
-103 -206 -208 0
101 208 -209 0
101 -208 -209 0
-101 208 -209 0
-101 -208 209 0
101 208 -210 0
101 -208 210 0
-101 208 210 0
-101 -208 -210 0
207 209 -211 0
207 -209 211 0
-207 209 211 0
-207 -209 -211 0
19 22 -212 0
19 -22 -212 0
-19 22 -212 0
-19 -22 212 0
1 23 -213 0
1 -23 -213 0
-1 23 -213 0
-1 -23 213 0
114 213 -214 0
114 -213 -214 0
-114 213 -214 0
-114 -213 214 0
114 213 -215 0
114 -213 215 0
-114 213 215 0
-114 -213 -215 0
109 215 -216 0
109 -215 -216 0
-109 215 -216 0
-109 -215 216 0
109 215 -217 0
109 -215 217 0
-109 215 217 0
-109 -215 -217 0
214 216 -218 0
214 -216 218 0
-214 216 218 0
-214 -216 -218 0
2 23 -219 0
2 -23 -219 0
-2 23 -219 0
-2 -23 219 0
120 219 -220 0
120 -219 -220 0
-120 219 -220 0
-120 -219 220 0
120 219 -221 0
120 -219 221 0
-120 219 221 0
-120 -219 -221 0
115 221 -222 0
115 -221 -222 0
-115 221 -222 0
-115 -221 222 0
115 221 -223 0
115 -221 223 0
-115 221 223 0
-115 -221 -223 0
220 222 -224 0
220 -222 224 0
-220 222 224 0
-220 -222 -224 0
3 23 -225 0
3 -23 -225 0
-3 23 -225 0
-3 -23 225 0
126 225 -226 0
126 -225 -226 0
-126 225 -226 0
-126 -225 226 0
126 225 -227 0
126 -225 227 0
-126 225 227 0
-126 -225 -227 0
121 227 -228 0
121 -227 -228 0
-121 227 -228 0
-121 -227 228 0
121 227 -229 0
121 -227 229 0
-121 227 229 0
-121 -227 -229 0
226 228 -230 0
226 -228 230 0
-226 228 230 0
-226 -228 -230 0
4 23 -231 0
4 -23 -231 0
-4 23 -231 0
-4 -23 231 0
132 231 -232 0
132 -231 -232 0
-132 231 -232 0
-132 -231 232 0
132 231 -233 0
132 -231 233 0
-132 231 233 0
-132 -231 -233 0
127 233 -234 0
127 -233 -234 0
-127 233 -234 0
-127 -233 234 0
127 233 -235 0
127 -233 235 0
-127 233 235 0
-127 -233 -235 0
232 234 -236 0
232 -234 236 0
-232 234 236 0
-232 -234 -236 0
5 23 -237 0
5 -23 -237 0
-5 23 -237 0
-5 -23 237 0
138 237 -238 0
138 -237 -238 0
-138 237 -238 0
-138 -237 238 0
138 237 -239 0
138 -237 239 0
-138 237 239 0
-138 -237 -239 0
133 239 -240 0
133 -239 -240 0
-133 239 -240 0
-133 -239 240 0
133 239 -241 0
133 -239 241 0
-133 239 241 0
-133 -239 -241 0
238 240 -242 0
238 -240 242 0
-238 240 242 0
-238 -240 -242 0
6 23 -243 0
6 -23 -243 0
-6 23 -243 0
-6 -23 243 0
144 243 -244 0
144 -243 -244 0
-144 243 -244 0
-144 -243 244 0
144 243 -245 0
144 -243 245 0
-144 243 245 0
-144 -243 -245 0
139 245 -246 0
139 -245 -246 0
-139 245 -246 0
-139 -245 246 0
139 245 -247 0
139 -245 247 0
-139 245 247 0
-139 -245 -247 0
244 246 -248 0
244 -246 248 0
-244 246 248 0
-244 -246 -248 0
7 23 -249 0
7 -23 -249 0
-7 23 -249 0
-7 -23 249 0
150 249 -250 0
150 -249 -250 0
-150 249 -250 0
-150 -249 250 0
150 249 -251 0
150 -249 251 0
-150 249 251 0
-150 -249 -251 0
145 251 -252 0
145 -251 -252 0
-145 251 -252 0
-145 -251 252 0
145 251 -253 0
145 -251 253 0
-145 251 253 0
-145 -251 -253 0
250 252 -254 0
250 -252 254 0
-250 252 254 0
-250 -252 -254 0
8 23 -255 0
8 -23 -255 0
-8 23 -255 0
-8 -23 255 0
156 255 -256 0
156 -255 -256 0
-156 255 -256 0
-156 -255 256 0
156 255 -257 0
156 -255 257 0
-156 255 257 0
-156 -255 -257 0
151 257 -258 0
151 -257 -258 0
-151 257 -258 0
-151 -257 258 0
151 257 -259 0
151 -257 259 0
-151 257 259 0
-151 -257 -259 0
256 258 -260 0
256 -258 260 0
-256 258 260 0
-256 -258 -260 0
9 23 -261 0
9 -23 -261 0
-9 23 -261 0
-9 -23 261 0
162 261 -262 0
162 -261 -262 0
-162 261 -262 0
-162 -261 262 0
162 261 -263 0
162 -261 263 0
-162 261 263 0
-162 -261 -263 0
157 263 -264 0
157 -263 -264 0
-157 263 -264 0
-157 -263 264 0
157 263 -265 0
157 -263 265 0
-157 263 265 0
-157 -263 -265 0
262 264 -266 0
262 -264 266 0
-262 264 266 0
-262 -264 -266 0
10 23 -267 0
10 -23 -267 0
-10 23 -267 0
-10 -23 267 0
168 267 -268 0
168 -267 -268 0
-168 267 -268 0
-168 -267 268 0
168 267 -269 0
168 -267 269 0
-168 267 269 0
-168 -267 -269 0
163 269 -270 0
163 -269 -270 0
-163 269 -270 0
-163 -269 270 0
163 269 -271 0
163 -269 271 0
-163 269 271 0
-163 -269 -271 0
268 270 -272 0
268 -270 272 0
-268 270 272 0
-268 -270 -272 0
11 23 -273 0
11 -23 -273 0
-11 23 -273 0
-11 -23 273 0
174 273 -274 0
174 -273 -274 0
-174 273 -274 0
-174 -273 274 0
174 273 -275 0
174 -273 275 0
-174 273 275 0
-174 -273 -275 0
169 275 -276 0
169 -275 -276 0
-169 275 -276 0
-169 -275 276 0
169 275 -277 0
169 -275 277 0
-169 275 277 0
-169 -275 -277 0
274 276 -278 0
274 -276 278 0
-274 276 278 0
-274 -276 -278 0
12 23 -279 0
12 -23 -279 0
-12 23 -279 0
-12 -23 279 0
180 279 -280 0
180 -279 -280 0
-180 279 -280 0
-180 -279 280 0
180 279 -281 0
180 -279 281 0
-180 279 281 0
-180 -279 -281 0
175 281 -282 0
175 -281 -282 0
-175 281 -282 0
-175 -281 282 0
175 281 -283 0
175 -281 283 0
-175 281 283 0
-175 -281 -283 0
280 282 -284 0
280 -282 284 0
-280 282 284 0
-280 -282 -284 0
13 23 -285 0
13 -23 -285 0
-13 23 -285 0
-13 -23 285 0
186 285 -286 0
186 -285 -286 0
-186 285 -286 0
-186 -285 286 0
186 285 -287 0
186 -285 287 0
-186 285 287 0
-186 -285 -287 0
181 287 -288 0
181 -287 -288 0
-181 287 -288 0
-181 -287 288 0
181 287 -289 0
181 -287 289 0
-181 287 289 0
-181 -287 -289 0
286 288 -290 0
286 -288 290 0
-286 288 290 0
-286 -288 -290 0
14 23 -291 0
14 -23 -291 0
-14 23 -291 0
-14 -23 291 0
192 291 -292 0
192 -291 -292 0
-192 291 -292 0
-192 -291 292 0
192 291 -293 0
192 -291 293 0
-192 291 293 0
-192 -291 -293 0
187 293 -294 0
187 -293 -294 0
-187 293 -294 0
-187 -293 294 0
187 293 -295 0
187 -293 295 0
-187 293 295 0
-187 -293 -295 0
292 294 -296 0
292 -294 296 0
-292 294 296 0
-292 -294 -296 0
15 23 -297 0
15 -23 -297 0
-15 23 -297 0
-15 -23 297 0
198 297 -298 0
198 -297 -298 0
-198 297 -298 0
-198 -297 298 0
198 297 -299 0
198 -297 299 0
-198 297 299 0
-198 -297 -299 0
193 299 -300 0
193 -299 -300 0
-193 299 -300 0
-193 -299 300 0
193 299 -301 0
193 -299 301 0
-193 299 301 0
-193 -299 -301 0
298 300 -302 0
298 -300 302 0
-298 300 302 0
-298 -300 -302 0
16 23 -303 0
16 -23 -303 0
-16 23 -303 0
-16 -23 303 0
204 303 -304 0
204 -303 -304 0
-204 303 -304 0
-204 -303 304 0
204 303 -305 0
204 -303 305 0
-204 303 305 0
-204 -303 -305 0
199 305 -306 0
199 -305 -306 0
-199 305 -306 0
-199 -305 306 0
199 305 -307 0
199 -305 307 0
-199 305 307 0
-199 -305 -307 0
304 306 -308 0
304 -306 308 0
-304 306 308 0
-304 -306 -308 0
17 23 -309 0
17 -23 -309 0
-17 23 -309 0
-17 -23 309 0
210 309 -310 0
210 -309 -310 0
-210 309 -310 0
-210 -309 310 0
210 309 -311 0
210 -309 311 0
-210 309 311 0
-210 -309 -311 0
205 311 -312 0
205 -311 -312 0
-205 311 -312 0
-205 -311 312 0
205 311 -313 0
205 -311 313 0
-205 311 313 0
-205 -311 -313 0
310 312 -314 0
310 -312 314 0
-310 312 314 0
-310 -312 -314 0
18 23 -315 0
18 -23 -315 0
-18 23 -315 0
-18 -23 315 0
212 315 -316 0
212 -315 -316 0
-212 315 -316 0
-212 -315 316 0
212 315 -317 0
212 -315 317 0
-212 315 317 0
-212 -315 -317 0
211 317 -318 0
211 -317 -318 0
-211 317 -318 0
-211 -317 318 0
211 317 -319 0
211 -317 319 0
-211 317 319 0
-211 -317 -319 0
316 318 -320 0
316 -318 320 0
-316 318 320 0
-316 -318 -320 0
19 23 -321 0
19 -23 -321 0
-19 23 -321 0
-19 -23 321 0
1 24 -322 0
1 -24 -322 0
-1 24 -322 0
-1 -24 322 0
223 322 -323 0
223 -322 -323 0
-223 322 -323 0
-223 -322 323 0
223 322 -324 0
223 -322 324 0
-223 322 324 0
-223 -322 -324 0
218 324 -325 0
218 -324 -325 0
-218 324 -325 0
-218 -324 325 0
218 324 -326 0
218 -324 326 0
-218 324 326 0
-218 -324 -326 0
323 325 -327 0
323 -325 327 0
-323 325 327 0
-323 -325 -327 0
2 24 -328 0
2 -24 -328 0
-2 24 -328 0
-2 -24 328 0
229 328 -329 0
229 -328 -329 0
-229 328 -329 0
-229 -328 329 0
229 328 -330 0
229 -328 330 0
-229 328 330 0
-229 -328 -330 0
224 330 -331 0
224 -330 -331 0
-224 330 -331 0
-224 -330 331 0
224 330 -332 0
224 -330 332 0
-224 330 332 0
-224 -330 -332 0
329 331 -333 0
329 -331 333 0
-329 331 333 0
-329 -331 -333 0
3 24 -334 0
3 -24 -334 0
-3 24 -334 0
-3 -24 334 0
235 334 -335 0
235 -334 -335 0
-235 334 -335 0
-235 -334 335 0
235 334 -336 0
235 -334 336 0
-235 334 336 0
-235 -334 -336 0
230 336 -337 0
230 -336 -337 0
-230 336 -337 0
-230 -336 337 0
230 336 -338 0
230 -336 338 0
-230 336 338 0
-230 -336 -338 0
335 337 -339 0
335 -337 339 0
-335 337 339 0
-335 -337 -339 0
4 24 -340 0
4 -24 -340 0
-4 24 -340 0
-4 -24 340 0
241 340 -341 0
241 -340 -341 0
-241 340 -341 0
-241 -340 341 0
241 340 -342 0
241 -340 342 0
-241 340 342 0
-241 -340 -342 0
236 342 -343 0
236 -342 -343 0
-236 342 -343 0
-236 -342 343 0
236 342 -344 0
236 -342 344 0
-236 342 344 0
-236 -342 -344 0
341 343 -345 0
341 -343 345 0
-341 343 345 0
-341 -343 -345 0
5 24 -346 0
5 -24 -346 0
-5 24 -346 0
-5 -24 346 0
247 346 -347 0
247 -346 -347 0
-247 346 -347 0
-247 -346 347 0
247 346 -348 0
247 -346 348 0
-247 346 348 0
-247 -346 -348 0
242 348 -349 0
242 -348 -349 0
-242 348 -349 0
-242 -348 349 0
242 348 -350 0
242 -348 350 0
-242 348 350 0
-242 -348 -350 0
347 349 -351 0
347 -349 351 0
-347 349 351 0
-347 -349 -351 0
6 24 -352 0
6 -24 -352 0
-6 24 -352 0
-6 -24 352 0
253 352 -353 0
253 -352 -353 0
-253 352 -353 0
-253 -352 353 0
253 352 -354 0
253 -352 354 0
-253 352 354 0
-253 -352 -354 0
248 354 -355 0
248 -354 -355 0
-248 354 -355 0
-248 -354 355 0
248 354 -356 0
248 -354 356 0
-248 354 356 0
-248 -354 -356 0
353 355 -357 0
353 -355 357 0
-353 355 357 0
-353 -355 -357 0
7 24 -358 0
7 -24 -358 0
-7 24 -358 0
-7 -24 358 0
259 358 -359 0
259 -358 -359 0
-259 358 -359 0
-259 -358 359 0
259 358 -360 0
259 -358 360 0
-259 358 360 0
-259 -358 -360 0
254 360 -361 0
254 -360 -361 0
-254 360 -361 0
-254 -360 361 0
254 360 -362 0
254 -360 362 0
-254 360 362 0
-254 -360 -362 0
359 361 -363 0
359 -361 363 0
-359 361 363 0
-359 -361 -363 0
8 24 -364 0
8 -24 -364 0
-8 24 -364 0
-8 -24 364 0
265 364 -365 0
265 -364 -365 0
-265 364 -365 0
-265 -364 365 0
265 364 -366 0
265 -364 366 0
-265 364 366 0
-265 -364 -366 0
260 366 -367 0
260 -366 -367 0
-260 366 -367 0
-260 -366 367 0
260 366 -368 0
260 -366 368 0
-260 366 368 0
-260 -366 -368 0
365 367 -369 0
365 -367 369 0
-365 367 369 0
-365 -367 -369 0
9 24 -370 0
9 -24 -370 0
-9 24 -370 0
-9 -24 370 0
271 370 -371 0
271 -370 -371 0
-271 370 -371 0
-271 -370 371 0
271 370 -372 0
271 -370 372 0
-271 370 372 0
-271 -370 -372 0
266 372 -373 0
266 -372 -373 0
-266 372 -373 0
-266 -372 373 0
266 372 -374 0
266 -372 374 0
-266 372 374 0
-266 -372 -374 0
371 373 -375 0
371 -373 375 0
-371 373 375 0
-371 -373 -375 0
10 24 -376 0
10 -24 -376 0
-10 24 -376 0
-10 -24 376 0
277 376 -377 0
277 -376 -377 0
-277 376 -377 0
-277 -376 377 0
277 376 -378 0
277 -376 378 0
-277 376 378 0
-277 -376 -378 0
272 378 -379 0
272 -378 -379 0
-272 378 -379 0
-272 -378 379 0
272 378 -380 0
272 -378 380 0
-272 378 380 0
-272 -378 -380 0
377 379 -381 0
377 -379 381 0
-377 379 381 0
-377 -379 -381 0
11 24 -382 0
11 -24 -382 0
-11 24 -382 0
-11 -24 382 0
283 382 -383 0
283 -382 -383 0
-283 382 -383 0
-283 -382 383 0
283 382 -384 0
283 -382 384 0
-283 382 384 0
-283 -382 -384 0
278 384 -385 0
278 -384 -385 0
-278 384 -385 0
-278 -384 385 0
278 384 -386 0
278 -384 386 0
-278 384 386 0
-278 -384 -386 0
383 385 -387 0
383 -385 387 0
-383 385 387 0
-383 -385 -387 0
12 24 -388 0
12 -24 -388 0
-12 24 -388 0
-12 -24 388 0
289 388 -389 0
289 -388 -389 0
-289 388 -389 0
-289 -388 389 0
289 388 -390 0
289 -388 390 0
-289 388 390 0
-289 -388 -390 0
284 390 -391 0
284 -390 -391 0
-284 390 -391 0
-284 -390 391 0
284 390 -392 0
284 -390 392 0
-284 390 392 0
-284 -390 -392 0
389 391 -393 0
389 -391 393 0
-389 391 393 0
-389 -391 -393 0
13 24 -394 0
13 -24 -394 0
-13 24 -394 0
-13 -24 394 0
295 394 -395 0
295 -394 -395 0
-295 394 -395 0
-295 -394 395 0
295 394 -396 0
295 -394 396 0
-295 394 396 0
-295 -394 -396 0
290 396 -397 0
290 -396 -397 0
-290 396 -397 0
-290 -396 397 0
290 396 -398 0
290 -396 398 0
-290 396 398 0
-290 -396 -398 0
395 397 -399 0
395 -397 399 0
-395 397 399 0
-395 -397 -399 0
14 24 -400 0
14 -24 -400 0
-14 24 -400 0
-14 -24 400 0
301 400 -401 0
301 -400 -401 0
-301 400 -401 0
-301 -400 401 0
301 400 -402 0
301 -400 402 0
-301 400 402 0
-301 -400 -402 0
296 402 -403 0
296 -402 -403 0
-296 402 -403 0
-296 -402 403 0
296 402 -404 0
296 -402 404 0
-296 402 404 0
-296 -402 -404 0
401 403 -405 0
401 -403 405 0
-401 403 405 0
-401 -403 -405 0
15 24 -406 0
15 -24 -406 0
-15 24 -406 0
-15 -24 406 0
307 406 -407 0
307 -406 -407 0
-307 406 -407 0
-307 -406 407 0
307 406 -408 0
307 -406 408 0
-307 406 408 0
-307 -406 -408 0
302 408 -409 0
302 -408 -409 0
-302 408 -409 0
-302 -408 409 0
302 408 -410 0
302 -408 410 0
-302 408 410 0
-302 -408 -410 0
407 409 -411 0
407 -409 411 0
-407 409 411 0
-407 -409 -411 0
16 24 -412 0
16 -24 -412 0
-16 24 -412 0
-16 -24 412 0
313 412 -413 0
313 -412 -413 0
-313 412 -413 0
-313 -412 413 0
313 412 -414 0
313 -412 414 0
-313 412 414 0
-313 -412 -414 0
308 414 -415 0
308 -414 -415 0
-308 414 -415 0
-308 -414 415 0
308 414 -416 0
308 -414 416 0
-308 414 416 0
-308 -414 -416 0
413 415 -417 0
413 -415 417 0
-413 415 417 0
-413 -415 -417 0
17 24 -418 0
17 -24 -418 0
-17 24 -418 0
-17 -24 418 0
319 418 -419 0
319 -418 -419 0
-319 418 -419 0
-319 -418 419 0
319 418 -420 0
319 -418 420 0
-319 418 420 0
-319 -418 -420 0
314 420 -421 0
314 -420 -421 0
-314 420 -421 0
-314 -420 421 0
314 420 -422 0
314 -420 422 0
-314 420 422 0
-314 -420 -422 0
419 421 -423 0
419 -421 423 0
-419 421 423 0
-419 -421 -423 0
18 24 -424 0
18 -24 -424 0
-18 24 -424 0
-18 -24 424 0
321 424 -425 0
321 -424 -425 0
-321 424 -425 0
-321 -424 425 0
321 424 -426 0
321 -424 426 0
-321 424 426 0
-321 -424 -426 0
320 426 -427 0
320 -426 -427 0
-320 426 -427 0
-320 -426 427 0
320 426 -428 0
320 -426 428 0
-320 426 428 0
-320 -426 -428 0
425 427 -429 0
425 -427 429 0
-425 427 429 0
-425 -427 -429 0
19 24 -430 0
19 -24 -430 0
-19 24 -430 0
-19 -24 430 0
1 25 -431 0
1 -25 -431 0
-1 25 -431 0
-1 -25 431 0
332 431 -432 0
332 -431 -432 0
-332 431 -432 0
-332 -431 432 0
332 431 -433 0
332 -431 433 0
-332 431 433 0
-332 -431 -433 0
327 433 -434 0
327 -433 -434 0
-327 433 -434 0
-327 -433 434 0
327 433 -435 0
327 -433 435 0
-327 433 435 0
-327 -433 -435 0
432 434 -436 0
432 -434 436 0
-432 434 436 0
-432 -434 -436 0
2 25 -437 0
2 -25 -437 0
-2 25 -437 0
-2 -25 437 0
338 437 -438 0
338 -437 -438 0
-338 437 -438 0
-338 -437 438 0
338 437 -439 0
338 -437 439 0
-338 437 439 0
-338 -437 -439 0
333 439 -440 0
333 -439 -440 0
-333 439 -440 0
-333 -439 440 0
333 439 -441 0
333 -439 441 0
-333 439 441 0
-333 -439 -441 0
438 440 -442 0
438 -440 442 0
-438 440 442 0
-438 -440 -442 0
3 25 -443 0
3 -25 -443 0
-3 25 -443 0
-3 -25 443 0
344 443 -444 0
344 -443 -444 0
-344 443 -444 0
-344 -443 444 0
344 443 -445 0
344 -443 445 0
-344 443 445 0
-344 -443 -445 0
339 445 -446 0
339 -445 -446 0
-339 445 -446 0
-339 -445 446 0
339 445 -447 0
339 -445 447 0
-339 445 447 0
-339 -445 -447 0
444 446 -448 0
444 -446 448 0
-444 446 448 0
-444 -446 -448 0
4 25 -449 0
4 -25 -449 0
-4 25 -449 0
-4 -25 449 0
350 449 -450 0
350 -449 -450 0
-350 449 -450 0
-350 -449 450 0
350 449 -451 0
350 -449 451 0
-350 449 451 0
-350 -449 -451 0
345 451 -452 0
345 -451 -452 0
-345 451 -452 0
-345 -451 452 0
345 451 -453 0
345 -451 453 0
-345 451 453 0
-345 -451 -453 0
450 452 -454 0
450 -452 454 0
-450 452 454 0
-450 -452 -454 0
5 25 -455 0
5 -25 -455 0
-5 25 -455 0
-5 -25 455 0
356 455 -456 0
356 -455 -456 0
-356 455 -456 0
-356 -455 456 0
356 455 -457 0
356 -455 457 0
-356 455 457 0
-356 -455 -457 0
351 457 -458 0
351 -457 -458 0
-351 457 -458 0
-351 -457 458 0
351 457 -459 0
351 -457 459 0
-351 457 459 0
-351 -457 -459 0
456 458 -460 0
456 -458 460 0
-456 458 460 0
-456 -458 -460 0
6 25 -461 0
6 -25 -461 0
-6 25 -461 0
-6 -25 461 0
362 461 -462 0
362 -461 -462 0
-362 461 -462 0
-362 -461 462 0
362 461 -463 0
362 -461 463 0
-362 461 463 0
-362 -461 -463 0
357 463 -464 0
357 -463 -464 0
-357 463 -464 0
-357 -463 464 0
357 463 -465 0
357 -463 465 0
-357 463 465 0
-357 -463 -465 0
462 464 -466 0
462 -464 466 0
-462 464 466 0
-462 -464 -466 0
7 25 -467 0
7 -25 -467 0
-7 25 -467 0
-7 -25 467 0
368 467 -468 0
368 -467 -468 0
-368 467 -468 0
-368 -467 468 0
368 467 -469 0
368 -467 469 0
-368 467 469 0
-368 -467 -469 0
363 469 -470 0
363 -469 -470 0
-363 469 -470 0
-363 -469 470 0
363 469 -471 0
363 -469 471 0
-363 469 471 0
-363 -469 -471 0
468 470 -472 0
468 -470 472 0
-468 470 472 0
-468 -470 -472 0
8 25 -473 0
8 -25 -473 0
-8 25 -473 0
-8 -25 473 0
374 473 -474 0
374 -473 -474 0
-374 473 -474 0
-374 -473 474 0
374 473 -475 0
374 -473 475 0
-374 473 475 0
-374 -473 -475 0
369 475 -476 0
369 -475 -476 0
-369 475 -476 0
-369 -475 476 0
369 475 -477 0
369 -475 477 0
-369 475 477 0
-369 -475 -477 0
474 476 -478 0
474 -476 478 0
-474 476 478 0
-474 -476 -478 0
9 25 -479 0
9 -25 -479 0
-9 25 -479 0
-9 -25 479 0
380 479 -480 0
380 -479 -480 0
-380 479 -480 0
-380 -479 480 0
380 479 -481 0
380 -479 481 0
-380 479 481 0
-380 -479 -481 0
375 481 -482 0
375 -481 -482 0
-375 481 -482 0
-375 -481 482 0
375 481 -483 0
375 -481 483 0
-375 481 483 0
-375 -481 -483 0
480 482 -484 0
480 -482 484 0
-480 482 484 0
-480 -482 -484 0
10 25 -485 0
10 -25 -485 0
-10 25 -485 0
-10 -25 485 0
386 485 -486 0
386 -485 -486 0
-386 485 -486 0
-386 -485 486 0
386 485 -487 0
386 -485 487 0
-386 485 487 0
-386 -485 -487 0
381 487 -488 0
381 -487 -488 0
-381 487 -488 0
-381 -487 488 0
381 487 -489 0
381 -487 489 0
-381 487 489 0
-381 -487 -489 0
486 488 -490 0
486 -488 490 0
-486 488 490 0
-486 -488 -490 0
11 25 -491 0
11 -25 -491 0
-11 25 -491 0
-11 -25 491 0
392 491 -492 0
392 -491 -492 0
-392 491 -492 0
-392 -491 492 0
392 491 -493 0
392 -491 493 0
-392 491 493 0
-392 -491 -493 0
387 493 -494 0
387 -493 -494 0
-387 493 -494 0
-387 -493 494 0
387 493 -495 0
387 -493 495 0
-387 493 495 0
-387 -493 -495 0
492 494 -496 0
492 -494 496 0
-492 494 496 0
-492 -494 -496 0
12 25 -497 0
12 -25 -497 0
-12 25 -497 0
-12 -25 497 0
398 497 -498 0
398 -497 -498 0
-398 497 -498 0
-398 -497 498 0
398 497 -499 0
398 -497 499 0
-398 497 499 0
-398 -497 -499 0
393 499 -500 0
393 -499 -500 0
-393 499 -500 0
-393 -499 500 0
393 499 -501 0
393 -499 501 0
-393 499 501 0
-393 -499 -501 0
498 500 -502 0
498 -500 502 0
-498 500 502 0
-498 -500 -502 0
13 25 -503 0
13 -25 -503 0
-13 25 -503 0
-13 -25 503 0
404 503 -504 0
404 -503 -504 0
-404 503 -504 0
-404 -503 504 0
404 503 -505 0
404 -503 505 0
-404 503 505 0
-404 -503 -505 0
399 505 -506 0
399 -505 -506 0
-399 505 -506 0
-399 -505 506 0
399 505 -507 0
399 -505 507 0
-399 505 507 0
-399 -505 -507 0
504 506 -508 0
504 -506 508 0
-504 506 508 0
-504 -506 -508 0
14 25 -509 0
14 -25 -509 0
-14 25 -509 0
-14 -25 509 0
410 509 -510 0
410 -509 -510 0
-410 509 -510 0
-410 -509 510 0
410 509 -511 0
410 -509 511 0
-410 509 511 0
-410 -509 -511 0
405 511 -512 0
405 -511 -512 0
-405 511 -512 0
-405 -511 512 0
405 511 -513 0
405 -511 513 0
-405 511 513 0
-405 -511 -513 0
510 512 -514 0
510 -512 514 0
-510 512 514 0
-510 -512 -514 0
15 25 -515 0
15 -25 -515 0
-15 25 -515 0
-15 -25 515 0
416 515 -516 0
416 -515 -516 0
-416 515 -516 0
-416 -515 516 0
416 515 -517 0
416 -515 517 0
-416 515 517 0
-416 -515 -517 0
411 517 -518 0
411 -517 -518 0
-411 517 -518 0
-411 -517 518 0
411 517 -519 0
411 -517 519 0
-411 517 519 0
-411 -517 -519 0
516 518 -520 0
516 -518 520 0
-516 518 520 0
-516 -518 -520 0
16 25 -521 0
16 -25 -521 0
-16 25 -521 0
-16 -25 521 0
422 521 -522 0
422 -521 -522 0
-422 521 -522 0
-422 -521 522 0
422 521 -523 0
422 -521 523 0
-422 521 523 0
-422 -521 -523 0
417 523 -524 0
417 -523 -524 0
-417 523 -524 0
-417 -523 524 0
417 523 -525 0
417 -523 525 0
-417 523 525 0
-417 -523 -525 0
522 524 -526 0
522 -524 526 0
-522 524 526 0
-522 -524 -526 0
17 25 -527 0
17 -25 -527 0
-17 25 -527 0
-17 -25 527 0
428 527 -528 0
428 -527 -528 0
-428 527 -528 0
-428 -527 528 0
428 527 -529 0
428 -527 529 0
-428 527 529 0
-428 -527 -529 0
423 529 -530 0
423 -529 -530 0
-423 529 -530 0
-423 -529 530 0
423 529 -531 0
423 -529 531 0
-423 529 531 0
-423 -529 -531 0
528 530 -532 0
528 -530 532 0
-528 530 532 0
-528 -530 -532 0
18 25 -533 0
18 -25 -533 0
-18 25 -533 0
-18 -25 533 0
430 533 -534 0
430 -533 -534 0
-430 533 -534 0
-430 -533 534 0
430 533 -535 0
430 -533 535 0
-430 533 535 0
-430 -533 -535 0
429 535 -536 0
429 -535 -536 0
-429 535 -536 0
-429 -535 536 0
429 535 -537 0
429 -535 537 0
-429 535 537 0
-429 -535 -537 0
534 536 -538 0
534 -536 538 0
-534 536 538 0
-534 -536 -538 0
19 25 -539 0
19 -25 -539 0
-19 25 -539 0
-19 -25 539 0
1 26 -540 0
1 -26 -540 0
-1 26 -540 0
-1 -26 540 0
441 540 -541 0
441 -540 -541 0
-441 540 -541 0
-441 -540 541 0
441 540 -542 0
441 -540 542 0
-441 540 542 0
-441 -540 -542 0
436 542 -543 0
436 -542 -543 0
-436 542 -543 0
-436 -542 543 0
436 542 -544 0
436 -542 544 0
-436 542 544 0
-436 -542 -544 0
541 543 -545 0
541 -543 545 0
-541 543 545 0
-541 -543 -545 0
2 26 -546 0
2 -26 -546 0
-2 26 -546 0
-2 -26 546 0
447 546 -547 0
447 -546 -547 0
-447 546 -547 0
-447 -546 547 0
447 546 -548 0
447 -546 548 0
-447 546 548 0
-447 -546 -548 0
442 548 -549 0
442 -548 -549 0
-442 548 -549 0
-442 -548 549 0
442 548 -550 0
442 -548 550 0
-442 548 550 0
-442 -548 -550 0
547 549 -551 0
547 -549 551 0
-547 549 551 0
-547 -549 -551 0
3 26 -552 0
3 -26 -552 0
-3 26 -552 0
-3 -26 552 0
453 552 -553 0
453 -552 -553 0
-453 552 -553 0
-453 -552 553 0
453 552 -554 0
453 -552 554 0
-453 552 554 0
-453 -552 -554 0
448 554 -555 0
448 -554 -555 0
-448 554 -555 0
-448 -554 555 0
448 554 -556 0
448 -554 556 0
-448 554 556 0
-448 -554 -556 0
553 555 -557 0
553 -555 557 0
-553 555 557 0
-553 -555 -557 0
4 26 -558 0
4 -26 -558 0
-4 26 -558 0
-4 -26 558 0
459 558 -559 0
459 -558 -559 0
-459 558 -559 0
-459 -558 559 0
459 558 -560 0
459 -558 560 0
-459 558 560 0
-459 -558 -560 0
454 560 -561 0
454 -560 -561 0
-454 560 -561 0
-454 -560 561 0
454 560 -562 0
454 -560 562 0
-454 560 562 0
-454 -560 -562 0
559 561 -563 0
559 -561 563 0
-559 561 563 0
-559 -561 -563 0
5 26 -564 0
5 -26 -564 0
-5 26 -564 0
-5 -26 564 0
465 564 -565 0
465 -564 -565 0
-465 564 -565 0
-465 -564 565 0
465 564 -566 0
465 -564 566 0
-465 564 566 0
-465 -564 -566 0
460 566 -567 0
460 -566 -567 0
-460 566 -567 0
-460 -566 567 0
460 566 -568 0
460 -566 568 0
-460 566 568 0
-460 -566 -568 0
565 567 -569 0
565 -567 569 0
-565 567 569 0
-565 -567 -569 0
6 26 -570 0
6 -26 -570 0
-6 26 -570 0
-6 -26 570 0
471 570 -571 0
471 -570 -571 0
-471 570 -571 0
-471 -570 571 0
471 570 -572 0
471 -570 572 0
-471 570 572 0
-471 -570 -572 0
466 572 -573 0
466 -572 -573 0
-466 572 -573 0
-466 -572 573 0
466 572 -574 0
466 -572 574 0
-466 572 574 0
-466 -572 -574 0
571 573 -575 0
571 -573 575 0
-571 573 575 0
-571 -573 -575 0
7 26 -576 0
7 -26 -576 0
-7 26 -576 0
-7 -26 576 0
477 576 -577 0
477 -576 -577 0
-477 576 -577 0
-477 -576 577 0
477 576 -578 0
477 -576 578 0
-477 576 578 0
-477 -576 -578 0
472 578 -579 0
472 -578 -579 0
-472 578 -579 0
-472 -578 579 0
472 578 -580 0
472 -578 580 0
-472 578 580 0
-472 -578 -580 0
577 579 -581 0
577 -579 581 0
-577 579 581 0
-577 -579 -581 0
8 26 -582 0
8 -26 -582 0
-8 26 -582 0
-8 -26 582 0
483 582 -583 0
483 -582 -583 0
-483 582 -583 0
-483 -582 583 0
483 582 -584 0
483 -582 584 0
-483 582 584 0
-483 -582 -584 0
478 584 -585 0
478 -584 -585 0
-478 584 -585 0
-478 -584 585 0
478 584 -586 0
478 -584 586 0
-478 584 586 0
-478 -584 -586 0
583 585 -587 0
583 -585 587 0
-583 585 587 0
-583 -585 -587 0
9 26 -588 0
9 -26 -588 0
-9 26 -588 0
-9 -26 588 0
489 588 -589 0
489 -588 -589 0
-489 588 -589 0
-489 -588 589 0
489 588 -590 0
489 -588 590 0
-489 588 590 0
-489 -588 -590 0
484 590 -591 0
484 -590 -591 0
-484 590 -591 0
-484 -590 591 0
484 590 -592 0
484 -590 592 0
-484 590 592 0
-484 -590 -592 0
589 591 -593 0
589 -591 593 0
-589 591 593 0
-589 -591 -593 0
10 26 -594 0
10 -26 -594 0
-10 26 -594 0
-10 -26 594 0
495 594 -595 0
495 -594 -595 0
-495 594 -595 0
-495 -594 595 0
495 594 -596 0
495 -594 596 0
-495 594 596 0
-495 -594 -596 0
490 596 -597 0
490 -596 -597 0
-490 596 -597 0
-490 -596 597 0
490 596 -598 0
490 -596 598 0
-490 596 598 0
-490 -596 -598 0
595 597 -599 0
595 -597 599 0
-595 597 599 0
-595 -597 -599 0
11 26 -600 0
11 -26 -600 0
-11 26 -600 0
-11 -26 600 0
501 600 -601 0
501 -600 -601 0
-501 600 -601 0
-501 -600 601 0
501 600 -602 0
501 -600 602 0
-501 600 602 0
-501 -600 -602 0
496 602 -603 0
496 -602 -603 0
-496 602 -603 0
-496 -602 603 0
496 602 -604 0
496 -602 604 0
-496 602 604 0
-496 -602 -604 0
601 603 -605 0
601 -603 605 0
-601 603 605 0
-601 -603 -605 0
12 26 -606 0
12 -26 -606 0
-12 26 -606 0
-12 -26 606 0
507 606 -607 0
507 -606 -607 0
-507 606 -607 0
-507 -606 607 0
507 606 -608 0
507 -606 608 0
-507 606 608 0
-507 -606 -608 0
502 608 -609 0
502 -608 -609 0
-502 608 -609 0
-502 -608 609 0
502 608 -610 0
502 -608 610 0
-502 608 610 0
-502 -608 -610 0
607 609 -611 0
607 -609 611 0
-607 609 611 0
-607 -609 -611 0
13 26 -612 0
13 -26 -612 0
-13 26 -612 0
-13 -26 612 0
513 612 -613 0
513 -612 -613 0
-513 612 -613 0
-513 -612 613 0
513 612 -614 0
513 -612 614 0
-513 612 614 0
-513 -612 -614 0
508 614 -615 0
508 -614 -615 0
-508 614 -615 0
-508 -614 615 0
508 614 -616 0
508 -614 616 0
-508 614 616 0
-508 -614 -616 0
613 615 -617 0
613 -615 617 0
-613 615 617 0
-613 -615 -617 0
14 26 -618 0
14 -26 -618 0
-14 26 -618 0
-14 -26 618 0
519 618 -619 0
519 -618 -619 0
-519 618 -619 0
-519 -618 619 0
519 618 -620 0
519 -618 620 0
-519 618 620 0
-519 -618 -620 0
514 620 -621 0
514 -620 -621 0
-514 620 -621 0
-514 -620 621 0
514 620 -622 0
514 -620 622 0
-514 620 622 0
-514 -620 -622 0
619 621 -623 0
619 -621 623 0
-619 621 623 0
-619 -621 -623 0
15 26 -624 0
15 -26 -624 0
-15 26 -624 0
-15 -26 624 0
525 624 -625 0
525 -624 -625 0
-525 624 -625 0
-525 -624 625 0
525 624 -626 0
525 -624 626 0
-525 624 626 0
-525 -624 -626 0
520 626 -627 0
520 -626 -627 0
-520 626 -627 0
-520 -626 627 0
520 626 -628 0
520 -626 628 0
-520 626 628 0
-520 -626 -628 0
625 627 -629 0
625 -627 629 0
-625 627 629 0
-625 -627 -629 0
16 26 -630 0
16 -26 -630 0
-16 26 -630 0
-16 -26 630 0
531 630 -631 0
531 -630 -631 0
-531 630 -631 0
-531 -630 631 0
531 630 -632 0
531 -630 632 0
-531 630 632 0
-531 -630 -632 0
526 632 -633 0
526 -632 -633 0
-526 632 -633 0
-526 -632 633 0
526 632 -634 0
526 -632 634 0
-526 632 634 0
-526 -632 -634 0
631 633 -635 0
631 -633 635 0
-631 633 635 0
-631 -633 -635 0
17 26 -636 0
17 -26 -636 0
-17 26 -636 0
-17 -26 636 0
537 636 -637 0
537 -636 -637 0
-537 636 -637 0
-537 -636 637 0
537 636 -638 0
537 -636 638 0
-537 636 638 0
-537 -636 -638 0
532 638 -639 0
532 -638 -639 0
-532 638 -639 0
-532 -638 639 0
532 638 -640 0
532 -638 640 0
-532 638 640 0
-532 -638 -640 0
637 639 -641 0
637 -639 641 0
-637 639 641 0
-637 -639 -641 0
18 26 -642 0
18 -26 -642 0
-18 26 -642 0
-18 -26 642 0
539 642 -643 0
539 -642 -643 0
-539 642 -643 0
-539 -642 643 0
539 642 -644 0
539 -642 644 0
-539 642 644 0
-539 -642 -644 0
538 644 -645 0
538 -644 -645 0
-538 644 -645 0
-538 -644 645 0
538 644 -646 0
538 -644 646 0
-538 644 646 0
-538 -644 -646 0
643 645 -647 0
643 -645 647 0
-643 645 647 0
-643 -645 -647 0
19 26 -648 0
19 -26 -648 0
-19 26 -648 0
-19 -26 648 0
1 27 -649 0
1 -27 -649 0
-1 27 -649 0
-1 -27 649 0
550 649 -650 0
550 -649 -650 0
-550 649 -650 0
-550 -649 650 0
550 649 -651 0
550 -649 651 0
-550 649 651 0
-550 -649 -651 0
545 651 -652 0
545 -651 -652 0
-545 651 -652 0
-545 -651 652 0
545 651 -653 0
545 -651 653 0
-545 651 653 0
-545 -651 -653 0
650 652 -654 0
650 -652 654 0
-650 652 654 0
-650 -652 -654 0
2 27 -655 0
2 -27 -655 0
-2 27 -655 0
-2 -27 655 0
556 655 -656 0
556 -655 -656 0
-556 655 -656 0
-556 -655 656 0
556 655 -657 0
556 -655 657 0
-556 655 657 0
-556 -655 -657 0
551 657 -658 0
551 -657 -658 0
-551 657 -658 0
-551 -657 658 0
551 657 -659 0
551 -657 659 0
-551 657 659 0
-551 -657 -659 0
656 658 -660 0
656 -658 660 0
-656 658 660 0
-656 -658 -660 0
3 27 -661 0
3 -27 -661 0
-3 27 -661 0
-3 -27 661 0
562 661 -662 0
562 -661 -662 0
-562 661 -662 0
-562 -661 662 0
562 661 -663 0
562 -661 663 0
-562 661 663 0
-562 -661 -663 0
557 663 -664 0
557 -663 -664 0
-557 663 -664 0
-557 -663 664 0
557 663 -665 0
557 -663 665 0
-557 663 665 0
-557 -663 -665 0
662 664 -666 0
662 -664 666 0
-662 664 666 0
-662 -664 -666 0
4 27 -667 0
4 -27 -667 0
-4 27 -667 0
-4 -27 667 0
568 667 -668 0
568 -667 -668 0
-568 667 -668 0
-568 -667 668 0
568 667 -669 0
568 -667 669 0
-568 667 669 0
-568 -667 -669 0
563 669 -670 0
563 -669 -670 0
-563 669 -670 0
-563 -669 670 0
563 669 -671 0
563 -669 671 0
-563 669 671 0
-563 -669 -671 0
668 670 -672 0
668 -670 672 0
-668 670 672 0
-668 -670 -672 0
5 27 -673 0
5 -27 -673 0
-5 27 -673 0
-5 -27 673 0
574 673 -674 0
574 -673 -674 0
-574 673 -674 0
-574 -673 674 0
574 673 -675 0
574 -673 675 0
-574 673 675 0
-574 -673 -675 0
569 675 -676 0
569 -675 -676 0
-569 675 -676 0
-569 -675 676 0
569 675 -677 0
569 -675 677 0
-569 675 677 0
-569 -675 -677 0
674 676 -678 0
674 -676 678 0
-674 676 678 0
-674 -676 -678 0
6 27 -679 0
6 -27 -679 0
-6 27 -679 0
-6 -27 679 0
580 679 -680 0
580 -679 -680 0
-580 679 -680 0
-580 -679 680 0
580 679 -681 0
580 -679 681 0
-580 679 681 0
-580 -679 -681 0
575 681 -682 0
575 -681 -682 0
-575 681 -682 0
-575 -681 682 0
575 681 -683 0
575 -681 683 0
-575 681 683 0
-575 -681 -683 0
680 682 -684 0
680 -682 684 0
-680 682 684 0
-680 -682 -684 0
7 27 -685 0
7 -27 -685 0
-7 27 -685 0
-7 -27 685 0
586 685 -686 0
586 -685 -686 0
-586 685 -686 0
-586 -685 686 0
586 685 -687 0
586 -685 687 0
-586 685 687 0
-586 -685 -687 0
581 687 -688 0
581 -687 -688 0
-581 687 -688 0
-581 -687 688 0
581 687 -689 0
581 -687 689 0
-581 687 689 0
-581 -687 -689 0
686 688 -690 0
686 -688 690 0
-686 688 690 0
-686 -688 -690 0
8 27 -691 0
8 -27 -691 0
-8 27 -691 0
-8 -27 691 0
592 691 -692 0
592 -691 -692 0
-592 691 -692 0
-592 -691 692 0
592 691 -693 0
592 -691 693 0
-592 691 693 0
-592 -691 -693 0
587 693 -694 0
587 -693 -694 0
-587 693 -694 0
-587 -693 694 0
587 693 -695 0
587 -693 695 0
-587 693 695 0
-587 -693 -695 0
692 694 -696 0
692 -694 696 0
-692 694 696 0
-692 -694 -696 0
9 27 -697 0
9 -27 -697 0
-9 27 -697 0
-9 -27 697 0
598 697 -698 0
598 -697 -698 0
-598 697 -698 0
-598 -697 698 0
598 697 -699 0
598 -697 699 0
-598 697 699 0
-598 -697 -699 0
593 699 -700 0
593 -699 -700 0
-593 699 -700 0
-593 -699 700 0
593 699 -701 0
593 -699 701 0
-593 699 701 0
-593 -699 -701 0
698 700 -702 0
698 -700 702 0
-698 700 702 0
-698 -700 -702 0
10 27 -703 0
10 -27 -703 0
-10 27 -703 0
-10 -27 703 0
604 703 -704 0
604 -703 -704 0
-604 703 -704 0
-604 -703 704 0
604 703 -705 0
604 -703 705 0
-604 703 705 0
-604 -703 -705 0
599 705 -706 0
599 -705 -706 0
-599 705 -706 0
-599 -705 706 0
599 705 -707 0
599 -705 707 0
-599 705 707 0
-599 -705 -707 0
704 706 -708 0
704 -706 708 0
-704 706 708 0
-704 -706 -708 0
11 27 -709 0
11 -27 -709 0
-11 27 -709 0
-11 -27 709 0
610 709 -710 0
610 -709 -710 0
-610 709 -710 0
-610 -709 710 0
610 709 -711 0
610 -709 711 0
-610 709 711 0
-610 -709 -711 0
605 711 -712 0
605 -711 -712 0
-605 711 -712 0
-605 -711 712 0
605 711 -713 0
605 -711 713 0
-605 711 713 0
-605 -711 -713 0
710 712 -714 0
710 -712 714 0
-710 712 714 0
-710 -712 -714 0
12 27 -715 0
12 -27 -715 0
-12 27 -715 0
-12 -27 715 0
616 715 -716 0
616 -715 -716 0
-616 715 -716 0
-616 -715 716 0
616 715 -717 0
616 -715 717 0
-616 715 717 0
-616 -715 -717 0
611 717 -718 0
611 -717 -718 0
-611 717 -718 0
-611 -717 718 0
611 717 -719 0
611 -717 719 0
-611 717 719 0
-611 -717 -719 0
716 718 -720 0
716 -718 720 0
-716 718 720 0
-716 -718 -720 0
13 27 -721 0
13 -27 -721 0
-13 27 -721 0
-13 -27 721 0
622 721 -722 0
622 -721 -722 0
-622 721 -722 0
-622 -721 722 0
622 721 -723 0
622 -721 723 0
-622 721 723 0
-622 -721 -723 0
617 723 -724 0
617 -723 -724 0
-617 723 -724 0
-617 -723 724 0
617 723 -725 0
617 -723 725 0
-617 723 725 0
-617 -723 -725 0
722 724 -726 0
722 -724 726 0
-722 724 726 0
-722 -724 -726 0
14 27 -727 0
14 -27 -727 0
-14 27 -727 0
-14 -27 727 0
628 727 -728 0
628 -727 -728 0
-628 727 -728 0
-628 -727 728 0
628 727 -729 0
628 -727 729 0
-628 727 729 0
-628 -727 -729 0
623 729 -730 0
623 -729 -730 0
-623 729 -730 0
-623 -729 730 0
623 729 -731 0
623 -729 731 0
-623 729 731 0
-623 -729 -731 0
728 730 -732 0
728 -730 732 0
-728 730 732 0
-728 -730 -732 0
15 27 -733 0
15 -27 -733 0
-15 27 -733 0
-15 -27 733 0
634 733 -734 0
634 -733 -734 0
-634 733 -734 0
-634 -733 734 0
634 733 -735 0
634 -733 735 0
-634 733 735 0
-634 -733 -735 0
629 735 -736 0
629 -735 -736 0
-629 735 -736 0
-629 -735 736 0
629 735 -737 0
629 -735 737 0
-629 735 737 0
-629 -735 -737 0
734 736 -738 0
734 -736 738 0
-734 736 738 0
-734 -736 -738 0
16 27 -739 0
16 -27 -739 0
-16 27 -739 0
-16 -27 739 0
640 739 -740 0
640 -739 -740 0
-640 739 -740 0
-640 -739 740 0
640 739 -741 0
640 -739 741 0
-640 739 741 0
-640 -739 -741 0
635 741 -742 0
635 -741 -742 0
-635 741 -742 0
-635 -741 742 0
635 741 -743 0
635 -741 743 0
-635 741 743 0
-635 -741 -743 0
740 742 -744 0
740 -742 744 0
-740 742 744 0
-740 -742 -744 0
17 27 -745 0
17 -27 -745 0
-17 27 -745 0
-17 -27 745 0
646 745 -746 0
646 -745 -746 0
-646 745 -746 0
-646 -745 746 0
646 745 -747 0
646 -745 747 0
-646 745 747 0
-646 -745 -747 0
641 747 -748 0
641 -747 -748 0
-641 747 -748 0
-641 -747 748 0
641 747 -749 0
641 -747 749 0
-641 747 749 0
-641 -747 -749 0
746 748 -750 0
746 -748 750 0
-746 748 750 0
-746 -748 -750 0
18 27 -751 0
18 -27 -751 0
-18 27 -751 0
-18 -27 751 0
648 751 -752 0
648 -751 -752 0
-648 751 -752 0
-648 -751 752 0
648 751 -753 0
648 -751 753 0
-648 751 753 0
-648 -751 -753 0
647 753 -754 0
647 -753 -754 0
-647 753 -754 0
-647 -753 754 0
647 753 -755 0
647 -753 755 0
-647 753 755 0
-647 -753 -755 0
752 754 -756 0
752 -754 756 0
-752 754 756 0
-752 -754 -756 0
19 27 -757 0
19 -27 -757 0
-19 27 -757 0
-19 -27 757 0
1 28 -758 0
1 -28 -758 0
-1 28 -758 0
-1 -28 758 0
659 758 -759 0
659 -758 -759 0
-659 758 -759 0
-659 -758 759 0
659 758 -760 0
659 -758 760 0
-659 758 760 0
-659 -758 -760 0
654 760 -761 0
654 -760 -761 0
-654 760 -761 0
-654 -760 761 0
654 760 -762 0
654 -760 762 0
-654 760 762 0
-654 -760 -762 0
759 761 -763 0
759 -761 763 0
-759 761 763 0
-759 -761 -763 0
2 28 -764 0
2 -28 -764 0
-2 28 -764 0
-2 -28 764 0
665 764 -765 0
665 -764 -765 0
-665 764 -765 0
-665 -764 765 0
665 764 -766 0
665 -764 766 0
-665 764 766 0
-665 -764 -766 0
660 766 -767 0
660 -766 -767 0
-660 766 -767 0
-660 -766 767 0
660 766 -768 0
660 -766 768 0
-660 766 768 0
-660 -766 -768 0
765 767 -769 0
765 -767 769 0
-765 767 769 0
-765 -767 -769 0
3 28 -770 0
3 -28 -770 0
-3 28 -770 0
-3 -28 770 0
671 770 -771 0
671 -770 -771 0
-671 770 -771 0
-671 -770 771 0
671 770 -772 0
671 -770 772 0
-671 770 772 0
-671 -770 -772 0
666 772 -773 0
666 -772 -773 0
-666 772 -773 0
-666 -772 773 0
666 772 -774 0
666 -772 774 0
-666 772 774 0
-666 -772 -774 0
771 773 -775 0
771 -773 775 0
-771 773 775 0
-771 -773 -775 0
4 28 -776 0
4 -28 -776 0
-4 28 -776 0
-4 -28 776 0
677 776 -777 0
677 -776 -777 0
-677 776 -777 0
-677 -776 777 0
677 776 -778 0
677 -776 778 0
-677 776 778 0
-677 -776 -778 0
672 778 -779 0
672 -778 -779 0
-672 778 -779 0
-672 -778 779 0
672 778 -780 0
672 -778 780 0
-672 778 780 0
-672 -778 -780 0
777 779 -781 0
777 -779 781 0
-777 779 781 0
-777 -779 -781 0
5 28 -782 0
5 -28 -782 0
-5 28 -782 0
-5 -28 782 0
683 782 -783 0
683 -782 -783 0
-683 782 -783 0
-683 -782 783 0
683 782 -784 0
683 -782 784 0
-683 782 784 0
-683 -782 -784 0
678 784 -785 0
678 -784 -785 0
-678 784 -785 0
-678 -784 785 0
678 784 -786 0
678 -784 786 0
-678 784 786 0
-678 -784 -786 0
783 785 -787 0
783 -785 787 0
-783 785 787 0
-783 -785 -787 0
6 28 -788 0
6 -28 -788 0
-6 28 -788 0
-6 -28 788 0
689 788 -789 0
689 -788 -789 0
-689 788 -789 0
-689 -788 789 0
689 788 -790 0
689 -788 790 0
-689 788 790 0
-689 -788 -790 0
684 790 -791 0
684 -790 -791 0
-684 790 -791 0
-684 -790 791 0
684 790 -792 0
684 -790 792 0
-684 790 792 0
-684 -790 -792 0
789 791 -793 0
789 -791 793 0
-789 791 793 0
-789 -791 -793 0
7 28 -794 0
7 -28 -794 0
-7 28 -794 0
-7 -28 794 0
695 794 -795 0
695 -794 -795 0
-695 794 -795 0
-695 -794 795 0
695 794 -796 0
695 -794 796 0
-695 794 796 0
-695 -794 -796 0
690 796 -797 0
690 -796 -797 0
-690 796 -797 0
-690 -796 797 0
690 796 -798 0
690 -796 798 0
-690 796 798 0
-690 -796 -798 0
795 797 -799 0
795 -797 799 0
-795 797 799 0
-795 -797 -799 0
8 28 -800 0
8 -28 -800 0
-8 28 -800 0
-8 -28 800 0
701 800 -801 0
701 -800 -801 0
-701 800 -801 0
-701 -800 801 0
701 800 -802 0
701 -800 802 0
-701 800 802 0
-701 -800 -802 0
696 802 -803 0
696 -802 -803 0
-696 802 -803 0
-696 -802 803 0
696 802 -804 0
696 -802 804 0
-696 802 804 0
-696 -802 -804 0
801 803 -805 0
801 -803 805 0
-801 803 805 0
-801 -803 -805 0
9 28 -806 0
9 -28 -806 0
-9 28 -806 0
-9 -28 806 0
707 806 -807 0
707 -806 -807 0
-707 806 -807 0
-707 -806 807 0
707 806 -808 0
707 -806 808 0
-707 806 808 0
-707 -806 -808 0
702 808 -809 0
702 -808 -809 0
-702 808 -809 0
-702 -808 809 0
702 808 -810 0
702 -808 810 0
-702 808 810 0
-702 -808 -810 0
807 809 -811 0
807 -809 811 0
-807 809 811 0
-807 -809 -811 0
10 28 -812 0
10 -28 -812 0
-10 28 -812 0
-10 -28 812 0
713 812 -813 0
713 -812 -813 0
-713 812 -813 0
-713 -812 813 0
713 812 -814 0
713 -812 814 0
-713 812 814 0
-713 -812 -814 0
708 814 -815 0
708 -814 -815 0
-708 814 -815 0
-708 -814 815 0
708 814 -816 0
708 -814 816 0
-708 814 816 0
-708 -814 -816 0
813 815 -817 0
813 -815 817 0
-813 815 817 0
-813 -815 -817 0
11 28 -818 0
11 -28 -818 0
-11 28 -818 0
-11 -28 818 0
719 818 -819 0
719 -818 -819 0
-719 818 -819 0
-719 -818 819 0
719 818 -820 0
719 -818 820 0
-719 818 820 0
-719 -818 -820 0
714 820 -821 0
714 -820 -821 0
-714 820 -821 0
-714 -820 821 0
714 820 -822 0
714 -820 822 0
-714 820 822 0
-714 -820 -822 0
819 821 -823 0
819 -821 823 0
-819 821 823 0
-819 -821 -823 0
12 28 -824 0
12 -28 -824 0
-12 28 -824 0
-12 -28 824 0
725 824 -825 0
725 -824 -825 0
-725 824 -825 0
-725 -824 825 0
725 824 -826 0
725 -824 826 0
-725 824 826 0
-725 -824 -826 0
720 826 -827 0
720 -826 -827 0
-720 826 -827 0
-720 -826 827 0
720 826 -828 0
720 -826 828 0
-720 826 828 0
-720 -826 -828 0
825 827 -829 0
825 -827 829 0
-825 827 829 0
-825 -827 -829 0
13 28 -830 0
13 -28 -830 0
-13 28 -830 0
-13 -28 830 0
731 830 -831 0
731 -830 -831 0
-731 830 -831 0
-731 -830 831 0
731 830 -832 0
731 -830 832 0
-731 830 832 0
-731 -830 -832 0
726 832 -833 0
726 -832 -833 0
-726 832 -833 0
-726 -832 833 0
726 832 -834 0
726 -832 834 0
-726 832 834 0
-726 -832 -834 0
831 833 -835 0
831 -833 835 0
-831 833 835 0
-831 -833 -835 0
14 28 -836 0
14 -28 -836 0
-14 28 -836 0
-14 -28 836 0
737 836 -837 0
737 -836 -837 0
-737 836 -837 0
-737 -836 837 0
737 836 -838 0
737 -836 838 0
-737 836 838 0
-737 -836 -838 0
732 838 -839 0
732 -838 -839 0
-732 838 -839 0
-732 -838 839 0
732 838 -840 0
732 -838 840 0
-732 838 840 0
-732 -838 -840 0
837 839 -841 0
837 -839 841 0
-837 839 841 0
-837 -839 -841 0
15 28 -842 0
15 -28 -842 0
-15 28 -842 0
-15 -28 842 0
743 842 -843 0
743 -842 -843 0
-743 842 -843 0
-743 -842 843 0
743 842 -844 0
743 -842 844 0
-743 842 844 0
-743 -842 -844 0
738 844 -845 0
738 -844 -845 0
-738 844 -845 0
-738 -844 845 0
738 844 -846 0
738 -844 846 0
-738 844 846 0
-738 -844 -846 0
843 845 -847 0
843 -845 847 0
-843 845 847 0
-843 -845 -847 0
16 28 -848 0
16 -28 -848 0
-16 28 -848 0
-16 -28 848 0
749 848 -849 0
749 -848 -849 0
-749 848 -849 0
-749 -848 849 0
749 848 -850 0
749 -848 850 0
-749 848 850 0
-749 -848 -850 0
744 850 -851 0
744 -850 -851 0
-744 850 -851 0
-744 -850 851 0
744 850 -852 0
744 -850 852 0
-744 850 852 0
-744 -850 -852 0
849 851 -853 0
849 -851 853 0
-849 851 853 0
-849 -851 -853 0
17 28 -854 0
17 -28 -854 0
-17 28 -854 0
-17 -28 854 0
755 854 -855 0
755 -854 -855 0
-755 854 -855 0
-755 -854 855 0
755 854 -856 0
755 -854 856 0
-755 854 856 0
-755 -854 -856 0
750 856 -857 0
750 -856 -857 0
-750 856 -857 0
-750 -856 857 0
750 856 -858 0
750 -856 858 0
-750 856 858 0
-750 -856 -858 0
855 857 -859 0
855 -857 859 0
-855 857 859 0
-855 -857 -859 0
18 28 -860 0
18 -28 -860 0
-18 28 -860 0
-18 -28 860 0
757 860 -861 0
757 -860 -861 0
-757 860 -861 0
-757 -860 861 0
757 860 -862 0
757 -860 862 0
-757 860 862 0
-757 -860 -862 0
756 862 -863 0
756 -862 -863 0
-756 862 -863 0
-756 -862 863 0
756 862 -864 0
756 -862 864 0
-756 862 864 0
-756 -862 -864 0
861 863 -865 0
861 -863 865 0
-861 863 865 0
-861 -863 -865 0
19 28 -866 0
19 -28 -866 0
-19 28 -866 0
-19 -28 866 0
1 29 -867 0
1 -29 -867 0
-1 29 -867 0
-1 -29 867 0
768 867 -868 0
768 -867 -868 0
-768 867 -868 0
-768 -867 868 0
768 867 -869 0
768 -867 869 0
-768 867 869 0
-768 -867 -869 0
763 869 -870 0
763 -869 -870 0
-763 869 -870 0
-763 -869 870 0
763 869 -871 0
763 -869 871 0
-763 869 871 0
-763 -869 -871 0
868 870 -872 0
868 -870 872 0
-868 870 872 0
-868 -870 -872 0
2 29 -873 0
2 -29 -873 0
-2 29 -873 0
-2 -29 873 0
774 873 -874 0
774 -873 -874 0
-774 873 -874 0
-774 -873 874 0
774 873 -875 0
774 -873 875 0
-774 873 875 0
-774 -873 -875 0
769 875 -876 0
769 -875 -876 0
-769 875 -876 0
-769 -875 876 0
769 875 -877 0
769 -875 877 0
-769 875 877 0
-769 -875 -877 0
874 876 -878 0
874 -876 878 0
-874 876 878 0
-874 -876 -878 0
3 29 -879 0
3 -29 -879 0
-3 29 -879 0
-3 -29 879 0
780 879 -880 0
780 -879 -880 0
-780 879 -880 0
-780 -879 880 0
780 879 -881 0
780 -879 881 0
-780 879 881 0
-780 -879 -881 0
775 881 -882 0
775 -881 -882 0
-775 881 -882 0
-775 -881 882 0
775 881 -883 0
775 -881 883 0
-775 881 883 0
-775 -881 -883 0
880 882 -884 0
880 -882 884 0
-880 882 884 0
-880 -882 -884 0
4 29 -885 0
4 -29 -885 0
-4 29 -885 0
-4 -29 885 0
786 885 -886 0
786 -885 -886 0
-786 885 -886 0
-786 -885 886 0
786 885 -887 0
786 -885 887 0
-786 885 887 0
-786 -885 -887 0
781 887 -888 0
781 -887 -888 0
-781 887 -888 0
-781 -887 888 0
781 887 -889 0
781 -887 889 0
-781 887 889 0
-781 -887 -889 0
886 888 -890 0
886 -888 890 0
-886 888 890 0
-886 -888 -890 0
5 29 -891 0
5 -29 -891 0
-5 29 -891 0
-5 -29 891 0
792 891 -892 0
792 -891 -892 0
-792 891 -892 0
-792 -891 892 0
792 891 -893 0
792 -891 893 0
-792 891 893 0
-792 -891 -893 0
787 893 -894 0
787 -893 -894 0
-787 893 -894 0
-787 -893 894 0
787 893 -895 0
787 -893 895 0
-787 893 895 0
-787 -893 -895 0
892 894 -896 0
892 -894 896 0
-892 894 896 0
-892 -894 -896 0
6 29 -897 0
6 -29 -897 0
-6 29 -897 0
-6 -29 897 0
798 897 -898 0
798 -897 -898 0
-798 897 -898 0
-798 -897 898 0
798 897 -899 0
798 -897 899 0
-798 897 899 0
-798 -897 -899 0
793 899 -900 0
793 -899 -900 0
-793 899 -900 0
-793 -899 900 0
793 899 -901 0
793 -899 901 0
-793 899 901 0
-793 -899 -901 0
898 900 -902 0
898 -900 902 0
-898 900 902 0
-898 -900 -902 0
7 29 -903 0
7 -29 -903 0
-7 29 -903 0
-7 -29 903 0
804 903 -904 0
804 -903 -904 0
-804 903 -904 0
-804 -903 904 0
804 903 -905 0
804 -903 905 0
-804 903 905 0
-804 -903 -905 0
799 905 -906 0
799 -905 -906 0
-799 905 -906 0
-799 -905 906 0
799 905 -907 0
799 -905 907 0
-799 905 907 0
-799 -905 -907 0
904 906 -908 0
904 -906 908 0
-904 906 908 0
-904 -906 -908 0
8 29 -909 0
8 -29 -909 0
-8 29 -909 0
-8 -29 909 0
810 909 -910 0
810 -909 -910 0
-810 909 -910 0
-810 -909 910 0
810 909 -911 0
810 -909 911 0
-810 909 911 0
-810 -909 -911 0
805 911 -912 0
805 -911 -912 0
-805 911 -912 0
-805 -911 912 0
805 911 -913 0
805 -911 913 0
-805 911 913 0
-805 -911 -913 0
910 912 -914 0
910 -912 914 0
-910 912 914 0
-910 -912 -914 0
9 29 -915 0
9 -29 -915 0
-9 29 -915 0
-9 -29 915 0
816 915 -916 0
816 -915 -916 0
-816 915 -916 0
-816 -915 916 0
816 915 -917 0
816 -915 917 0
-816 915 917 0
-816 -915 -917 0
811 917 -918 0
811 -917 -918 0
-811 917 -918 0
-811 -917 918 0
811 917 -919 0
811 -917 919 0
-811 917 919 0
-811 -917 -919 0
916 918 -920 0
916 -918 920 0
-916 918 920 0
-916 -918 -920 0
10 29 -921 0
10 -29 -921 0
-10 29 -921 0
-10 -29 921 0
822 921 -922 0
822 -921 -922 0
-822 921 -922 0
-822 -921 922 0
822 921 -923 0
822 -921 923 0
-822 921 923 0
-822 -921 -923 0
817 923 -924 0
817 -923 -924 0
-817 923 -924 0
-817 -923 924 0
817 923 -925 0
817 -923 925 0
-817 923 925 0
-817 -923 -925 0
922 924 -926 0
922 -924 926 0
-922 924 926 0
-922 -924 -926 0
11 29 -927 0
11 -29 -927 0
-11 29 -927 0
-11 -29 927 0
828 927 -928 0
828 -927 -928 0
-828 927 -928 0
-828 -927 928 0
828 927 -929 0
828 -927 929 0
-828 927 929 0
-828 -927 -929 0
823 929 -930 0
823 -929 -930 0
-823 929 -930 0
-823 -929 930 0
823 929 -931 0
823 -929 931 0
-823 929 931 0
-823 -929 -931 0
928 930 -932 0
928 -930 932 0
-928 930 932 0
-928 -930 -932 0
12 29 -933 0
12 -29 -933 0
-12 29 -933 0
-12 -29 933 0
834 933 -934 0
834 -933 -934 0
-834 933 -934 0
-834 -933 934 0
834 933 -935 0
834 -933 935 0
-834 933 935 0
-834 -933 -935 0
829 935 -936 0
829 -935 -936 0
-829 935 -936 0
-829 -935 936 0
829 935 -937 0
829 -935 937 0
-829 935 937 0
-829 -935 -937 0
934 936 -938 0
934 -936 938 0
-934 936 938 0
-934 -936 -938 0
13 29 -939 0
13 -29 -939 0
-13 29 -939 0
-13 -29 939 0
840 939 -940 0
840 -939 -940 0
-840 939 -940 0
-840 -939 940 0
840 939 -941 0
840 -939 941 0
-840 939 941 0
-840 -939 -941 0
835 941 -942 0
835 -941 -942 0
-835 941 -942 0
-835 -941 942 0
835 941 -943 0
835 -941 943 0
-835 941 943 0
-835 -941 -943 0
940 942 -944 0
940 -942 944 0
-940 942 944 0
-940 -942 -944 0
14 29 -945 0
14 -29 -945 0
-14 29 -945 0
-14 -29 945 0
846 945 -946 0
846 -945 -946 0
-846 945 -946 0
-846 -945 946 0
846 945 -947 0
846 -945 947 0
-846 945 947 0
-846 -945 -947 0
841 947 -948 0
841 -947 -948 0
-841 947 -948 0
-841 -947 948 0
841 947 -949 0
841 -947 949 0
-841 947 949 0
-841 -947 -949 0
946 948 -950 0
946 -948 950 0
-946 948 950 0
-946 -948 -950 0
15 29 -951 0
15 -29 -951 0
-15 29 -951 0
-15 -29 951 0
852 951 -952 0
852 -951 -952 0
-852 951 -952 0
-852 -951 952 0
852 951 -953 0
852 -951 953 0
-852 951 953 0
-852 -951 -953 0
847 953 -954 0
847 -953 -954 0
-847 953 -954 0
-847 -953 954 0
847 953 -955 0
847 -953 955 0
-847 953 955 0
-847 -953 -955 0
952 954 -956 0
952 -954 956 0
-952 954 956 0
-952 -954 -956 0
16 29 -957 0
16 -29 -957 0
-16 29 -957 0
-16 -29 957 0
858 957 -958 0
858 -957 -958 0
-858 957 -958 0
-858 -957 958 0
858 957 -959 0
858 -957 959 0
-858 957 959 0
-858 -957 -959 0
853 959 -960 0
853 -959 -960 0
-853 959 -960 0
-853 -959 960 0
853 959 -961 0
853 -959 961 0
-853 959 961 0
-853 -959 -961 0
958 960 -962 0
958 -960 962 0
-958 960 962 0
-958 -960 -962 0
17 29 -963 0
17 -29 -963 0
-17 29 -963 0
-17 -29 963 0
864 963 -964 0
864 -963 -964 0
-864 963 -964 0
-864 -963 964 0
864 963 -965 0
864 -963 965 0
-864 963 965 0
-864 -963 -965 0
859 965 -966 0
859 -965 -966 0
-859 965 -966 0
-859 -965 966 0
859 965 -967 0
859 -965 967 0
-859 965 967 0
-859 -965 -967 0
964 966 -968 0
964 -966 968 0
-964 966 968 0
-964 -966 -968 0
18 29 -969 0
18 -29 -969 0
-18 29 -969 0
-18 -29 969 0
866 969 -970 0
866 -969 -970 0
-866 969 -970 0
-866 -969 970 0
866 969 -971 0
866 -969 971 0
-866 969 971 0
-866 -969 -971 0
865 971 -972 0
865 -971 -972 0
-865 971 -972 0
-865 -971 972 0
865 971 -973 0
865 -971 973 0
-865 971 973 0
-865 -971 -973 0
970 972 -974 0
970 -972 974 0
-970 972 974 0
-970 -972 -974 0
19 29 -975 0
19 -29 -975 0
-19 29 -975 0
-19 -29 975 0
872 877 -976 0
872 -877 -976 0
-872 877 -976 0
-872 -877 976 0
872 877 -977 0
872 -877 977 0
-872 877 977 0
-872 -877 -977 0
878 883 -978 0
878 -883 -978 0
-878 883 -978 0
-878 -883 978 0
878 883 -979 0
878 -883 979 0
-878 883 979 0
-878 -883 -979 0
976 979 -980 0
976 -979 -980 0
-976 979 -980 0
-976 -979 980 0
976 979 -981 0
976 -979 981 0
-976 979 981 0
-976 -979 -981 0
978 980 -982 0
978 -980 982 0
-978 980 982 0
-978 -980 -982 0
884 889 -983 0
884 -889 -983 0
-884 889 -983 0
-884 -889 983 0
884 889 -984 0
884 -889 984 0
-884 889 984 0
-884 -889 -984 0
982 984 -985 0
982 -984 -985 0
-982 984 -985 0
-982 -984 985 0
982 984 -986 0
982 -984 986 0
-982 984 986 0
-982 -984 -986 0
983 985 -987 0
983 -985 987 0
-983 985 987 0
-983 -985 -987 0
890 895 -988 0
890 -895 -988 0
-890 895 -988 0
-890 -895 988 0
890 895 -989 0
890 -895 989 0
-890 895 989 0
-890 -895 -989 0
987 989 -990 0
987 -989 -990 0
-987 989 -990 0
-987 -989 990 0
987 989 -991 0
987 -989 991 0
-987 989 991 0
-987 -989 -991 0
988 990 -992 0
988 -990 992 0
-988 990 992 0
-988 -990 -992 0
896 901 -993 0
896 -901 -993 0
-896 901 -993 0
-896 -901 993 0
896 901 -994 0
896 -901 994 0
-896 901 994 0
-896 -901 -994 0
992 994 -995 0
992 -994 -995 0
-992 994 -995 0
-992 -994 995 0
992 994 -996 0
992 -994 996 0
-992 994 996 0
-992 -994 -996 0
993 995 -997 0
993 -995 997 0
-993 995 997 0
-993 -995 -997 0
902 907 -998 0
902 -907 -998 0
-902 907 -998 0
-902 -907 998 0
902 907 -999 0
902 -907 999 0
-902 907 999 0
-902 -907 -999 0
997 999 -1000 0
997 -999 -1000 0
-997 999 -1000 0
-997 -999 1000 0
997 999 -1001 0
997 -999 1001 0
-997 999 1001 0
-997 -999 -1001 0
998 1000 -1002 0
998 -1000 1002 0
-998 1000 1002 0
-998 -1000 -1002 0
908 913 -1003 0
908 -913 -1003 0
-908 913 -1003 0
-908 -913 1003 0
908 913 -1004 0
908 -913 1004 0
-908 913 1004 0
-908 -913 -1004 0
1002 1004 -1005 0
1002 -1004 -1005 0
-1002 1004 -1005 0
-1002 -1004 1005 0
1002 1004 -1006 0
1002 -1004 1006 0
-1002 1004 1006 0
-1002 -1004 -1006 0
1003 1005 -1007 0
1003 -1005 1007 0
-1003 1005 1007 0
-1003 -1005 -1007 0
914 919 -1008 0
914 -919 -1008 0
-914 919 -1008 0
-914 -919 1008 0
914 919 -1009 0
914 -919 1009 0
-914 919 1009 0
-914 -919 -1009 0
1007 1009 -1010 0
1007 -1009 -1010 0
-1007 1009 -1010 0
-1007 -1009 1010 0
1007 1009 -1011 0
1007 -1009 1011 0
-1007 1009 1011 0
-1007 -1009 -1011 0
1008 1010 -1012 0
1008 -1010 1012 0
-1008 1010 1012 0
-1008 -1010 -1012 0
920 925 -1013 0
920 -925 -1013 0
-920 925 -1013 0
-920 -925 1013 0
920 925 -1014 0
920 -925 1014 0
-920 925 1014 0
-920 -925 -1014 0
1012 1014 -1015 0
1012 -1014 -1015 0
-1012 1014 -1015 0
-1012 -1014 1015 0
1012 1014 -1016 0
1012 -1014 1016 0
-1012 1014 1016 0
-1012 -1014 -1016 0
1013 1015 -1017 0
1013 -1015 1017 0
-1013 1015 1017 0
-1013 -1015 -1017 0
926 931 -1018 0
926 -931 -1018 0
-926 931 -1018 0
-926 -931 1018 0
926 931 -1019 0
926 -931 1019 0
-926 931 1019 0
-926 -931 -1019 0
1017 1019 -1020 0
1017 -1019 -1020 0
-1017 1019 -1020 0
-1017 -1019 1020 0
1017 1019 -1021 0
1017 -1019 1021 0
-1017 1019 1021 0
-1017 -1019 -1021 0
1018 1020 -1022 0
1018 -1020 1022 0
-1018 1020 1022 0
-1018 -1020 -1022 0
932 937 -1023 0
932 -937 -1023 0
-932 937 -1023 0
-932 -937 1023 0
932 937 -1024 0
932 -937 1024 0
-932 937 1024 0
-932 -937 -1024 0
1022 1024 -1025 0
1022 -1024 -1025 0
-1022 1024 -1025 0
-1022 -1024 1025 0
1022 1024 -1026 0
1022 -1024 1026 0
-1022 1024 1026 0
-1022 -1024 -1026 0
1023 1025 -1027 0
1023 -1025 1027 0
-1023 1025 1027 0
-1023 -1025 -1027 0
938 943 -1028 0
938 -943 -1028 0
-938 943 -1028 0
-938 -943 1028 0
938 943 -1029 0
938 -943 1029 0
-938 943 1029 0
-938 -943 -1029 0
1027 1029 -1030 0
1027 -1029 -1030 0
-1027 1029 -1030 0
-1027 -1029 1030 0
1027 1029 -1031 0
1027 -1029 1031 0
-1027 1029 1031 0
-1027 -1029 -1031 0
1028 1030 -1032 0
1028 -1030 1032 0
-1028 1030 1032 0
-1028 -1030 -1032 0
944 949 -1033 0
944 -949 -1033 0
-944 949 -1033 0
-944 -949 1033 0
944 949 -1034 0
944 -949 1034 0
-944 949 1034 0
-944 -949 -1034 0
1032 1034 -1035 0
1032 -1034 -1035 0
-1032 1034 -1035 0
-1032 -1034 1035 0
1032 1034 -1036 0
1032 -1034 1036 0
-1032 1034 1036 0
-1032 -1034 -1036 0
1033 1035 -1037 0
1033 -1035 1037 0
-1033 1035 1037 0
-1033 -1035 -1037 0
950 955 -1038 0
950 -955 -1038 0
-950 955 -1038 0
-950 -955 1038 0
950 955 -1039 0
950 -955 1039 0
-950 955 1039 0
-950 -955 -1039 0
1037 1039 -1040 0
1037 -1039 -1040 0
-1037 1039 -1040 0
-1037 -1039 1040 0
1037 1039 -1041 0
1037 -1039 1041 0
-1037 1039 1041 0
-1037 -1039 -1041 0
1038 1040 -1042 0
1038 -1040 1042 0
-1038 1040 1042 0
-1038 -1040 -1042 0
956 961 -1043 0
956 -961 -1043 0
-956 961 -1043 0
-956 -961 1043 0
956 961 -1044 0
956 -961 1044 0
-956 961 1044 0
-956 -961 -1044 0
1042 1044 -1045 0
1042 -1044 -1045 0
-1042 1044 -1045 0
-1042 -1044 1045 0
1042 1044 -1046 0
1042 -1044 1046 0
-1042 1044 1046 0
-1042 -1044 -1046 0
1043 1045 -1047 0
1043 -1045 1047 0
-1043 1045 1047 0
-1043 -1045 -1047 0
962 967 -1048 0
962 -967 -1048 0
-962 967 -1048 0
-962 -967 1048 0
962 967 -1049 0
962 -967 1049 0
-962 967 1049 0
-962 -967 -1049 0
1047 1049 -1050 0
1047 -1049 -1050 0
-1047 1049 -1050 0
-1047 -1049 1050 0
1047 1049 -1051 0
1047 -1049 1051 0
-1047 1049 1051 0
-1047 -1049 -1051 0
1048 1050 -1052 0
1048 -1050 1052 0
-1048 1050 1052 0
-1048 -1050 -1052 0
968 973 -1053 0
968 -973 -1053 0
-968 973 -1053 0
-968 -973 1053 0
968 973 -1054 0
968 -973 1054 0
-968 973 1054 0
-968 -973 -1054 0
1052 1054 -1055 0
1052 -1054 -1055 0
-1052 1054 -1055 0
-1052 -1054 1055 0
1052 1054 -1056 0
1052 -1054 1056 0
-1052 1054 1056 0
-1052 -1054 -1056 0
1053 1055 -1057 0
1053 -1055 1057 0
-1053 1055 1057 0
-1053 -1055 -1057 0
974 975 -1058 0
974 -975 -1058 0
-974 975 -1058 0
-974 -975 1058 0
974 975 -1059 0
974 -975 1059 0
-974 975 1059 0
-974 -975 -1059 0
1057 1059 -1060 0
1057 -1059 -1060 0
-1057 1059 -1060 0
-1057 -1059 1060 0
1057 1059 -1061 0
1057 -1059 1061 0
-1057 1059 1061 0
-1057 -1059 -1061 0
1058 1060 -1062 0
1058 -1060 1062 0
-1058 1060 1062 0
-1058 -1060 -1062 0
30 0
-51 0
-108 0
217 0
326 0
-435 0
544 0
653 0
-762 0
871 0
-977 0
981 0
-986 0
991 0
-996 0
-1001 0
1006 0
1011 0
1016 0
1021 0
-1026 0
-1031 0
-1036 0
-1041 0
-1046 0
-1051 0
-1056 0
-1061 0
-1062 0