c Problem generated from carry-save[n-bit] multiplication circuit
c by Paul Purdom and Amr Sabry
c
c Circuit for product = 9998200081 [True,False,False,True,False,True,False,False,True,True,True,True,True,True,False,False,False,False,False,True,True,False,True,True,False,True,False,False,False,True,False,False,False,True]
c Variables for output [msb,...,lsb]: [3232,3231,3226,3221,3216,3211,3206,3201,3196,3191,3186,3181,3176,3171,3166,3161,3156,3151,3146,3141,3136,3131,3126,3121,3116,3111,3106,3101,3096,3091,3086,3081,3077,2887,2694,2501,2308,2115,1922,1729,1536,1343,1150,957,764,571,378,185,86,51]
c Variables for first input [msb,...,lsb]: [33,32,31,30,29,28,27,26,25,24,23,22,21,20,19,18,17,16,15,14,13,12,11,10,9,8,7,6,5,4,3,2,1]
c Variables for second input [msb,...,lsb]: [50,49,48,47,46,45,44,43,42,41,40,39,38,37,36,35,34]
c
c
p cnf 3232 12778
1 34 -51 0
1 -34 -51 0
-1 34 -51 0
-1 -34 51 0
2 34 -52 0
2 -34 -52 0
-2 34 -52 0
-2 -34 52 0
3 34 -53 0
3 -34 -53 0
-3 34 -53 0
-3 -34 53 0
4 34 -54 0
4 -34 -54 0
-4 34 -54 0
-4 -34 54 0
5 34 -55 0
5 -34 -55 0
-5 34 -55 0
-5 -34 55 0
6 34 -56 0
6 -34 -56 0
-6 34 -56 0
-6 -34 56 0
7 34 -57 0
7 -34 -57 0
-7 34 -57 0
-7 -34 57 0
8 34 -58 0
8 -34 -58 0
-8 34 -58 0
-8 -34 58 0
9 34 -59 0
9 -34 -59 0
-9 34 -59 0
-9 -34 59 0
10 34 -60 0
10 -34 -60 0
-10 34 -60 0
-10 -34 60 0
11 34 -61 0
11 -34 -61 0
-11 34 -61 0
-11 -34 61 0
12 34 -62 0
12 -34 -62 0
-12 34 -62 0
-12 -34 62 0
13 34 -63 0
13 -34 -63 0
-13 34 -63 0
-13 -34 63 0
14 34 -64 0
14 -34 -64 0
-14 34 -64 0
-14 -34 64 0
15 34 -65 0
15 -34 -65 0
-15 34 -65 0
-15 -34 65 0
16 34 -66 0
16 -34 -66 0
-16 34 -66 0
-16 -34 66 0
17 34 -67 0
17 -34 -67 0
-17 34 -67 0
-17 -34 67 0
18 34 -68 0
18 -34 -68 0
-18 34 -68 0
-18 -34 68 0
19 34 -69 0
19 -34 -69 0
-19 34 -69 0
-19 -34 69 0
20 34 -70 0
20 -34 -70 0
-20 34 -70 0
-20 -34 70 0
21 34 -71 0
21 -34 -71 0
-21 34 -71 0
-21 -34 71 0
22 34 -72 0
22 -34 -72 0
-22 34 -72 0
-22 -34 72 0
23 34 -73 0
23 -34 -73 0
-23 34 -73 0
-23 -34 73 0
24 34 -74 0
24 -34 -74 0
-24 34 -74 0
-24 -34 74 0
25 34 -75 0
25 -34 -75 0
-25 34 -75 0
-25 -34 75 0
26 34 -76 0
26 -34 -76 0
-26 34 -76 0
-26 -34 76 0
27 34 -77 0
27 -34 -77 0
-27 34 -77 0
-27 -34 77 0
28 34 -78 0
28 -34 -78 0
-28 34 -78 0
-28 -34 78 0
29 34 -79 0
29 -34 -79 0
-29 34 -79 0
-29 -34 79 0
30 34 -80 0
30 -34 -80 0
-30 34 -80 0
-30 -34 80 0
31 34 -81 0
31 -34 -81 0
-31 34 -81 0
-31 -34 81 0
32 34 -82 0
32 -34 -82 0
-32 34 -82 0
-32 -34 82 0
33 34 -83 0
33 -34 -83 0
-33 34 -83 0
-33 -34 83 0
1 35 -84 0
1 -35 -84 0
-1 35 -84 0
-1 -35 84 0
52 84 -85 0
52 -84 -85 0
-52 84 -85 0
-52 -84 85 0
52 84 -86 0
52 -84 86 0
-52 84 86 0
-52 -84 -86 0
2 35 -87 0
2 -35 -87 0
-2 35 -87 0
-2 -35 87 0
53 87 -88 0
53 -87 -88 0
-53 87 -88 0
-53 -87 88 0
53 87 -89 0
53 -87 89 0
-53 87 89 0
-53 -87 -89 0
3 35 -90 0
3 -35 -90 0
-3 35 -90 0
-3 -35 90 0
54 90 -91 0
54 -90 -91 0
-54 90 -91 0
-54 -90 91 0
54 90 -92 0
54 -90 92 0
-54 90 92 0
-54 -90 -92 0
4 35 -93 0
4 -35 -93 0
-4 35 -93 0
-4 -35 93 0
55 93 -94 0
55 -93 -94 0
-55 93 -94 0
-55 -93 94 0
55 93 -95 0
55 -93 95 0
-55 93 95 0
-55 -93 -95 0
5 35 -96 0
5 -35 -96 0
-5 35 -96 0
-5 -35 96 0
56 96 -97 0
56 -96 -97 0
-56 96 -97 0
-56 -96 97 0
56 96 -98 0
56 -96 98 0
-56 96 98 0
-56 -96 -98 0
6 35 -99 0
6 -35 -99 0
-6 35 -99 0
-6 -35 99 0
57 99 -100 0
57 -99 -100 0
-57 99 -100 0
-57 -99 100 0
57 99 -101 0
57 -99 101 0
-57 99 101 0
-57 -99 -101 0
7 35 -102 0
7 -35 -102 0
-7 35 -102 0
-7 -35 102 0
58 102 -103 0
58 -102 -103 0
-58 102 -103 0
-58 -102 103 0
58 102 -104 0
58 -102 104 0
-58 102 104 0
-58 -102 -104 0
8 35 -105 0
8 -35 -105 0
-8 35 -105 0
-8 -35 105 0
59 105 -106 0
59 -105 -106 0
-59 105 -106 0
-59 -105 106 0
59 105 -107 0
59 -105 107 0
-59 105 107 0
-59 -105 -107 0
9 35 -108 0
9 -35 -108 0
-9 35 -108 0
-9 -35 108 0
60 108 -109 0
60 -108 -109 0
-60 108 -109 0
-60 -108 109 0
60 108 -110 0
60 -108 110 0
-60 108 110 0
-60 -108 -110 0
10 35 -111 0
10 -35 -111 0
-10 35 -111 0
-10 -35 111 0
61 111 -112 0
61 -111 -112 0
-61 111 -112 0
-61 -111 112 0
61 111 -113 0
61 -111 113 0
-61 111 113 0
-61 -111 -113 0
11 35 -114 0
11 -35 -114 0
-11 35 -114 0
-11 -35 114 0
62 114 -115 0
62 -114 -115 0
-62 114 -115 0
-62 -114 115 0
62 114 -116 0
62 -114 116 0
-62 114 116 0
-62 -114 -116 0
12 35 -117 0
12 -35 -117 0
-12 35 -117 0
-12 -35 117 0
63 117 -118 0
63 -117 -118 0
-63 117 -118 0
-63 -117 118 0
63 117 -119 0
63 -117 119 0
-63 117 119 0
-63 -117 -119 0
13 35 -120 0
13 -35 -120 0
-13 35 -120 0
-13 -35 120 0
64 120 -121 0
64 -120 -121 0
-64 120 -121 0
-64 -120 121 0
64 120 -122 0
64 -120 122 0
-64 120 122 0
-64 -120 -122 0
14 35 -123 0
14 -35 -123 0
-14 35 -123 0
-14 -35 123 0
65 123 -124 0
65 -123 -124 0
-65 123 -124 0
-65 -123 124 0
65 123 -125 0
65 -123 125 0
-65 123 125 0
-65 -123 -125 0
15 35 -126 0
15 -35 -126 0
-15 35 -126 0
-15 -35 126 0
66 126 -127 0
66 -126 -127 0
-66 126 -127 0
-66 -126 127 0
66 126 -128 0
66 -126 128 0
-66 126 128 0
-66 -126 -128 0
16 35 -129 0
16 -35 -129 0
-16 35 -129 0
-16 -35 129 0
67 129 -130 0
67 -129 -130 0
-67 129 -130 0
-67 -129 130 0
67 129 -131 0
67 -129 131 0
-67 129 131 0
-67 -129 -131 0
17 35 -132 0
17 -35 -132 0
-17 35 -132 0
-17 -35 132 0
68 132 -133 0
68 -132 -133 0
-68 132 -133 0
-68 -132 133 0
68 132 -134 0
68 -132 134 0
-68 132 134 0
-68 -132 -134 0
18 35 -135 0
18 -35 -135 0
-18 35 -135 0
-18 -35 135 0
69 135 -136 0
69 -135 -136 0
-69 135 -136 0
-69 -135 136 0
69 135 -137 0
69 -135 137 0
-69 135 137 0
-69 -135 -137 0
19 35 -138 0
19 -35 -138 0
-19 35 -138 0
-19 -35 138 0
70 138 -139 0
70 -138 -139 0
-70 138 -139 0
-70 -138 139 0
70 138 -140 0
70 -138 140 0
-70 138 140 0
-70 -138 -140 0
20 35 -141 0
20 -35 -141 0
-20 35 -141 0
-20 -35 141 0
71 141 -142 0
71 -141 -142 0
-71 141 -142 0
-71 -141 142 0
71 141 -143 0
71 -141 143 0
-71 141 143 0
-71 -141 -143 0
21 35 -144 0
21 -35 -144 0
-21 35 -144 0
-21 -35 144 0
72 144 -145 0
72 -144 -145 0
-72 144 -145 0
-72 -144 145 0
72 144 -146 0
72 -144 146 0
-72 144 146 0
-72 -144 -146 0
22 35 -147 0
22 -35 -147 0
-22 35 -147 0
-22 -35 147 0
73 147 -148 0
73 -147 -148 0
-73 147 -148 0
-73 -147 148 0
73 147 -149 0
73 -147 149 0
-73 147 149 0
-73 -147 -149 0
23 35 -150 0
23 -35 -150 0
-23 35 -150 0
-23 -35 150 0
74 150 -151 0
74 -150 -151 0
-74 150 -151 0
-74 -150 151 0
74 150 -152 0
74 -150 152 0
-74 150 152 0
-74 -150 -152 0
24 35 -153 0
24 -35 -153 0
-24 35 -153 0
-24 -35 153 0
75 153 -154 0
75 -153 -154 0
-75 153 -154 0
-75 -153 154 0
75 153 -155 0
75 -153 155 0
-75 153 155 0
-75 -153 -155 0
25 35 -156 0
25 -35 -156 0
-25 35 -156 0
-25 -35 156 0
76 156 -157 0
76 -156 -157 0
-76 156 -157 0
-76 -156 157 0
76 156 -158 0
76 -156 158 0
-76 156 158 0
-76 -156 -158 0
26 35 -159 0
26 -35 -159 0
-26 35 -159 0
-26 -35 159 0
77 159 -160 0
77 -159 -160 0
-77 159 -160 0
-77 -159 160 0
77 159 -161 0
77 -159 161 0
-77 159 161 0
-77 -159 -161 0
27 35 -162 0
27 -35 -162 0
-27 35 -162 0
-27 -35 162 0
78 162 -163 0
78 -162 -163 0
-78 162 -163 0
-78 -162 163 0
78 162 -164 0
78 -162 164 0
-78 162 164 0
-78 -162 -164 0
28 35 -165 0
28 -35 -165 0
-28 35 -165 0
-28 -35 165 0
79 165 -166 0
79 -165 -166 0
-79 165 -166 0
-79 -165 166 0
79 165 -167 0
79 -165 167 0
-79 165 167 0
-79 -165 -167 0
29 35 -168 0
29 -35 -168 0
-29 35 -168 0
-29 -35 168 0
80 168 -169 0
80 -168 -169 0
-80 168 -169 0
-80 -168 169 0
80 168 -170 0
80 -168 170 0
-80 168 170 0
-80 -168 -170 0
30 35 -171 0
30 -35 -171 0
-30 35 -171 0
-30 -35 171 0
81 171 -172 0
81 -171 -172 0
-81 171 -172 0
-81 -171 172 0
81 171 -173 0
81 -171 173 0
-81 171 173 0
-81 -171 -173 0
31 35 -174 0
31 -35 -174 0
-31 35 -174 0
-31 -35 174 0
82 174 -175 0
82 -174 -175 0
-82 174 -175 0
-82 -174 175 0
82 174 -176 0
82 -174 176 0
-82 174 176 0
-82 -174 -176 0
32 35 -177 0
32 -35 -177 0
-32 35 -177 0
-32 -35 177 0
83 177 -178 0
83 -177 -178 0
-83 177 -178 0
-83 -177 178 0
83 177 -179 0
83 -177 179 0
-83 177 179 0
-83 -177 -179 0
33 35 -180 0
33 -35 -180 0
-33 35 -180 0
-33 -35 180 0
1 36 -181 0
1 -36 -181 0
-1 36 -181 0
-1 -36 181 0
89 181 -182 0
89 -181 -182 0
-89 181 -182 0
-89 -181 182 0
89 181 -183 0
89 -181 183 0
-89 181 183 0
-89 -181 -183 0
85 183 -184 0
85 -183 -184 0
-85 183 -184 0
-85 -183 184 0
85 183 -185 0
85 -183 185 0
-85 183 185 0
-85 -183 -185 0
182 184 -186 0
182 -184 186 0
-182 184 186 0
-182 -184 -186 0
2 36 -187 0
2 -36 -187 0
-2 36 -187 0
-2 -36 187 0
92 187 -188 0
92 -187 -188 0
-92 187 -188 0
-92 -187 188 0
92 187 -189 0
92 -187 189 0
-92 187 189 0
-92 -187 -189 0
88 189 -190 0
88 -189 -190 0
-88 189 -190 0
-88 -189 190 0
88 189 -191 0
88 -189 191 0
-88 189 191 0
-88 -189 -191 0
188 190 -192 0
188 -190 192 0
-188 190 192 0
-188 -190 -192 0
3 36 -193 0
3 -36 -193 0
-3 36 -193 0
-3 -36 193 0
95 193 -194 0
95 -193 -194 0
-95 193 -194 0
-95 -193 194 0
95 193 -195 0
95 -193 195 0
-95 193 195 0
-95 -193 -195 0
91 195 -196 0
91 -195 -196 0
-91 195 -196 0
-91 -195 196 0
91 195 -197 0
91 -195 197 0
-91 195 197 0
-91 -195 -197 0
194 196 -198 0
194 -196 198 0
-194 196 198 0
-194 -196 -198 0
4 36 -199 0
4 -36 -199 0
-4 36 -199 0
-4 -36 199 0
98 199 -200 0
98 -199 -200 0
-98 199 -200 0
-98 -199 200 0
98 199 -201 0
98 -199 201 0
-98 199 201 0
-98 -199 -201 0
94 201 -202 0
94 -201 -202 0
-94 201 -202 0
-94 -201 202 0
94 201 -203 0
94 -201 203 0
-94 201 203 0
-94 -201 -203 0
200 202 -204 0
200 -202 204 0
-200 202 204 0
-200 -202 -204 0
5 36 -205 0
5 -36 -205 0
-5 36 -205 0
-5 -36 205 0
101 205 -206 0
101 -205 -206 0
-101 205 -206 0
-101 -205 206 0
101 205 -207 0
101 -205 207 0
-101 205 207 0
-101 -205 -207 0
97 207 -208 0
97 -207 -208 0
-97 207 -208 0
-97 -207 208 0
97 207 -209 0
97 -207 209 0
-97 207 209 0
-97 -207 -209 0
206 208 -210 0
206 -208 210 0
-206 208 210 0
-206 -208 -210 0
6 36 -211 0
6 -36 -211 0
-6 36 -211 0
-6 -36 211 0
104 211 -212 0
104 -211 -212 0
-104 211 -212 0
-104 -211 212 0
104 211 -213 0
104 -211 213 0
-104 211 213 0
-104 -211 -213 0
100 213 -214 0
100 -213 -214 0
-100 213 -214 0
-100 -213 214 0
100 213 -215 0
100 -213 215 0
-100 213 215 0
-100 -213 -215 0
212 214 -216 0
212 -214 216 0
-212 214 216 0
-212 -214 -216 0
7 36 -217 0
7 -36 -217 0
-7 36 -217 0
-7 -36 217 0
107 217 -218 0
107 -217 -218 0
-107 217 -218 0
-107 -217 218 0
107 217 -219 0
107 -217 219 0
-107 217 219 0
-107 -217 -219 0
103 219 -220 0
103 -219 -220 0
-103 219 -220 0
-103 -219 220 0
103 219 -221 0
103 -219 221 0
-103 219 221 0
-103 -219 -221 0
218 220 -222 0
218 -220 222 0
-218 220 222 0
-218 -220 -222 0
8 36 -223 0
8 -36 -223 0
-8 36 -223 0
-8 -36 223 0
110 223 -224 0
110 -223 -224 0
-110 223 -224 0
-110 -223 224 0
110 223 -225 0
110 -223 225 0
-110 223 225 0
-110 -223 -225 0
106 225 -226 0
106 -225 -226 0
-106 225 -226 0
-106 -225 226 0
106 225 -227 0
106 -225 227 0
-106 225 227 0
-106 -225 -227 0
224 226 -228 0
224 -226 228 0
-224 226 228 0
-224 -226 -228 0
9 36 -229 0
9 -36 -229 0
-9 36 -229 0
-9 -36 229 0
113 229 -230 0
113 -229 -230 0
-113 229 -230 0
-113 -229 230 0
113 229 -231 0
113 -229 231 0
-113 229 231 0
-113 -229 -231 0
109 231 -232 0
109 -231 -232 0
-109 231 -232 0
-109 -231 232 0
109 231 -233 0
109 -231 233 0
-109 231 233 0
-109 -231 -233 0
230 232 -234 0
230 -232 234 0
-230 232 234 0
-230 -232 -234 0
10 36 -235 0
10 -36 -235 0
-10 36 -235 0
-10 -36 235 0
116 235 -236 0
116 -235 -236 0
-116 235 -236 0
-116 -235 236 0
116 235 -237 0
116 -235 237 0
-116 235 237 0
-116 -235 -237 0
112 237 -238 0
112 -237 -238 0
-112 237 -238 0
-112 -237 238 0
112 237 -239 0
112 -237 239 0
-112 237 239 0
-112 -237 -239 0
236 238 -240 0
236 -238 240 0
-236 238 240 0
-236 -238 -240 0
11 36 -241 0
11 -36 -241 0
-11 36 -241 0
-11 -36 241 0
119 241 -242 0
119 -241 -242 0
-119 241 -242 0
-119 -241 242 0
119 241 -243 0
119 -241 243 0
-119 241 243 0
-119 -241 -243 0
115 243 -244 0
115 -243 -244 0
-115 243 -244 0
-115 -243 244 0
115 243 -245 0
115 -243 245 0
-115 243 245 0
-115 -243 -245 0
242 244 -246 0
242 -244 246 0
-242 244 246 0
-242 -244 -246 0
12 36 -247 0
12 -36 -247 0
-12 36 -247 0
-12 -36 247 0
122 247 -248 0
122 -247 -248 0
-122 247 -248 0
-122 -247 248 0
122 247 -249 0
122 -247 249 0
-122 247 249 0
-122 -247 -249 0
118 249 -250 0
118 -249 -250 0
-118 249 -250 0
-118 -249 250 0
118 249 -251 0
118 -249 251 0
-118 249 251 0
-118 -249 -251 0
248 250 -252 0
248 -250 252 0
-248 250 252 0
-248 -250 -252 0
13 36 -253 0
13 -36 -253 0
-13 36 -253 0
-13 -36 253 0
125 253 -254 0
125 -253 -254 0
-125 253 -254 0
-125 -253 254 0
125 253 -255 0
125 -253 255 0
-125 253 255 0
-125 -253 -255 0
121 255 -256 0
121 -255 -256 0
-121 255 -256 0
-121 -255 256 0
121 255 -257 0
121 -255 257 0
-121 255 257 0
-121 -255 -257 0
254 256 -258 0
254 -256 258 0
-254 256 258 0
-254 -256 -258 0
14 36 -259 0
14 -36 -259 0
-14 36 -259 0
-14 -36 259 0
128 259 -260 0
128 -259 -260 0
-128 259 -260 0
-128 -259 260 0
128 259 -261 0
128 -259 261 0
-128 259 261 0
-128 -259 -261 0
124 261 -262 0
124 -261 -262 0
-124 261 -262 0
-124 -261 262 0
124 261 -263 0
124 -261 263 0
-124 261 263 0
-124 -261 -263 0
260 262 -264 0
260 -262 264 0
-260 262 264 0
-260 -262 -264 0
15 36 -265 0
15 -36 -265 0
-15 36 -265 0
-15 -36 265 0
131 265 -266 0
131 -265 -266 0
-131 265 -266 0
-131 -265 266 0
131 265 -267 0
131 -265 267 0
-131 265 267 0
-131 -265 -267 0
127 267 -268 0
127 -267 -268 0
-127 267 -268 0
-127 -267 268 0
127 267 -269 0
127 -267 269 0
-127 267 269 0
-127 -267 -269 0
266 268 -270 0
266 -268 270 0
-266 268 270 0
-266 -268 -270 0
16 36 -271 0
16 -36 -271 0
-16 36 -271 0
-16 -36 271 0
134 271 -272 0
134 -271 -272 0
-134 271 -272 0
-134 -271 272 0
134 271 -273 0
134 -271 273 0
-134 271 273 0
-134 -271 -273 0
130 273 -274 0
130 -273 -274 0
-130 273 -274 0
-130 -273 274 0
130 273 -275 0
130 -273 275 0
-130 273 275 0
-130 -273 -275 0
272 274 -276 0
272 -274 276 0
-272 274 276 0
-272 -274 -276 0
17 36 -277 0
17 -36 -277 0
-17 36 -277 0
-17 -36 277 0
137 277 -278 0
137 -277 -278 0
-137 277 -278 0
-137 -277 278 0
137 277 -279 0
137 -277 279 0
-137 277 279 0
-137 -277 -279 0
133 279 -280 0
133 -279 -280 0
-133 279 -280 0
-133 -279 280 0
133 279 -281 0
133 -279 281 0
-133 279 281 0
-133 -279 -281 0
278 280 -282 0
278 -280 282 0
-278 280 282 0
-278 -280 -282 0
18 36 -283 0
18 -36 -283 0
-18 36 -283 0
-18 -36 283 0
140 283 -284 0
140 -283 -284 0
-140 283 -284 0
-140 -283 284 0
140 283 -285 0
140 -283 285 0
-140 283 285 0
-140 -283 -285 0
136 285 -286 0
136 -285 -286 0
-136 285 -286 0
-136 -285 286 0
136 285 -287 0
136 -285 287 0
-136 285 287 0
-136 -285 -287 0
284 286 -288 0
284 -286 288 0
-284 286 288 0
-284 -286 -288 0
19 36 -289 0
19 -36 -289 0
-19 36 -289 0
-19 -36 289 0
143 289 -290 0
143 -289 -290 0
-143 289 -290 0
-143 -289 290 0
143 289 -291 0
143 -289 291 0
-143 289 291 0
-143 -289 -291 0
139 291 -292 0
139 -291 -292 0
-139 291 -292 0
-139 -291 292 0
139 291 -293 0
139 -291 293 0
-139 291 293 0
-139 -291 -293 0
290 292 -294 0
290 -292 294 0
-290 292 294 0
-290 -292 -294 0
20 36 -295 0
20 -36 -295 0
-20 36 -295 0
-20 -36 295 0
146 295 -296 0
146 -295 -296 0
-146 295 -296 0
-146 -295 296 0
146 295 -297 0
146 -295 297 0
-146 295 297 0
-146 -295 -297 0
142 297 -298 0
142 -297 -298 0
-142 297 -298 0
-142 -297 298 0
142 297 -299 0
142 -297 299 0
-142 297 299 0
-142 -297 -299 0
296 298 -300 0
296 -298 300 0
-296 298 300 0
-296 -298 -300 0
21 36 -301 0
21 -36 -301 0
-21 36 -301 0
-21 -36 301 0
149 301 -302 0
149 -301 -302 0
-149 301 -302 0
-149 -301 302 0
149 301 -303 0
149 -301 303 0
-149 301 303 0
-149 -301 -303 0
145 303 -304 0
145 -303 -304 0
-145 303 -304 0
-145 -303 304 0
145 303 -305 0
145 -303 305 0
-145 303 305 0
-145 -303 -305 0
302 304 -306 0
302 -304 306 0
-302 304 306 0
-302 -304 -306 0
22 36 -307 0
22 -36 -307 0
-22 36 -307 0
-22 -36 307 0
152 307 -308 0
152 -307 -308 0
-152 307 -308 0
-152 -307 308 0
152 307 -309 0
152 -307 309 0
-152 307 309 0
-152 -307 -309 0
148 309 -310 0
148 -309 -310 0
-148 309 -310 0
-148 -309 310 0
148 309 -311 0
148 -309 311 0
-148 309 311 0
-148 -309 -311 0
308 310 -312 0
308 -310 312 0
-308 310 312 0
-308 -310 -312 0
23 36 -313 0
23 -36 -313 0
-23 36 -313 0
-23 -36 313 0
155 313 -314 0
155 -313 -314 0
-155 313 -314 0
-155 -313 314 0
155 313 -315 0
155 -313 315 0
-155 313 315 0
-155 -313 -315 0
151 315 -316 0
151 -315 -316 0
-151 315 -316 0
-151 -315 316 0
151 315 -317 0
151 -315 317 0
-151 315 317 0
-151 -315 -317 0
314 316 -318 0
314 -316 318 0
-314 316 318 0
-314 -316 -318 0
24 36 -319 0
24 -36 -319 0
-24 36 -319 0
-24 -36 319 0
158 319 -320 0
158 -319 -320 0
-158 319 -320 0
-158 -319 320 0
158 319 -321 0
158 -319 321 0
-158 319 321 0
-158 -319 -321 0
154 321 -322 0
154 -321 -322 0
-154 321 -322 0
-154 -321 322 0
154 321 -323 0
154 -321 323 0
-154 321 323 0
-154 -321 -323 0
320 322 -324 0
320 -322 324 0
-320 322 324 0
-320 -322 -324 0
25 36 -325 0
25 -36 -325 0
-25 36 -325 0
-25 -36 325 0
161 325 -326 0
161 -325 -326 0
-161 325 -326 0
-161 -325 326 0
161 325 -327 0
161 -325 327 0
-161 325 327 0
-161 -325 -327 0
157 327 -328 0
157 -327 -328 0
-157 327 -328 0
-157 -327 328 0
157 327 -329 0
157 -327 329 0
-157 327 329 0
-157 -327 -329 0
326 328 -330 0
326 -328 330 0
-326 328 330 0
-326 -328 -330 0
26 36 -331 0
26 -36 -331 0
-26 36 -331 0
-26 -36 331 0
164 331 -332 0
164 -331 -332 0
-164 331 -332 0
-164 -331 332 0
164 331 -333 0
164 -331 333 0
-164 331 333 0
-164 -331 -333 0
160 333 -334 0
160 -333 -334 0
-160 333 -334 0
-160 -333 334 0
160 333 -335 0
160 -333 335 0
-160 333 335 0
-160 -333 -335 0
332 334 -336 0
332 -334 336 0
-332 334 336 0
-332 -334 -336 0
27 36 -337 0
27 -36 -337 0
-27 36 -337 0
-27 -36 337 0
167 337 -338 0
167 -337 -338 0
-167 337 -338 0
-167 -337 338 0
167 337 -339 0
167 -337 339 0
-167 337 339 0
-167 -337 -339 0
163 339 -340 0
163 -339 -340 0
-163 339 -340 0
-163 -339 340 0
163 339 -341 0
163 -339 341 0
-163 339 341 0
-163 -339 -341 0
338 340 -342 0
338 -340 342 0
-338 340 342 0
-338 -340 -342 0
28 36 -343 0
28 -36 -343 0
-28 36 -343 0
-28 -36 343 0
170 343 -344 0
170 -343 -344 0
-170 343 -344 0
-170 -343 344 0
170 343 -345 0
170 -343 345 0
-170 343 345 0
-170 -343 -345 0
166 345 -346 0
166 -345 -346 0
-166 345 -346 0
-166 -345 346 0
166 345 -347 0
166 -345 347 0
-166 345 347 0
-166 -345 -347 0
344 346 -348 0
344 -346 348 0
-344 346 348 0
-344 -346 -348 0
29 36 -349 0
29 -36 -349 0
-29 36 -349 0
-29 -36 349 0
173 349 -350 0
173 -349 -350 0
-173 349 -350 0
-173 -349 350 0
173 349 -351 0
173 -349 351 0
-173 349 351 0
-173 -349 -351 0
169 351 -352 0
169 -351 -352 0
-169 351 -352 0
-169 -351 352 0
169 351 -353 0
169 -351 353 0
-169 351 353 0
-169 -351 -353 0
350 352 -354 0
350 -352 354 0
-350 352 354 0
-350 -352 -354 0
30 36 -355 0
30 -36 -355 0
-30 36 -355 0
-30 -36 355 0
176 355 -356 0
176 -355 -356 0
-176 355 -356 0
-176 -355 356 0
176 355 -357 0
176 -355 357 0
-176 355 357 0
-176 -355 -357 0
172 357 -358 0
172 -357 -358 0
-172 357 -358 0
-172 -357 358 0
172 357 -359 0
172 -357 359 0
-172 357 359 0
-172 -357 -359 0
356 358 -360 0
356 -358 360 0
-356 358 360 0
-356 -358 -360 0
31 36 -361 0
31 -36 -361 0
-31 36 -361 0
-31 -36 361 0
179 361 -362 0
179 -361 -362 0
-179 361 -362 0
-179 -361 362 0
179 361 -363 0
179 -361 363 0
-179 361 363 0
-179 -361 -363 0
175 363 -364 0
175 -363 -364 0
-175 363 -364 0
-175 -363 364 0
175 363 -365 0
175 -363 365 0
-175 363 365 0
-175 -363 -365 0
362 364 -366 0
362 -364 366 0
-362 364 366 0
-362 -364 -366 0
32 36 -367 0
32 -36 -367 0
-32 36 -367 0
-32 -36 367 0
180 367 -368 0
180 -367 -368 0
-180 367 -368 0
-180 -367 368 0
180 367 -369 0
180 -367 369 0
-180 367 369 0
-180 -367 -369 0
178 369 -370 0
178 -369 -370 0
-178 369 -370 0
-178 -369 370 0
178 369 -371 0
178 -369 371 0
-178 369 371 0
-178 -369 -371 0
368 370 -372 0
368 -370 372 0
-368 370 372 0
-368 -370 -372 0
33 36 -373 0
33 -36 -373 0
-33 36 -373 0
-33 -36 373 0
1 37 -374 0
1 -37 -374 0
-1 37 -374 0
-1 -37 374 0
191 374 -375 0
191 -374 -375 0
-191 374 -375 0
-191 -374 375 0
191 374 -376 0
191 -374 376 0
-191 374 376 0
-191 -374 -376 0
186 376 -377 0
186 -376 -377 0
-186 376 -377 0
-186 -376 377 0
186 376 -378 0
186 -376 378 0
-186 376 378 0
-186 -376 -378 0
375 377 -379 0
375 -377 379 0
-375 377 379 0
-375 -377 -379 0
2 37 -380 0
2 -37 -380 0
-2 37 -380 0
-2 -37 380 0
197 380 -381 0
197 -380 -381 0
-197 380 -381 0
-197 -380 381 0
197 380 -382 0
197 -380 382 0
-197 380 382 0
-197 -380 -382 0
192 382 -383 0
192 -382 -383 0
-192 382 -383 0
-192 -382 383 0
192 382 -384 0
192 -382 384 0
-192 382 384 0
-192 -382 -384 0
381 383 -385 0
381 -383 385 0
-381 383 385 0
-381 -383 -385 0
3 37 -386 0
3 -37 -386 0
-3 37 -386 0
-3 -37 386 0
203 386 -387 0
203 -386 -387 0
-203 386 -387 0
-203 -386 387 0
203 386 -388 0
203 -386 388 0
-203 386 388 0
-203 -386 -388 0
198 388 -389 0
198 -388 -389 0
-198 388 -389 0
-198 -388 389 0
198 388 -390 0
198 -388 390 0
-198 388 390 0
-198 -388 -390 0
387 389 -391 0
387 -389 391 0
-387 389 391 0
-387 -389 -391 0
4 37 -392 0
4 -37 -392 0
-4 37 -392 0
-4 -37 392 0
209 392 -393 0
209 -392 -393 0
-209 392 -393 0
-209 -392 393 0
209 392 -394 0
209 -392 394 0
-209 392 394 0
-209 -392 -394 0
204 394 -395 0
204 -394 -395 0
-204 394 -395 0
-204 -394 395 0
204 394 -396 0
204 -394 396 0
-204 394 396 0
-204 -394 -396 0
393 395 -397 0
393 -395 397 0
-393 395 397 0
-393 -395 -397 0
5 37 -398 0
5 -37 -398 0
-5 37 -398 0
-5 -37 398 0
215 398 -399 0
215 -398 -399 0
-215 398 -399 0
-215 -398 399 0
215 398 -400 0
215 -398 400 0
-215 398 400 0
-215 -398 -400 0
210 400 -401 0
210 -400 -401 0
-210 400 -401 0
-210 -400 401 0
210 400 -402 0
210 -400 402 0
-210 400 402 0
-210 -400 -402 0
399 401 -403 0
399 -401 403 0
-399 401 403 0
-399 -401 -403 0
6 37 -404 0
6 -37 -404 0
-6 37 -404 0
-6 -37 404 0
221 404 -405 0
221 -404 -405 0
-221 404 -405 0
-221 -404 405 0
221 404 -406 0
221 -404 406 0
-221 404 406 0
-221 -404 -406 0
216 406 -407 0
216 -406 -407 0
-216 406 -407 0
-216 -406 407 0
216 406 -408 0
216 -406 408 0
-216 406 408 0
-216 -406 -408 0
405 407 -409 0
405 -407 409 0
-405 407 409 0
-405 -407 -409 0
7 37 -410 0
7 -37 -410 0
-7 37 -410 0
-7 -37 410 0
227 410 -411 0
227 -410 -411 0
-227 410 -411 0
-227 -410 411 0
227 410 -412 0
227 -410 412 0
-227 410 412 0
-227 -410 -412 0
222 412 -413 0
222 -412 -413 0
-222 412 -413 0
-222 -412 413 0
222 412 -414 0
222 -412 414 0
-222 412 414 0
-222 -412 -414 0
411 413 -415 0
411 -413 415 0
-411 413 415 0
-411 -413 -415 0
8 37 -416 0
8 -37 -416 0
-8 37 -416 0
-8 -37 416 0
233 416 -417 0
233 -416 -417 0
-233 416 -417 0
-233 -416 417 0
233 416 -418 0
233 -416 418 0
-233 416 418 0
-233 -416 -418 0
228 418 -419 0
228 -418 -419 0
-228 418 -419 0
-228 -418 419 0
228 418 -420 0
228 -418 420 0
-228 418 420 0
-228 -418 -420 0
417 419 -421 0
417 -419 421 0
-417 419 421 0
-417 -419 -421 0
9 37 -422 0
9 -37 -422 0
-9 37 -422 0
-9 -37 422 0
239 422 -423 0
239 -422 -423 0
-239 422 -423 0
-239 -422 423 0
239 422 -424 0
239 -422 424 0
-239 422 424 0
-239 -422 -424 0
234 424 -425 0
234 -424 -425 0
-234 424 -425 0
-234 -424 425 0
234 424 -426 0
234 -424 426 0
-234 424 426 0
-234 -424 -426 0
423 425 -427 0
423 -425 427 0
-423 425 427 0
-423 -425 -427 0
10 37 -428 0
10 -37 -428 0
-10 37 -428 0
-10 -37 428 0
245 428 -429 0
245 -428 -429 0
-245 428 -429 0
-245 -428 429 0
245 428 -430 0
245 -428 430 0
-245 428 430 0
-245 -428 -430 0
240 430 -431 0
240 -430 -431 0
-240 430 -431 0
-240 -430 431 0
240 430 -432 0
240 -430 432 0
-240 430 432 0
-240 -430 -432 0
429 431 -433 0
429 -431 433 0
-429 431 433 0
-429 -431 -433 0
11 37 -434 0
11 -37 -434 0
-11 37 -434 0
-11 -37 434 0
251 434 -435 0
251 -434 -435 0
-251 434 -435 0
-251 -434 435 0
251 434 -436 0
251 -434 436 0
-251 434 436 0
-251 -434 -436 0
246 436 -437 0
246 -436 -437 0
-246 436 -437 0
-246 -436 437 0
246 436 -438 0
246 -436 438 0
-246 436 438 0
-246 -436 -438 0
435 437 -439 0
435 -437 439 0
-435 437 439 0
-435 -437 -439 0
12 37 -440 0
12 -37 -440 0
-12 37 -440 0
-12 -37 440 0
257 440 -441 0
257 -440 -441 0
-257 440 -441 0
-257 -440 441 0
257 440 -442 0
257 -440 442 0
-257 440 442 0
-257 -440 -442 0
252 442 -443 0
252 -442 -443 0
-252 442 -443 0
-252 -442 443 0
252 442 -444 0
252 -442 444 0
-252 442 444 0
-252 -442 -444 0
441 443 -445 0
441 -443 445 0
-441 443 445 0
-441 -443 -445 0
13 37 -446 0
13 -37 -446 0
-13 37 -446 0
-13 -37 446 0
263 446 -447 0
263 -446 -447 0
-263 446 -447 0
-263 -446 447 0
263 446 -448 0
263 -446 448 0
-263 446 448 0
-263 -446 -448 0
258 448 -449 0
258 -448 -449 0
-258 448 -449 0
-258 -448 449 0
258 448 -450 0
258 -448 450 0
-258 448 450 0
-258 -448 -450 0
447 449 -451 0
447 -449 451 0
-447 449 451 0
-447 -449 -451 0
14 37 -452 0
14 -37 -452 0
-14 37 -452 0
-14 -37 452 0
269 452 -453 0
269 -452 -453 0
-269 452 -453 0
-269 -452 453 0
269 452 -454 0
269 -452 454 0
-269 452 454 0
-269 -452 -454 0
264 454 -455 0
264 -454 -455 0
-264 454 -455 0
-264 -454 455 0
264 454 -456 0
264 -454 456 0
-264 454 456 0
-264 -454 -456 0
453 455 -457 0
453 -455 457 0
-453 455 457 0
-453 -455 -457 0
15 37 -458 0
15 -37 -458 0
-15 37 -458 0
-15 -37 458 0
275 458 -459 0
275 -458 -459 0
-275 458 -459 0
-275 -458 459 0
275 458 -460 0
275 -458 460 0
-275 458 460 0
-275 -458 -460 0
270 460 -461 0
270 -460 -461 0
-270 460 -461 0
-270 -460 461 0
270 460 -462 0
270 -460 462 0
-270 460 462 0
-270 -460 -462 0
459 461 -463 0
459 -461 463 0
-459 461 463 0
-459 -461 -463 0
16 37 -464 0
16 -37 -464 0
-16 37 -464 0
-16 -37 464 0
281 464 -465 0
281 -464 -465 0
-281 464 -465 0
-281 -464 465 0
281 464 -466 0
281 -464 466 0
-281 464 466 0
-281 -464 -466 0
276 466 -467 0
276 -466 -467 0
-276 466 -467 0
-276 -466 467 0
276 466 -468 0
276 -466 468 0
-276 466 468 0
-276 -466 -468 0
465 467 -469 0
465 -467 469 0
-465 467 469 0
-465 -467 -469 0
17 37 -470 0
17 -37 -470 0
-17 37 -470 0
-17 -37 470 0
287 470 -471 0
287 -470 -471 0
-287 470 -471 0
-287 -470 471 0
287 470 -472 0
287 -470 472 0
-287 470 472 0
-287 -470 -472 0
282 472 -473 0
282 -472 -473 0
-282 472 -473 0
-282 -472 473 0
282 472 -474 0
282 -472 474 0
-282 472 474 0
-282 -472 -474 0
471 473 -475 0
471 -473 475 0
-471 473 475 0
-471 -473 -475 0
18 37 -476 0
18 -37 -476 0
-18 37 -476 0
-18 -37 476 0
293 476 -477 0
293 -476 -477 0
-293 476 -477 0
-293 -476 477 0
293 476 -478 0
293 -476 478 0
-293 476 478 0
-293 -476 -478 0
288 478 -479 0
288 -478 -479 0
-288 478 -479 0
-288 -478 479 0
288 478 -480 0
288 -478 480 0
-288 478 480 0
-288 -478 -480 0
477 479 -481 0
477 -479 481 0
-477 479 481 0
-477 -479 -481 0
19 37 -482 0
19 -37 -482 0
-19 37 -482 0
-19 -37 482 0
299 482 -483 0
299 -482 -483 0
-299 482 -483 0
-299 -482 483 0
299 482 -484 0
299 -482 484 0
-299 482 484 0
-299 -482 -484 0
294 484 -485 0
294 -484 -485 0
-294 484 -485 0
-294 -484 485 0
294 484 -486 0
294 -484 486 0
-294 484 486 0
-294 -484 -486 0
483 485 -487 0
483 -485 487 0
-483 485 487 0
-483 -485 -487 0
20 37 -488 0
20 -37 -488 0
-20 37 -488 0
-20 -37 488 0
305 488 -489 0
305 -488 -489 0
-305 488 -489 0
-305 -488 489 0
305 488 -490 0
305 -488 490 0
-305 488 490 0
-305 -488 -490 0
300 490 -491 0
300 -490 -491 0
-300 490 -491 0
-300 -490 491 0
300 490 -492 0
300 -490 492 0
-300 490 492 0
-300 -490 -492 0
489 491 -493 0
489 -491 493 0
-489 491 493 0
-489 -491 -493 0
21 37 -494 0
21 -37 -494 0
-21 37 -494 0
-21 -37 494 0
311 494 -495 0
311 -494 -495 0
-311 494 -495 0
-311 -494 495 0
311 494 -496 0
311 -494 496 0
-311 494 496 0
-311 -494 -496 0
306 496 -497 0
306 -496 -497 0
-306 496 -497 0
-306 -496 497 0
306 496 -498 0
306 -496 498 0
-306 496 498 0
-306 -496 -498 0
495 497 -499 0
495 -497 499 0
-495 497 499 0
-495 -497 -499 0
22 37 -500 0
22 -37 -500 0
-22 37 -500 0
-22 -37 500 0
317 500 -501 0
317 -500 -501 0
-317 500 -501 0
-317 -500 501 0
317 500 -502 0
317 -500 502 0
-317 500 502 0
-317 -500 -502 0
312 502 -503 0
312 -502 -503 0
-312 502 -503 0
-312 -502 503 0
312 502 -504 0
312 -502 504 0
-312 502 504 0
-312 -502 -504 0
501 503 -505 0
501 -503 505 0
-501 503 505 0
-501 -503 -505 0
23 37 -506 0
23 -37 -506 0
-23 37 -506 0
-23 -37 506 0
323 506 -507 0
323 -506 -507 0
-323 506 -507 0
-323 -506 507 0
323 506 -508 0
323 -506 508 0
-323 506 508 0
-323 -506 -508 0
318 508 -509 0
318 -508 -509 0
-318 508 -509 0
-318 -508 509 0
318 508 -510 0
318 -508 510 0
-318 508 510 0
-318 -508 -510 0
507 509 -511 0
507 -509 511 0
-507 509 511 0
-507 -509 -511 0
24 37 -512 0
24 -37 -512 0
-24 37 -512 0
-24 -37 512 0
329 512 -513 0
329 -512 -513 0
-329 512 -513 0
-329 -512 513 0
329 512 -514 0
329 -512 514 0
-329 512 514 0
-329 -512 -514 0
324 514 -515 0
324 -514 -515 0
-324 514 -515 0
-324 -514 515 0
324 514 -516 0
324 -514 516 0
-324 514 516 0
-324 -514 -516 0
513 515 -517 0
513 -515 517 0
-513 515 517 0
-513 -515 -517 0
25 37 -518 0
25 -37 -518 0
-25 37 -518 0
-25 -37 518 0
335 518 -519 0
335 -518 -519 0
-335 518 -519 0
-335 -518 519 0
335 518 -520 0
335 -518 520 0
-335 518 520 0
-335 -518 -520 0
330 520 -521 0
330 -520 -521 0
-330 520 -521 0
-330 -520 521 0
330 520 -522 0
330 -520 522 0
-330 520 522 0
-330 -520 -522 0
519 521 -523 0
519 -521 523 0
-519 521 523 0
-519 -521 -523 0
26 37 -524 0
26 -37 -524 0
-26 37 -524 0
-26 -37 524 0
341 524 -525 0
341 -524 -525 0
-341 524 -525 0
-341 -524 525 0
341 524 -526 0
341 -524 526 0
-341 524 526 0
-341 -524 -526 0
336 526 -527 0
336 -526 -527 0
-336 526 -527 0
-336 -526 527 0
336 526 -528 0
336 -526 528 0
-336 526 528 0
-336 -526 -528 0
525 527 -529 0
525 -527 529 0
-525 527 529 0
-525 -527 -529 0
27 37 -530 0
27 -37 -530 0
-27 37 -530 0
-27 -37 530 0
347 530 -531 0
347 -530 -531 0
-347 530 -531 0
-347 -530 531 0
347 530 -532 0
347 -530 532 0
-347 530 532 0
-347 -530 -532 0
342 532 -533 0
342 -532 -533 0
-342 532 -533 0
-342 -532 533 0
342 532 -534 0
342 -532 534 0
-342 532 534 0
-342 -532 -534 0
531 533 -535 0
531 -533 535 0
-531 533 535 0
-531 -533 -535 0
28 37 -536 0
28 -37 -536 0
-28 37 -536 0
-28 -37 536 0
353 536 -537 0
353 -536 -537 0
-353 536 -537 0
-353 -536 537 0
353 536 -538 0
353 -536 538 0
-353 536 538 0
-353 -536 -538 0
348 538 -539 0
348 -538 -539 0
-348 538 -539 0
-348 -538 539 0
348 538 -540 0
348 -538 540 0
-348 538 540 0
-348 -538 -540 0
537 539 -541 0
537 -539 541 0
-537 539 541 0
-537 -539 -541 0
29 37 -542 0
29 -37 -542 0
-29 37 -542 0
-29 -37 542 0
359 542 -543 0
359 -542 -543 0
-359 542 -543 0
-359 -542 543 0
359 542 -544 0
359 -542 544 0
-359 542 544 0
-359 -542 -544 0
354 544 -545 0
354 -544 -545 0
-354 544 -545 0
-354 -544 545 0
354 544 -546 0
354 -544 546 0
-354 544 546 0
-354 -544 -546 0
543 545 -547 0
543 -545 547 0
-543 545 547 0
-543 -545 -547 0
30 37 -548 0
30 -37 -548 0
-30 37 -548 0
-30 -37 548 0
365 548 -549 0
365 -548 -549 0
-365 548 -549 0
-365 -548 549 0
365 548 -550 0
365 -548 550 0
-365 548 550 0
-365 -548 -550 0
360 550 -551 0
360 -550 -551 0
-360 550 -551 0
-360 -550 551 0
360 550 -552 0
360 -550 552 0
-360 550 552 0
-360 -550 -552 0
549 551 -553 0
549 -551 553 0
-549 551 553 0
-549 -551 -553 0
31 37 -554 0
31 -37 -554 0
-31 37 -554 0
-31 -37 554 0
371 554 -555 0
371 -554 -555 0
-371 554 -555 0
-371 -554 555 0
371 554 -556 0
371 -554 556 0
-371 554 556 0
-371 -554 -556 0
366 556 -557 0
366 -556 -557 0
-366 556 -557 0
-366 -556 557 0
366 556 -558 0
366 -556 558 0
-366 556 558 0
-366 -556 -558 0
555 557 -559 0
555 -557 559 0
-555 557 559 0
-555 -557 -559 0
32 37 -560 0
32 -37 -560 0
-32 37 -560 0
-32 -37 560 0
373 560 -561 0
373 -560 -561 0
-373 560 -561 0
-373 -560 561 0
373 560 -562 0
373 -560 562 0
-373 560 562 0
-373 -560 -562 0
372 562 -563 0
372 -562 -563 0
-372 562 -563 0
-372 -562 563 0
372 562 -564 0
372 -562 564 0
-372 562 564 0
-372 -562 -564 0
561 563 -565 0
561 -563 565 0
-561 563 565 0
-561 -563 -565 0
33 37 -566 0
33 -37 -566 0
-33 37 -566 0
-33 -37 566 0
1 38 -567 0
1 -38 -567 0
-1 38 -567 0
-1 -38 567 0
384 567 -568 0
384 -567 -568 0
-384 567 -568 0
-384 -567 568 0
384 567 -569 0
384 -567 569 0
-384 567 569 0
-384 -567 -569 0
379 569 -570 0
379 -569 -570 0
-379 569 -570 0
-379 -569 570 0
379 569 -571 0
379 -569 571 0
-379 569 571 0
-379 -569 -571 0
568 570 -572 0
568 -570 572 0
-568 570 572 0
-568 -570 -572 0
2 38 -573 0
2 -38 -573 0
-2 38 -573 0
-2 -38 573 0
390 573 -574 0
390 -573 -574 0
-390 573 -574 0
-390 -573 574 0
390 573 -575 0
390 -573 575 0
-390 573 575 0
-390 -573 -575 0
385 575 -576 0
385 -575 -576 0
-385 575 -576 0
-385 -575 576 0
385 575 -577 0
385 -575 577 0
-385 575 577 0
-385 -575 -577 0
574 576 -578 0
574 -576 578 0
-574 576 578 0
-574 -576 -578 0
3 38 -579 0
3 -38 -579 0
-3 38 -579 0
-3 -38 579 0
396 579 -580 0
396 -579 -580 0
-396 579 -580 0
-396 -579 580 0
396 579 -581 0
396 -579 581 0
-396 579 581 0
-396 -579 -581 0
391 581 -582 0
391 -581 -582 0
-391 581 -582 0
-391 -581 582 0
391 581 -583 0
391 -581 583 0
-391 581 583 0
-391 -581 -583 0
580 582 -584 0
580 -582 584 0
-580 582 584 0
-580 -582 -584 0
4 38 -585 0
4 -38 -585 0
-4 38 -585 0
-4 -38 585 0
402 585 -586 0
402 -585 -586 0
-402 585 -586 0
-402 -585 586 0
402 585 -587 0
402 -585 587 0
-402 585 587 0
-402 -585 -587 0
397 587 -588 0
397 -587 -588 0
-397 587 -588 0
-397 -587 588 0
397 587 -589 0
397 -587 589 0
-397 587 589 0
-397 -587 -589 0
586 588 -590 0
586 -588 590 0
-586 588 590 0
-586 -588 -590 0
5 38 -591 0
5 -38 -591 0
-5 38 -591 0
-5 -38 591 0
408 591 -592 0
408 -591 -592 0
-408 591 -592 0
-408 -591 592 0
408 591 -593 0
408 -591 593 0
-408 591 593 0
-408 -591 -593 0
403 593 -594 0
403 -593 -594 0
-403 593 -594 0
-403 -593 594 0
403 593 -595 0
403 -593 595 0
-403 593 595 0
-403 -593 -595 0
592 594 -596 0
592 -594 596 0
-592 594 596 0
-592 -594 -596 0
6 38 -597 0
6 -38 -597 0
-6 38 -597 0
-6 -38 597 0
414 597 -598 0
414 -597 -598 0
-414 597 -598 0
-414 -597 598 0
414 597 -599 0
414 -597 599 0
-414 597 599 0
-414 -597 -599 0
409 599 -600 0
409 -599 -600 0
-409 599 -600 0
-409 -599 600 0
409 599 -601 0
409 -599 601 0
-409 599 601 0
-409 -599 -601 0
598 600 -602 0
598 -600 602 0
-598 600 602 0
-598 -600 -602 0
7 38 -603 0
7 -38 -603 0
-7 38 -603 0
-7 -38 603 0
420 603 -604 0
420 -603 -604 0
-420 603 -604 0
-420 -603 604 0
420 603 -605 0
420 -603 605 0
-420 603 605 0
-420 -603 -605 0
415 605 -606 0
415 -605 -606 0
-415 605 -606 0
-415 -605 606 0
415 605 -607 0
415 -605 607 0
-415 605 607 0
-415 -605 -607 0
604 606 -608 0
604 -606 608 0
-604 606 608 0
-604 -606 -608 0
8 38 -609 0
8 -38 -609 0
-8 38 -609 0
-8 -38 609 0
426 609 -610 0
426 -609 -610 0
-426 609 -610 0
-426 -609 610 0
426 609 -611 0
426 -609 611 0
-426 609 611 0
-426 -609 -611 0
421 611 -612 0
421 -611 -612 0
-421 611 -612 0
-421 -611 612 0
421 611 -613 0
421 -611 613 0
-421 611 613 0
-421 -611 -613 0
610 612 -614 0
610 -612 614 0
-610 612 614 0
-610 -612 -614 0
9 38 -615 0
9 -38 -615 0
-9 38 -615 0
-9 -38 615 0
432 615 -616 0
432 -615 -616 0
-432 615 -616 0
-432 -615 616 0
432 615 -617 0
432 -615 617 0
-432 615 617 0
-432 -615 -617 0
427 617 -618 0
427 -617 -618 0
-427 617 -618 0
-427 -617 618 0
427 617 -619 0
427 -617 619 0
-427 617 619 0
-427 -617 -619 0
616 618 -620 0
616 -618 620 0
-616 618 620 0
-616 -618 -620 0
10 38 -621 0
10 -38 -621 0
-10 38 -621 0
-10 -38 621 0
438 621 -622 0
438 -621 -622 0
-438 621 -622 0
-438 -621 622 0
438 621 -623 0
438 -621 623 0
-438 621 623 0
-438 -621 -623 0
433 623 -624 0
433 -623 -624 0
-433 623 -624 0
-433 -623 624 0
433 623 -625 0
433 -623 625 0
-433 623 625 0
-433 -623 -625 0
622 624 -626 0
622 -624 626 0
-622 624 626 0
-622 -624 -626 0
11 38 -627 0
11 -38 -627 0
-11 38 -627 0
-11 -38 627 0
444 627 -628 0
444 -627 -628 0
-444 627 -628 0
-444 -627 628 0
444 627 -629 0
444 -627 629 0
-444 627 629 0
-444 -627 -629 0
439 629 -630 0
439 -629 -630 0
-439 629 -630 0
-439 -629 630 0
439 629 -631 0
439 -629 631 0
-439 629 631 0
-439 -629 -631 0
628 630 -632 0
628 -630 632 0
-628 630 632 0
-628 -630 -632 0
12 38 -633 0
12 -38 -633 0
-12 38 -633 0
-12 -38 633 0
450 633 -634 0
450 -633 -634 0
-450 633 -634 0
-450 -633 634 0
450 633 -635 0
450 -633 635 0
-450 633 635 0
-450 -633 -635 0
445 635 -636 0
445 -635 -636 0
-445 635 -636 0
-445 -635 636 0
445 635 -637 0
445 -635 637 0
-445 635 637 0
-445 -635 -637 0
634 636 -638 0
634 -636 638 0
-634 636 638 0
-634 -636 -638 0
13 38 -639 0
13 -38 -639 0
-13 38 -639 0
-13 -38 639 0
456 639 -640 0
456 -639 -640 0
-456 639 -640 0
-456 -639 640 0
456 639 -641 0
456 -639 641 0
-456 639 641 0
-456 -639 -641 0
451 641 -642 0
451 -641 -642 0
-451 641 -642 0
-451 -641 642 0
451 641 -643 0
451 -641 643 0
-451 641 643 0
-451 -641 -643 0
640 642 -644 0
640 -642 644 0
-640 642 644 0
-640 -642 -644 0
14 38 -645 0
14 -38 -645 0
-14 38 -645 0
-14 -38 645 0
462 645 -646 0
462 -645 -646 0
-462 645 -646 0
-462 -645 646 0
462 645 -647 0
462 -645 647 0
-462 645 647 0
-462 -645 -647 0
457 647 -648 0
457 -647 -648 0
-457 647 -648 0
-457 -647 648 0
457 647 -649 0
457 -647 649 0
-457 647 649 0
-457 -647 -649 0
646 648 -650 0
646 -648 650 0
-646 648 650 0
-646 -648 -650 0
15 38 -651 0
15 -38 -651 0
-15 38 -651 0
-15 -38 651 0
468 651 -652 0
468 -651 -652 0
-468 651 -652 0
-468 -651 652 0
468 651 -653 0
468 -651 653 0
-468 651 653 0
-468 -651 -653 0
463 653 -654 0
463 -653 -654 0
-463 653 -654 0
-463 -653 654 0
463 653 -655 0
463 -653 655 0
-463 653 655 0
-463 -653 -655 0
652 654 -656 0
652 -654 656 0
-652 654 656 0
-652 -654 -656 0
16 38 -657 0
16 -38 -657 0
-16 38 -657 0
-16 -38 657 0
474 657 -658 0
474 -657 -658 0
-474 657 -658 0
-474 -657 658 0
474 657 -659 0
474 -657 659 0
-474 657 659 0
-474 -657 -659 0
469 659 -660 0
469 -659 -660 0
-469 659 -660 0
-469 -659 660 0
469 659 -661 0
469 -659 661 0
-469 659 661 0
-469 -659 -661 0
658 660 -662 0
658 -660 662 0
-658 660 662 0
-658 -660 -662 0
17 38 -663 0
17 -38 -663 0
-17 38 -663 0
-17 -38 663 0
480 663 -664 0
480 -663 -664 0
-480 663 -664 0
-480 -663 664 0
480 663 -665 0
480 -663 665 0
-480 663 665 0
-480 -663 -665 0
475 665 -666 0
475 -665 -666 0
-475 665 -666 0
-475 -665 666 0
475 665 -667 0
475 -665 667 0
-475 665 667 0
-475 -665 -667 0
664 666 -668 0
664 -666 668 0
-664 666 668 0
-664 -666 -668 0
18 38 -669 0
18 -38 -669 0
-18 38 -669 0
-18 -38 669 0
486 669 -670 0
486 -669 -670 0
-486 669 -670 0
-486 -669 670 0
486 669 -671 0
486 -669 671 0
-486 669 671 0
-486 -669 -671 0
481 671 -672 0
481 -671 -672 0
-481 671 -672 0
-481 -671 672 0
481 671 -673 0
481 -671 673 0
-481 671 673 0
-481 -671 -673 0
670 672 -674 0
670 -672 674 0
-670 672 674 0
-670 -672 -674 0
19 38 -675 0
19 -38 -675 0
-19 38 -675 0
-19 -38 675 0
492 675 -676 0
492 -675 -676 0
-492 675 -676 0
-492 -675 676 0
492 675 -677 0
492 -675 677 0
-492 675 677 0
-492 -675 -677 0
487 677 -678 0
487 -677 -678 0
-487 677 -678 0
-487 -677 678 0
487 677 -679 0
487 -677 679 0
-487 677 679 0
-487 -677 -679 0
676 678 -680 0
676 -678 680 0
-676 678 680 0
-676 -678 -680 0
20 38 -681 0
20 -38 -681 0
-20 38 -681 0
-20 -38 681 0
498 681 -682 0
498 -681 -682 0
-498 681 -682 0
-498 -681 682 0
498 681 -683 0
498 -681 683 0
-498 681 683 0
-498 -681 -683 0
493 683 -684 0
493 -683 -684 0
-493 683 -684 0
-493 -683 684 0
493 683 -685 0
493 -683 685 0
-493 683 685 0
-493 -683 -685 0
682 684 -686 0
682 -684 686 0
-682 684 686 0
-682 -684 -686 0
21 38 -687 0
21 -38 -687 0
-21 38 -687 0
-21 -38 687 0
504 687 -688 0
504 -687 -688 0
-504 687 -688 0
-504 -687 688 0
504 687 -689 0
504 -687 689 0
-504 687 689 0
-504 -687 -689 0
499 689 -690 0
499 -689 -690 0
-499 689 -690 0
-499 -689 690 0
499 689 -691 0
499 -689 691 0
-499 689 691 0
-499 -689 -691 0
688 690 -692 0
688 -690 692 0
-688 690 692 0
-688 -690 -692 0
22 38 -693 0
22 -38 -693 0
-22 38 -693 0
-22 -38 693 0
510 693 -694 0
510 -693 -694 0
-510 693 -694 0
-510 -693 694 0
510 693 -695 0
510 -693 695 0
-510 693 695 0
-510 -693 -695 0
505 695 -696 0
505 -695 -696 0
-505 695 -696 0
-505 -695 696 0
505 695 -697 0
505 -695 697 0
-505 695 697 0
-505 -695 -697 0
694 696 -698 0
694 -696 698 0
-694 696 698 0
-694 -696 -698 0
23 38 -699 0
23 -38 -699 0
-23 38 -699 0
-23 -38 699 0
516 699 -700 0
516 -699 -700 0
-516 699 -700 0
-516 -699 700 0
516 699 -701 0
516 -699 701 0
-516 699 701 0
-516 -699 -701 0
511 701 -702 0
511 -701 -702 0
-511 701 -702 0
-511 -701 702 0
511 701 -703 0
511 -701 703 0
-511 701 703 0
-511 -701 -703 0
700 702 -704 0
700 -702 704 0
-700 702 704 0
-700 -702 -704 0
24 38 -705 0
24 -38 -705 0
-24 38 -705 0
-24 -38 705 0
522 705 -706 0
522 -705 -706 0
-522 705 -706 0
-522 -705 706 0
522 705 -707 0
522 -705 707 0
-522 705 707 0
-522 -705 -707 0
517 707 -708 0
517 -707 -708 0
-517 707 -708 0
-517 -707 708 0
517 707 -709 0
517 -707 709 0
-517 707 709 0
-517 -707 -709 0
706 708 -710 0
706 -708 710 0
-706 708 710 0
-706 -708 -710 0
25 38 -711 0
25 -38 -711 0
-25 38 -711 0
-25 -38 711 0
528 711 -712 0
528 -711 -712 0
-528 711 -712 0
-528 -711 712 0
528 711 -713 0
528 -711 713 0
-528 711 713 0
-528 -711 -713 0
523 713 -714 0
523 -713 -714 0
-523 713 -714 0
-523 -713 714 0
523 713 -715 0
523 -713 715 0
-523 713 715 0
-523 -713 -715 0
712 714 -716 0
712 -714 716 0
-712 714 716 0
-712 -714 -716 0
26 38 -717 0
26 -38 -717 0
-26 38 -717 0
-26 -38 717 0
534 717 -718 0
534 -717 -718 0
-534 717 -718 0
-534 -717 718 0
534 717 -719 0
534 -717 719 0
-534 717 719 0
-534 -717 -719 0
529 719 -720 0
529 -719 -720 0
-529 719 -720 0
-529 -719 720 0
529 719 -721 0
529 -719 721 0
-529 719 721 0
-529 -719 -721 0
718 720 -722 0
718 -720 722 0
-718 720 722 0
-718 -720 -722 0
27 38 -723 0
27 -38 -723 0
-27 38 -723 0
-27 -38 723 0
540 723 -724 0
540 -723 -724 0
-540 723 -724 0
-540 -723 724 0
540 723 -725 0
540 -723 725 0
-540 723 725 0
-540 -723 -725 0
535 725 -726 0
535 -725 -726 0
-535 725 -726 0
-535 -725 726 0
535 725 -727 0
535 -725 727 0
-535 725 727 0
-535 -725 -727 0
724 726 -728 0
724 -726 728 0
-724 726 728 0
-724 -726 -728 0
28 38 -729 0
28 -38 -729 0
-28 38 -729 0
-28 -38 729 0
546 729 -730 0
546 -729 -730 0
-546 729 -730 0
-546 -729 730 0
546 729 -731 0
546 -729 731 0
-546 729 731 0
-546 -729 -731 0
541 731 -732 0
541 -731 -732 0
-541 731 -732 0
-541 -731 732 0
541 731 -733 0
541 -731 733 0
-541 731 733 0
-541 -731 -733 0
730 732 -734 0
730 -732 734 0
-730 732 734 0
-730 -732 -734 0
29 38 -735 0
29 -38 -735 0
-29 38 -735 0
-29 -38 735 0
552 735 -736 0
552 -735 -736 0
-552 735 -736 0
-552 -735 736 0
552 735 -737 0
552 -735 737 0
-552 735 737 0
-552 -735 -737 0
547 737 -738 0
547 -737 -738 0
-547 737 -738 0
-547 -737 738 0
547 737 -739 0
547 -737 739 0
-547 737 739 0
-547 -737 -739 0
736 738 -740 0
736 -738 740 0
-736 738 740 0
-736 -738 -740 0
30 38 -741 0
30 -38 -741 0
-30 38 -741 0
-30 -38 741 0
558 741 -742 0
558 -741 -742 0
-558 741 -742 0
-558 -741 742 0
558 741 -743 0
558 -741 743 0
-558 741 743 0
-558 -741 -743 0
553 743 -744 0
553 -743 -744 0
-553 743 -744 0
-553 -743 744 0
553 743 -745 0
553 -743 745 0
-553 743 745 0
-553 -743 -745 0
742 744 -746 0
742 -744 746 0
-742 744 746 0
-742 -744 -746 0
31 38 -747 0
31 -38 -747 0
-31 38 -747 0
-31 -38 747 0
564 747 -748 0
564 -747 -748 0
-564 747 -748 0
-564 -747 748 0
564 747 -749 0
564 -747 749 0
-564 747 749 0
-564 -747 -749 0
559 749 -750 0
559 -749 -750 0
-559 749 -750 0
-559 -749 750 0
559 749 -751 0
559 -749 751 0
-559 749 751 0
-559 -749 -751 0
748 750 -752 0
748 -750 752 0
-748 750 752 0
-748 -750 -752 0
32 38 -753 0
32 -38 -753 0
-32 38 -753 0
-32 -38 753 0
566 753 -754 0
566 -753 -754 0
-566 753 -754 0
-566 -753 754 0
566 753 -755 0
566 -753 755 0
-566 753 755 0
-566 -753 -755 0
565 755 -756 0
565 -755 -756 0
-565 755 -756 0
-565 -755 756 0
565 755 -757 0
565 -755 757 0
-565 755 757 0
-565 -755 -757 0
754 756 -758 0
754 -756 758 0
-754 756 758 0
-754 -756 -758 0
33 38 -759 0
33 -38 -759 0
-33 38 -759 0
-33 -38 759 0
1 39 -760 0
1 -39 -760 0
-1 39 -760 0
-1 -39 760 0
577 760 -761 0
577 -760 -761 0
-577 760 -761 0
-577 -760 761 0
577 760 -762 0
577 -760 762 0
-577 760 762 0
-577 -760 -762 0
572 762 -763 0
572 -762 -763 0
-572 762 -763 0
-572 -762 763 0
572 762 -764 0
572 -762 764 0
-572 762 764 0
-572 -762 -764 0
761 763 -765 0
761 -763 765 0
-761 763 765 0
-761 -763 -765 0
2 39 -766 0
2 -39 -766 0
-2 39 -766 0
-2 -39 766 0
583 766 -767 0
583 -766 -767 0
-583 766 -767 0
-583 -766 767 0
583 766 -768 0
583 -766 768 0
-583 766 768 0
-583 -766 -768 0
578 768 -769 0
578 -768 -769 0
-578 768 -769 0
-578 -768 769 0
578 768 -770 0
578 -768 770 0
-578 768 770 0
-578 -768 -770 0
767 769 -771 0
767 -769 771 0
-767 769 771 0
-767 -769 -771 0
3 39 -772 0
3 -39 -772 0
-3 39 -772 0
-3 -39 772 0
589 772 -773 0
589 -772 -773 0
-589 772 -773 0
-589 -772 773 0
589 772 -774 0
589 -772 774 0
-589 772 774 0
-589 -772 -774 0
584 774 -775 0
584 -774 -775 0
-584 774 -775 0
-584 -774 775 0
584 774 -776 0
584 -774 776 0
-584 774 776 0
-584 -774 -776 0
773 775 -777 0
773 -775 777 0
-773 775 777 0
-773 -775 -777 0
4 39 -778 0
4 -39 -778 0
-4 39 -778 0
-4 -39 778 0
595 778 -779 0
595 -778 -779 0
-595 778 -779 0
-595 -778 779 0
595 778 -780 0
595 -778 780 0
-595 778 780 0
-595 -778 -780 0
590 780 -781 0
590 -780 -781 0
-590 780 -781 0
-590 -780 781 0
590 780 -782 0
590 -780 782 0
-590 780 782 0
-590 -780 -782 0
779 781 -783 0
779 -781 783 0
-779 781 783 0
-779 -781 -783 0
5 39 -784 0
5 -39 -784 0
-5 39 -784 0
-5 -39 784 0
601 784 -785 0
601 -784 -785 0
-601 784 -785 0
-601 -784 785 0
601 784 -786 0
601 -784 786 0
-601 784 786 0
-601 -784 -786 0
596 786 -787 0
596 -786 -787 0
-596 786 -787 0
-596 -786 787 0
596 786 -788 0
596 -786 788 0
-596 786 788 0
-596 -786 -788 0
785 787 -789 0
785 -787 789 0
-785 787 789 0
-785 -787 -789 0
6 39 -790 0
6 -39 -790 0
-6 39 -790 0
-6 -39 790 0
607 790 -791 0
607 -790 -791 0
-607 790 -791 0
-607 -790 791 0
607 790 -792 0
607 -790 792 0
-607 790 792 0
-607 -790 -792 0
602 792 -793 0
602 -792 -793 0
-602 792 -793 0
-602 -792 793 0
602 792 -794 0
602 -792 794 0
-602 792 794 0
-602 -792 -794 0
791 793 -795 0
791 -793 795 0
-791 793 795 0
-791 -793 -795 0
7 39 -796 0
7 -39 -796 0
-7 39 -796 0
-7 -39 796 0
613 796 -797 0
613 -796 -797 0
-613 796 -797 0
-613 -796 797 0
613 796 -798 0
613 -796 798 0
-613 796 798 0
-613 -796 -798 0
608 798 -799 0
608 -798 -799 0
-608 798 -799 0
-608 -798 799 0
608 798 -800 0
608 -798 800 0
-608 798 800 0
-608 -798 -800 0
797 799 -801 0
797 -799 801 0
-797 799 801 0
-797 -799 -801 0
8 39 -802 0
8 -39 -802 0
-8 39 -802 0
-8 -39 802 0
619 802 -803 0
619 -802 -803 0
-619 802 -803 0
-619 -802 803 0
619 802 -804 0
619 -802 804 0
-619 802 804 0
-619 -802 -804 0
614 804 -805 0
614 -804 -805 0
-614 804 -805 0
-614 -804 805 0
614 804 -806 0
614 -804 806 0
-614 804 806 0
-614 -804 -806 0
803 805 -807 0
803 -805 807 0
-803 805 807 0
-803 -805 -807 0
9 39 -808 0
9 -39 -808 0
-9 39 -808 0
-9 -39 808 0
625 808 -809 0
625 -808 -809 0
-625 808 -809 0
-625 -808 809 0
625 808 -810 0
625 -808 810 0
-625 808 810 0
-625 -808 -810 0
620 810 -811 0
620 -810 -811 0
-620 810 -811 0
-620 -810 811 0
620 810 -812 0
620 -810 812 0
-620 810 812 0
-620 -810 -812 0
809 811 -813 0
809 -811 813 0
-809 811 813 0
-809 -811 -813 0
10 39 -814 0
10 -39 -814 0
-10 39 -814 0
-10 -39 814 0
631 814 -815 0
631 -814 -815 0
-631 814 -815 0
-631 -814 815 0
631 814 -816 0
631 -814 816 0
-631 814 816 0
-631 -814 -816 0
626 816 -817 0
626 -816 -817 0
-626 816 -817 0
-626 -816 817 0
626 816 -818 0
626 -816 818 0
-626 816 818 0
-626 -816 -818 0
815 817 -819 0
815 -817 819 0
-815 817 819 0
-815 -817 -819 0
11 39 -820 0
11 -39 -820 0
-11 39 -820 0
-11 -39 820 0
637 820 -821 0
637 -820 -821 0
-637 820 -821 0
-637 -820 821 0
637 820 -822 0
637 -820 822 0
-637 820 822 0
-637 -820 -822 0
632 822 -823 0
632 -822 -823 0
-632 822 -823 0
-632 -822 823 0
632 822 -824 0
632 -822 824 0
-632 822 824 0
-632 -822 -824 0
821 823 -825 0
821 -823 825 0
-821 823 825 0
-821 -823 -825 0
12 39 -826 0
12 -39 -826 0
-12 39 -826 0
-12 -39 826 0
643 826 -827 0
643 -826 -827 0
-643 826 -827 0
-643 -826 827 0
643 826 -828 0
643 -826 828 0
-643 826 828 0
-643 -826 -828 0
638 828 -829 0
638 -828 -829 0
-638 828 -829 0
-638 -828 829 0
638 828 -830 0
638 -828 830 0
-638 828 830 0
-638 -828 -830 0
827 829 -831 0
827 -829 831 0
-827 829 831 0
-827 -829 -831 0
13 39 -832 0
13 -39 -832 0
-13 39 -832 0
-13 -39 832 0
649 832 -833 0
649 -832 -833 0
-649 832 -833 0
-649 -832 833 0
649 832 -834 0
649 -832 834 0
-649 832 834 0
-649 -832 -834 0
644 834 -835 0
644 -834 -835 0
-644 834 -835 0
-644 -834 835 0
644 834 -836 0
644 -834 836 0
-644 834 836 0
-644 -834 -836 0
833 835 -837 0
833 -835 837 0
-833 835 837 0
-833 -835 -837 0
14 39 -838 0
14 -39 -838 0
-14 39 -838 0
-14 -39 838 0
655 838 -839 0
655 -838 -839 0
-655 838 -839 0
-655 -838 839 0
655 838 -840 0
655 -838 840 0
-655 838 840 0
-655 -838 -840 0
650 840 -841 0
650 -840 -841 0
-650 840 -841 0
-650 -840 841 0
650 840 -842 0
650 -840 842 0
-650 840 842 0
-650 -840 -842 0
839 841 -843 0
839 -841 843 0
-839 841 843 0
-839 -841 -843 0
15 39 -844 0
15 -39 -844 0
-15 39 -844 0
-15 -39 844 0
661 844 -845 0
661 -844 -845 0
-661 844 -845 0
-661 -844 845 0
661 844 -846 0
661 -844 846 0
-661 844 846 0
-661 -844 -846 0
656 846 -847 0
656 -846 -847 0
-656 846 -847 0
-656 -846 847 0
656 846 -848 0
656 -846 848 0
-656 846 848 0
-656 -846 -848 0
845 847 -849 0
845 -847 849 0
-845 847 849 0
-845 -847 -849 0
16 39 -850 0
16 -39 -850 0
-16 39 -850 0
-16 -39 850 0
667 850 -851 0
667 -850 -851 0
-667 850 -851 0
-667 -850 851 0
667 850 -852 0
667 -850 852 0
-667 850 852 0
-667 -850 -852 0
662 852 -853 0
662 -852 -853 0
-662 852 -853 0
-662 -852 853 0
662 852 -854 0
662 -852 854 0
-662 852 854 0
-662 -852 -854 0
851 853 -855 0
851 -853 855 0
-851 853 855 0
-851 -853 -855 0
17 39 -856 0
17 -39 -856 0
-17 39 -856 0
-17 -39 856 0
673 856 -857 0
673 -856 -857 0
-673 856 -857 0
-673 -856 857 0
673 856 -858 0
673 -856 858 0
-673 856 858 0
-673 -856 -858 0
668 858 -859 0
668 -858 -859 0
-668 858 -859 0
-668 -858 859 0
668 858 -860 0
668 -858 860 0
-668 858 860 0
-668 -858 -860 0
857 859 -861 0
857 -859 861 0
-857 859 861 0
-857 -859 -861 0
18 39 -862 0
18 -39 -862 0
-18 39 -862 0
-18 -39 862 0
679 862 -863 0
679 -862 -863 0
-679 862 -863 0
-679 -862 863 0
679 862 -864 0
679 -862 864 0
-679 862 864 0
-679 -862 -864 0
674 864 -865 0
674 -864 -865 0
-674 864 -865 0
-674 -864 865 0
674 864 -866 0
674 -864 866 0
-674 864 866 0
-674 -864 -866 0
863 865 -867 0
863 -865 867 0
-863 865 867 0
-863 -865 -867 0
19 39 -868 0
19 -39 -868 0
-19 39 -868 0
-19 -39 868 0
685 868 -869 0
685 -868 -869 0
-685 868 -869 0
-685 -868 869 0
685 868 -870 0
685 -868 870 0
-685 868 870 0
-685 -868 -870 0
680 870 -871 0
680 -870 -871 0
-680 870 -871 0
-680 -870 871 0
680 870 -872 0
680 -870 872 0
-680 870 872 0
-680 -870 -872 0
869 871 -873 0
869 -871 873 0
-869 871 873 0
-869 -871 -873 0
20 39 -874 0
20 -39 -874 0
-20 39 -874 0
-20 -39 874 0
691 874 -875 0
691 -874 -875 0
-691 874 -875 0
-691 -874 875 0
691 874 -876 0
691 -874 876 0
-691 874 876 0
-691 -874 -876 0
686 876 -877 0
686 -876 -877 0
-686 876 -877 0
-686 -876 877 0
686 876 -878 0
686 -876 878 0
-686 876 878 0
-686 -876 -878 0
875 877 -879 0
875 -877 879 0
-875 877 879 0
-875 -877 -879 0
21 39 -880 0
21 -39 -880 0
-21 39 -880 0
-21 -39 880 0
697 880 -881 0
697 -880 -881 0
-697 880 -881 0
-697 -880 881 0
697 880 -882 0
697 -880 882 0
-697 880 882 0
-697 -880 -882 0
692 882 -883 0
692 -882 -883 0
-692 882 -883 0
-692 -882 883 0
692 882 -884 0
692 -882 884 0
-692 882 884 0
-692 -882 -884 0
881 883 -885 0
881 -883 885 0
-881 883 885 0
-881 -883 -885 0
22 39 -886 0
22 -39 -886 0
-22 39 -886 0
-22 -39 886 0
703 886 -887 0
703 -886 -887 0
-703 886 -887 0
-703 -886 887 0
703 886 -888 0
703 -886 888 0
-703 886 888 0
-703 -886 -888 0
698 888 -889 0
698 -888 -889 0
-698 888 -889 0
-698 -888 889 0
698 888 -890 0
698 -888 890 0
-698 888 890 0
-698 -888 -890 0
887 889 -891 0
887 -889 891 0
-887 889 891 0
-887 -889 -891 0
23 39 -892 0
23 -39 -892 0
-23 39 -892 0
-23 -39 892 0
709 892 -893 0
709 -892 -893 0
-709 892 -893 0
-709 -892 893 0
709 892 -894 0
709 -892 894 0
-709 892 894 0
-709 -892 -894 0
704 894 -895 0
704 -894 -895 0
-704 894 -895 0
-704 -894 895 0
704 894 -896 0
704 -894 896 0
-704 894 896 0
-704 -894 -896 0
893 895 -897 0
893 -895 897 0
-893 895 897 0
-893 -895 -897 0
24 39 -898 0
24 -39 -898 0
-24 39 -898 0
-24 -39 898 0
715 898 -899 0
715 -898 -899 0
-715 898 -899 0
-715 -898 899 0
715 898 -900 0
715 -898 900 0
-715 898 900 0
-715 -898 -900 0
710 900 -901 0
710 -900 -901 0
-710 900 -901 0
-710 -900 901 0
710 900 -902 0
710 -900 902 0
-710 900 902 0
-710 -900 -902 0
899 901 -903 0
899 -901 903 0
-899 901 903 0
-899 -901 -903 0
25 39 -904 0
25 -39 -904 0
-25 39 -904 0
-25 -39 904 0
721 904 -905 0
721 -904 -905 0
-721 904 -905 0
-721 -904 905 0
721 904 -906 0
721 -904 906 0
-721 904 906 0
-721 -904 -906 0
716 906 -907 0
716 -906 -907 0
-716 906 -907 0
-716 -906 907 0
716 906 -908 0
716 -906 908 0
-716 906 908 0
-716 -906 -908 0
905 907 -909 0
905 -907 909 0
-905 907 909 0
-905 -907 -909 0
26 39 -910 0
26 -39 -910 0
-26 39 -910 0
-26 -39 910 0
727 910 -911 0
727 -910 -911 0
-727 910 -911 0
-727 -910 911 0
727 910 -912 0
727 -910 912 0
-727 910 912 0
-727 -910 -912 0
722 912 -913 0
722 -912 -913 0
-722 912 -913 0
-722 -912 913 0
722 912 -914 0
722 -912 914 0
-722 912 914 0
-722 -912 -914 0
911 913 -915 0
911 -913 915 0
-911 913 915 0
-911 -913 -915 0
27 39 -916 0
27 -39 -916 0
-27 39 -916 0
-27 -39 916 0
733 916 -917 0
733 -916 -917 0
-733 916 -917 0
-733 -916 917 0
733 916 -918 0
733 -916 918 0
-733 916 918 0
-733 -916 -918 0
728 918 -919 0
728 -918 -919 0
-728 918 -919 0
-728 -918 919 0
728 918 -920 0
728 -918 920 0
-728 918 920 0
-728 -918 -920 0
917 919 -921 0
917 -919 921 0
-917 919 921 0
-917 -919 -921 0
28 39 -922 0
28 -39 -922 0
-28 39 -922 0
-28 -39 922 0
739 922 -923 0
739 -922 -923 0
-739 922 -923 0
-739 -922 923 0
739 922 -924 0
739 -922 924 0
-739 922 924 0
-739 -922 -924 0
734 924 -925 0
734 -924 -925 0
-734 924 -925 0
-734 -924 925 0
734 924 -926 0
734 -924 926 0
-734 924 926 0
-734 -924 -926 0
923 925 -927 0
923 -925 927 0
-923 925 927 0
-923 -925 -927 0
29 39 -928 0
29 -39 -928 0
-29 39 -928 0
-29 -39 928 0
745 928 -929 0
745 -928 -929 0
-745 928 -929 0
-745 -928 929 0
745 928 -930 0
745 -928 930 0
-745 928 930 0
-745 -928 -930 0
740 930 -931 0
740 -930 -931 0
-740 930 -931 0
-740 -930 931 0
740 930 -932 0
740 -930 932 0
-740 930 932 0
-740 -930 -932 0
929 931 -933 0
929 -931 933 0
-929 931 933 0
-929 -931 -933 0
30 39 -934 0
30 -39 -934 0
-30 39 -934 0
-30 -39 934 0
751 934 -935 0
751 -934 -935 0
-751 934 -935 0
-751 -934 935 0
751 934 -936 0
751 -934 936 0
-751 934 936 0
-751 -934 -936 0
746 936 -937 0
746 -936 -937 0
-746 936 -937 0
-746 -936 937 0
746 936 -938 0
746 -936 938 0
-746 936 938 0
-746 -936 -938 0
935 937 -939 0
935 -937 939 0
-935 937 939 0
-935 -937 -939 0
31 39 -940 0
31 -39 -940 0
-31 39 -940 0
-31 -39 940 0
757 940 -941 0
757 -940 -941 0
-757 940 -941 0
-757 -940 941 0
757 940 -942 0
757 -940 942 0
-757 940 942 0
-757 -940 -942 0
752 942 -943 0
752 -942 -943 0
-752 942 -943 0
-752 -942 943 0
752 942 -944 0
752 -942 944 0
-752 942 944 0
-752 -942 -944 0
941 943 -945 0
941 -943 945 0
-941 943 945 0
-941 -943 -945 0
32 39 -946 0
32 -39 -946 0
-32 39 -946 0
-32 -39 946 0
759 946 -947 0
759 -946 -947 0
-759 946 -947 0
-759 -946 947 0
759 946 -948 0
759 -946 948 0
-759 946 948 0
-759 -946 -948 0
758 948 -949 0
758 -948 -949 0
-758 948 -949 0
-758 -948 949 0
758 948 -950 0
758 -948 950 0
-758 948 950 0
-758 -948 -950 0
947 949 -951 0
947 -949 951 0
-947 949 951 0
-947 -949 -951 0
33 39 -952 0
33 -39 -952 0
-33 39 -952 0
-33 -39 952 0
1 40 -953 0
1 -40 -953 0
-1 40 -953 0
-1 -40 953 0
770 953 -954 0
770 -953 -954 0
-770 953 -954 0
-770 -953 954 0
770 953 -955 0
770 -953 955 0
-770 953 955 0
-770 -953 -955 0
765 955 -956 0
765 -955 -956 0
-765 955 -956 0
-765 -955 956 0
765 955 -957 0
765 -955 957 0
-765 955 957 0
-765 -955 -957 0
954 956 -958 0
954 -956 958 0
-954 956 958 0
-954 -956 -958 0
2 40 -959 0
2 -40 -959 0
-2 40 -959 0
-2 -40 959 0
776 959 -960 0
776 -959 -960 0
-776 959 -960 0
-776 -959 960 0
776 959 -961 0
776 -959 961 0
-776 959 961 0
-776 -959 -961 0
771 961 -962 0
771 -961 -962 0
-771 961 -962 0
-771 -961 962 0
771 961 -963 0
771 -961 963 0
-771 961 963 0
-771 -961 -963 0
960 962 -964 0
960 -962 964 0
-960 962 964 0
-960 -962 -964 0
3 40 -965 0
3 -40 -965 0
-3 40 -965 0
-3 -40 965 0
782 965 -966 0
782 -965 -966 0
-782 965 -966 0
-782 -965 966 0
782 965 -967 0
782 -965 967 0
-782 965 967 0
-782 -965 -967 0
777 967 -968 0
777 -967 -968 0
-777 967 -968 0
-777 -967 968 0
777 967 -969 0
777 -967 969 0
-777 967 969 0
-777 -967 -969 0
966 968 -970 0
966 -968 970 0
-966 968 970 0
-966 -968 -970 0
4 40 -971 0
4 -40 -971 0
-4 40 -971 0
-4 -40 971 0
788 971 -972 0
788 -971 -972 0
-788 971 -972 0
-788 -971 972 0
788 971 -973 0
788 -971 973 0
-788 971 973 0
-788 -971 -973 0
783 973 -974 0
783 -973 -974 0
-783 973 -974 0
-783 -973 974 0
783 973 -975 0
783 -973 975 0
-783 973 975 0
-783 -973 -975 0
972 974 -976 0
972 -974 976 0
-972 974 976 0
-972 -974 -976 0
5 40 -977 0
5 -40 -977 0
-5 40 -977 0
-5 -40 977 0
794 977 -978 0
794 -977 -978 0
-794 977 -978 0
-794 -977 978 0
794 977 -979 0
794 -977 979 0
-794 977 979 0
-794 -977 -979 0
789 979 -980 0
789 -979 -980 0
-789 979 -980 0
-789 -979 980 0
789 979 -981 0
789 -979 981 0
-789 979 981 0
-789 -979 -981 0
978 980 -982 0
978 -980 982 0
-978 980 982 0
-978 -980 -982 0
6 40 -983 0
6 -40 -983 0
-6 40 -983 0
-6 -40 983 0
800 983 -984 0
800 -983 -984 0
-800 983 -984 0
-800 -983 984 0
800 983 -985 0
800 -983 985 0
-800 983 985 0
-800 -983 -985 0
795 985 -986 0
795 -985 -986 0
-795 985 -986 0
-795 -985 986 0
795 985 -987 0
795 -985 987 0
-795 985 987 0
-795 -985 -987 0
984 986 -988 0
984 -986 988 0
-984 986 988 0
-984 -986 -988 0
7 40 -989 0
7 -40 -989 0
-7 40 -989 0
-7 -40 989 0
806 989 -990 0
806 -989 -990 0
-806 989 -990 0
-806 -989 990 0
806 989 -991 0
806 -989 991 0
-806 989 991 0
-806 -989 -991 0
801 991 -992 0
801 -991 -992 0
-801 991 -992 0
-801 -991 992 0
801 991 -993 0
801 -991 993 0
-801 991 993 0
-801 -991 -993 0
990 992 -994 0
990 -992 994 0
-990 992 994 0
-990 -992 -994 0
8 40 -995 0
8 -40 -995 0
-8 40 -995 0
-8 -40 995 0
812 995 -996 0
812 -995 -996 0
-812 995 -996 0
-812 -995 996 0
812 995 -997 0
812 -995 997 0
-812 995 997 0
-812 -995 -997 0
807 997 -998 0
807 -997 -998 0
-807 997 -998 0
-807 -997 998 0
807 997 -999 0
807 -997 999 0
-807 997 999 0
-807 -997 -999 0
996 998 -1000 0
996 -998 1000 0
-996 998 1000 0
-996 -998 -1000 0
9 40 -1001 0
9 -40 -1001 0
-9 40 -1001 0
-9 -40 1001 0
818 1001 -1002 0
818 -1001 -1002 0
-818 1001 -1002 0
-818 -1001 1002 0
818 1001 -1003 0
818 -1001 1003 0
-818 1001 1003 0
-818 -1001 -1003 0
813 1003 -1004 0
813 -1003 -1004 0
-813 1003 -1004 0
-813 -1003 1004 0
813 1003 -1005 0
813 -1003 1005 0
-813 1003 1005 0
-813 -1003 -1005 0
1002 1004 -1006 0
1002 -1004 1006 0
-1002 1004 1006 0
-1002 -1004 -1006 0
10 40 -1007 0
10 -40 -1007 0
-10 40 -1007 0
-10 -40 1007 0
824 1007 -1008 0
824 -1007 -1008 0
-824 1007 -1008 0
-824 -1007 1008 0
824 1007 -1009 0
824 -1007 1009 0
-824 1007 1009 0
-824 -1007 -1009 0
819 1009 -1010 0
819 -1009 -1010 0
-819 1009 -1010 0
-819 -1009 1010 0
819 1009 -1011 0
819 -1009 1011 0
-819 1009 1011 0
-819 -1009 -1011 0
1008 1010 -1012 0
1008 -1010 1012 0
-1008 1010 1012 0
-1008 -1010 -1012 0
11 40 -1013 0
11 -40 -1013 0
-11 40 -1013 0
-11 -40 1013 0
830 1013 -1014 0
830 -1013 -1014 0
-830 1013 -1014 0
-830 -1013 1014 0
830 1013 -1015 0
830 -1013 1015 0
-830 1013 1015 0
-830 -1013 -1015 0
825 1015 -1016 0
825 -1015 -1016 0
-825 1015 -1016 0
-825 -1015 1016 0
825 1015 -1017 0
825 -1015 1017 0
-825 1015 1017 0
-825 -1015 -1017 0
1014 1016 -1018 0
1014 -1016 1018 0
-1014 1016 1018 0
-1014 -1016 -1018 0
12 40 -1019 0
12 -40 -1019 0
-12 40 -1019 0
-12 -40 1019 0
836 1019 -1020 0
836 -1019 -1020 0
-836 1019 -1020 0
-836 -1019 1020 0
836 1019 -1021 0
836 -1019 1021 0
-836 1019 1021 0
-836 -1019 -1021 0
831 1021 -1022 0
831 -1021 -1022 0
-831 1021 -1022 0
-831 -1021 1022 0
831 1021 -1023 0
831 -1021 1023 0
-831 1021 1023 0
-831 -1021 -1023 0
1020 1022 -1024 0
1020 -1022 1024 0
-1020 1022 1024 0
-1020 -1022 -1024 0
13 40 -1025 0
13 -40 -1025 0
-13 40 -1025 0
-13 -40 1025 0
842 1025 -1026 0
842 -1025 -1026 0
-842 1025 -1026 0
-842 -1025 1026 0
842 1025 -1027 0
842 -1025 1027 0
-842 1025 1027 0
-842 -1025 -1027 0
837 1027 -1028 0
837 -1027 -1028 0
-837 1027 -1028 0
-837 -1027 1028 0
837 1027 -1029 0
837 -1027 1029 0
-837 1027 1029 0
-837 -1027 -1029 0
1026 1028 -1030 0
1026 -1028 1030 0
-1026 1028 1030 0
-1026 -1028 -1030 0
14 40 -1031 0
14 -40 -1031 0
-14 40 -1031 0
-14 -40 1031 0
848 1031 -1032 0
848 -1031 -1032 0
-848 1031 -1032 0
-848 -1031 1032 0
848 1031 -1033 0
848 -1031 1033 0
-848 1031 1033 0
-848 -1031 -1033 0
843 1033 -1034 0
843 -1033 -1034 0
-843 1033 -1034 0
-843 -1033 1034 0
843 1033 -1035 0
843 -1033 1035 0
-843 1033 1035 0
-843 -1033 -1035 0
1032 1034 -1036 0
1032 -1034 1036 0
-1032 1034 1036 0
-1032 -1034 -1036 0
15 40 -1037 0
15 -40 -1037 0
-15 40 -1037 0
-15 -40 1037 0
854 1037 -1038 0
854 -1037 -1038 0
-854 1037 -1038 0
-854 -1037 1038 0
854 1037 -1039 0
854 -1037 1039 0
-854 1037 1039 0
-854 -1037 -1039 0
849 1039 -1040 0
849 -1039 -1040 0
-849 1039 -1040 0
-849 -1039 1040 0
849 1039 -1041 0
849 -1039 1041 0
-849 1039 1041 0
-849 -1039 -1041 0
1038 1040 -1042 0
1038 -1040 1042 0
-1038 1040 1042 0
-1038 -1040 -1042 0
16 40 -1043 0
16 -40 -1043 0
-16 40 -1043 0
-16 -40 1043 0
860 1043 -1044 0
860 -1043 -1044 0
-860 1043 -1044 0
-860 -1043 1044 0
860 1043 -1045 0
860 -1043 1045 0
-860 1043 1045 0
-860 -1043 -1045 0
855 1045 -1046 0
855 -1045 -1046 0
-855 1045 -1046 0
-855 -1045 1046 0
855 1045 -1047 0
855 -1045 1047 0
-855 1045 1047 0
-855 -1045 -1047 0
1044 1046 -1048 0
1044 -1046 1048 0
-1044 1046 1048 0
-1044 -1046 -1048 0
17 40 -1049 0
17 -40 -1049 0
-17 40 -1049 0
-17 -40 1049 0
866 1049 -1050 0
866 -1049 -1050 0
-866 1049 -1050 0
-866 -1049 1050 0
866 1049 -1051 0
866 -1049 1051 0
-866 1049 1051 0
-866 -1049 -1051 0
861 1051 -1052 0
861 -1051 -1052 0
-861 1051 -1052 0
-861 -1051 1052 0
861 1051 -1053 0
861 -1051 1053 0
-861 1051 1053 0
-861 -1051 -1053 0
1050 1052 -1054 0
1050 -1052 1054 0
-1050 1052 1054 0
-1050 -1052 -1054 0
18 40 -1055 0
18 -40 -1055 0
-18 40 -1055 0
-18 -40 1055 0
872 1055 -1056 0
872 -1055 -1056 0
-872 1055 -1056 0
-872 -1055 1056 0
872 1055 -1057 0
872 -1055 1057 0
-872 1055 1057 0
-872 -1055 -1057 0
867 1057 -1058 0
867 -1057 -1058 0
-867 1057 -1058 0
-867 -1057 1058 0
867 1057 -1059 0
867 -1057 1059 0
-867 1057 1059 0
-867 -1057 -1059 0
1056 1058 -1060 0
1056 -1058 1060 0
-1056 1058 1060 0
-1056 -1058 -1060 0
19 40 -1061 0
19 -40 -1061 0
-19 40 -1061 0
-19 -40 1061 0
878 1061 -1062 0
878 -1061 -1062 0
-878 1061 -1062 0
-878 -1061 1062 0
878 1061 -1063 0
878 -1061 1063 0
-878 1061 1063 0
-878 -1061 -1063 0
873 1063 -1064 0
873 -1063 -1064 0
-873 1063 -1064 0
-873 -1063 1064 0
873 1063 -1065 0
873 -1063 1065 0
-873 1063 1065 0
-873 -1063 -1065 0
1062 1064 -1066 0
1062 -1064 1066 0
-1062 1064 1066 0
-1062 -1064 -1066 0
20 40 -1067 0
20 -40 -1067 0
-20 40 -1067 0
-20 -40 1067 0
884 1067 -1068 0
884 -1067 -1068 0
-884 1067 -1068 0
-884 -1067 1068 0
884 1067 -1069 0
884 -1067 1069 0
-884 1067 1069 0
-884 -1067 -1069 0
879 1069 -1070 0
879 -1069 -1070 0
-879 1069 -1070 0
-879 -1069 1070 0
879 1069 -1071 0
879 -1069 1071 0
-879 1069 1071 0
-879 -1069 -1071 0
1068 1070 -1072 0
1068 -1070 1072 0
-1068 1070 1072 0
-1068 -1070 -1072 0
21 40 -1073 0
21 -40 -1073 0
-21 40 -1073 0
-21 -40 1073 0
890 1073 -1074 0
890 -1073 -1074 0
-890 1073 -1074 0
-890 -1073 1074 0
890 1073 -1075 0
890 -1073 1075 0
-890 1073 1075 0
-890 -1073 -1075 0
885 1075 -1076 0
885 -1075 -1076 0
-885 1075 -1076 0
-885 -1075 1076 0
885 1075 -1077 0
885 -1075 1077 0
-885 1075 1077 0
-885 -1075 -1077 0
1074 1076 -1078 0
1074 -1076 1078 0
-1074 1076 1078 0
-1074 -1076 -1078 0
22 40 -1079 0
22 -40 -1079 0
-22 40 -1079 0
-22 -40 1079 0
896 1079 -1080 0
896 -1079 -1080 0
-896 1079 -1080 0
-896 -1079 1080 0
896 1079 -1081 0
896 -1079 1081 0
-896 1079 1081 0
-896 -1079 -1081 0
891 1081 -1082 0
891 -1081 -1082 0
-891 1081 -1082 0
-891 -1081 1082 0
891 1081 -1083 0
891 -1081 1083 0
-891 1081 1083 0
-891 -1081 -1083 0
1080 1082 -1084 0
1080 -1082 1084 0
-1080 1082 1084 0
-1080 -1082 -1084 0
23 40 -1085 0
23 -40 -1085 0
-23 40 -1085 0
-23 -40 1085 0
902 1085 -1086 0
902 -1085 -1086 0
-902 1085 -1086 0
-902 -1085 1086 0
902 1085 -1087 0
902 -1085 1087 0
-902 1085 1087 0
-902 -1085 -1087 0
897 1087 -1088 0
897 -1087 -1088 0
-897 1087 -1088 0
-897 -1087 1088 0
897 1087 -1089 0
897 -1087 1089 0
-897 1087 1089 0
-897 -1087 -1089 0
1086 1088 -1090 0
1086 -1088 1090 0
-1086 1088 1090 0
-1086 -1088 -1090 0
24 40 -1091 0
24 -40 -1091 0
-24 40 -1091 0
-24 -40 1091 0
908 1091 -1092 0
908 -1091 -1092 0
-908 1091 -1092 0
-908 -1091 1092 0
908 1091 -1093 0
908 -1091 1093 0
-908 1091 1093 0
-908 -1091 -1093 0
903 1093 -1094 0
903 -1093 -1094 0
-903 1093 -1094 0
-903 -1093 1094 0
903 1093 -1095 0
903 -1093 1095 0
-903 1093 1095 0
-903 -1093 -1095 0
1092 1094 -1096 0
1092 -1094 1096 0
-1092 1094 1096 0
-1092 -1094 -1096 0
25 40 -1097 0
25 -40 -1097 0
-25 40 -1097 0
-25 -40 1097 0
914 1097 -1098 0
914 -1097 -1098 0
-914 1097 -1098 0
-914 -1097 1098 0
914 1097 -1099 0
914 -1097 1099 0
-914 1097 1099 0
-914 -1097 -1099 0
909 1099 -1100 0
909 -1099 -1100 0
-909 1099 -1100 0
-909 -1099 1100 0
909 1099 -1101 0
909 -1099 1101 0
-909 1099 1101 0
-909 -1099 -1101 0
1098 1100 -1102 0
1098 -1100 1102 0
-1098 1100 1102 0
-1098 -1100 -1102 0
26 40 -1103 0
26 -40 -1103 0
-26 40 -1103 0
-26 -40 1103 0
920 1103 -1104 0
920 -1103 -1104 0
-920 1103 -1104 0
-920 -1103 1104 0
920 1103 -1105 0
920 -1103 1105 0
-920 1103 1105 0
-920 -1103 -1105 0
915 1105 -1106 0
915 -1105 -1106 0
-915 1105 -1106 0
-915 -1105 1106 0
915 1105 -1107 0
915 -1105 1107 0
-915 1105 1107 0
-915 -1105 -1107 0
1104 1106 -1108 0
1104 -1106 1108 0
-1104 1106 1108 0
-1104 -1106 -1108 0
27 40 -1109 0
27 -40 -1109 0
-27 40 -1109 0
-27 -40 1109 0
926 1109 -1110 0
926 -1109 -1110 0
-926 1109 -1110 0
-926 -1109 1110 0
926 1109 -1111 0
926 -1109 1111 0
-926 1109 1111 0
-926 -1109 -1111 0
921 1111 -1112 0
921 -1111 -1112 0
-921 1111 -1112 0
-921 -1111 1112 0
921 1111 -1113 0
921 -1111 1113 0
-921 1111 1113 0
-921 -1111 -1113 0
1110 1112 -1114 0
1110 -1112 1114 0
-1110 1112 1114 0
-1110 -1112 -1114 0
28 40 -1115 0
28 -40 -1115 0
-28 40 -1115 0
-28 -40 1115 0
932 1115 -1116 0
932 -1115 -1116 0
-932 1115 -1116 0
-932 -1115 1116 0
932 1115 -1117 0
932 -1115 1117 0
-932 1115 1117 0
-932 -1115 -1117 0
927 1117 -1118 0
927 -1117 -1118 0
-927 1117 -1118 0
-927 -1117 1118 0
927 1117 -1119 0
927 -1117 1119 0
-927 1117 1119 0
-927 -1117 -1119 0
1116 1118 -1120 0
1116 -1118 1120 0
-1116 1118 1120 0
-1116 -1118 -1120 0
29 40 -1121 0
29 -40 -1121 0
-29 40 -1121 0
-29 -40 1121 0
938 1121 -1122 0
938 -1121 -1122 0
-938 1121 -1122 0
-938 -1121 1122 0
938 1121 -1123 0
938 -1121 1123 0
-938 1121 1123 0
-938 -1121 -1123 0
933 1123 -1124 0
933 -1123 -1124 0
-933 1123 -1124 0
-933 -1123 1124 0
933 1123 -1125 0
933 -1123 1125 0
-933 1123 1125 0
-933 -1123 -1125 0
1122 1124 -1126 0
1122 -1124 1126 0
-1122 1124 1126 0
-1122 -1124 -1126 0
30 40 -1127 0
30 -40 -1127 0
-30 40 -1127 0
-30 -40 1127 0
944 1127 -1128 0
944 -1127 -1128 0
-944 1127 -1128 0
-944 -1127 1128 0
944 1127 -1129 0
944 -1127 1129 0
-944 1127 1129 0
-944 -1127 -1129 0
939 1129 -1130 0
939 -1129 -1130 0
-939 1129 -1130 0
-939 -1129 1130 0
939 1129 -1131 0
939 -1129 1131 0
-939 1129 1131 0
-939 -1129 -1131 0
1128 1130 -1132 0
1128 -1130 1132 0
-1128 1130 1132 0
-1128 -1130 -1132 0
31 40 -1133 0
31 -40 -1133 0
-31 40 -1133 0
-31 -40 1133 0
950 1133 -1134 0
950 -1133 -1134 0
-950 1133 -1134 0
-950 -1133 1134 0
950 1133 -1135 0
950 -1133 1135 0
-950 1133 1135 0
-950 -1133 -1135 0
945 1135 -1136 0
945 -1135 -1136 0
-945 1135 -1136 0
-945 -1135 1136 0
945 1135 -1137 0
945 -1135 1137 0
-945 1135 1137 0
-945 -1135 -1137 0
1134 1136 -1138 0
1134 -1136 1138 0
-1134 1136 1138 0
-1134 -1136 -1138 0
32 40 -1139 0
32 -40 -1139 0
-32 40 -1139 0
-32 -40 1139 0
952 1139 -1140 0
952 -1139 -1140 0
-952 1139 -1140 0
-952 -1139 1140 0
952 1139 -1141 0
952 -1139 1141 0
-952 1139 1141 0
-952 -1139 -1141 0
951 1141 -1142 0
951 -1141 -1142 0
-951 1141 -1142 0
-951 -1141 1142 0
951 1141 -1143 0
951 -1141 1143 0
-951 1141 1143 0
-951 -1141 -1143 0
1140 1142 -1144 0
1140 -1142 1144 0
-1140 1142 1144 0
-1140 -1142 -1144 0
33 40 -1145 0
33 -40 -1145 0
-33 40 -1145 0
-33 -40 1145 0
1 41 -1146 0
1 -41 -1146 0
-1 41 -1146 0
-1 -41 1146 0
963 1146 -1147 0
963 -1146 -1147 0
-963 1146 -1147 0
-963 -1146 1147 0
963 1146 -1148 0
963 -1146 1148 0
-963 1146 1148 0
-963 -1146 -1148 0
958 1148 -1149 0
958 -1148 -1149 0
-958 1148 -1149 0
-958 -1148 1149 0
958 1148 -1150 0
958 -1148 1150 0
-958 1148 1150 0
-958 -1148 -1150 0
1147 1149 -1151 0
1147 -1149 1151 0
-1147 1149 1151 0
-1147 -1149 -1151 0
2 41 -1152 0
2 -41 -1152 0
-2 41 -1152 0
-2 -41 1152 0
969 1152 -1153 0
969 -1152 -1153 0
-969 1152 -1153 0
-969 -1152 1153 0
969 1152 -1154 0
969 -1152 1154 0
-969 1152 1154 0
-969 -1152 -1154 0
964 1154 -1155 0
964 -1154 -1155 0
-964 1154 -1155 0
-964 -1154 1155 0
964 1154 -1156 0
964 -1154 1156 0
-964 1154 1156 0
-964 -1154 -1156 0
1153 1155 -1157 0
1153 -1155 1157 0
-1153 1155 1157 0
-1153 -1155 -1157 0
3 41 -1158 0
3 -41 -1158 0
-3 41 -1158 0
-3 -41 1158 0
975 1158 -1159 0
975 -1158 -1159 0
-975 1158 -1159 0
-975 -1158 1159 0
975 1158 -1160 0
975 -1158 1160 0
-975 1158 1160 0
-975 -1158 -1160 0
970 1160 -1161 0
970 -1160 -1161 0
-970 1160 -1161 0
-970 -1160 1161 0
970 1160 -1162 0
970 -1160 1162 0
-970 1160 1162 0
-970 -1160 -1162 0
1159 1161 -1163 0
1159 -1161 1163 0
-1159 1161 1163 0
-1159 -1161 -1163 0
4 41 -1164 0
4 -41 -1164 0
-4 41 -1164 0
-4 -41 1164 0
981 1164 -1165 0
981 -1164 -1165 0
-981 1164 -1165 0
-981 -1164 1165 0
981 1164 -1166 0
981 -1164 1166 0
-981 1164 1166 0
-981 -1164 -1166 0
976 1166 -1167 0
976 -1166 -1167 0
-976 1166 -1167 0
-976 -1166 1167 0
976 1166 -1168 0
976 -1166 1168 0
-976 1166 1168 0
-976 -1166 -1168 0
1165 1167 -1169 0
1165 -1167 1169 0
-1165 1167 1169 0
-1165 -1167 -1169 0
5 41 -1170 0
5 -41 -1170 0
-5 41 -1170 0
-5 -41 1170 0
987 1170 -1171 0
987 -1170 -1171 0
-987 1170 -1171 0
-987 -1170 1171 0
987 1170 -1172 0
987 -1170 1172 0
-987 1170 1172 0
-987 -1170 -1172 0
982 1172 -1173 0
982 -1172 -1173 0
-982 1172 -1173 0
-982 -1172 1173 0
982 1172 -1174 0
982 -1172 1174 0
-982 1172 1174 0
-982 -1172 -1174 0
1171 1173 -1175 0
1171 -1173 1175 0
-1171 1173 1175 0
-1171 -1173 -1175 0
6 41 -1176 0
6 -41 -1176 0
-6 41 -1176 0
-6 -41 1176 0
993 1176 -1177 0
993 -1176 -1177 0
-993 1176 -1177 0
-993 -1176 1177 0
993 1176 -1178 0
993 -1176 1178 0
-993 1176 1178 0
-993 -1176 -1178 0
988 1178 -1179 0
988 -1178 -1179 0
-988 1178 -1179 0
-988 -1178 1179 0
988 1178 -1180 0
988 -1178 1180 0
-988 1178 1180 0
-988 -1178 -1180 0
1177 1179 -1181 0
1177 -1179 1181 0
-1177 1179 1181 0
-1177 -1179 -1181 0
7 41 -1182 0
7 -41 -1182 0
-7 41 -1182 0
-7 -41 1182 0
999 1182 -1183 0
999 -1182 -1183 0
-999 1182 -1183 0
-999 -1182 1183 0
999 1182 -1184 0
999 -1182 1184 0
-999 1182 1184 0
-999 -1182 -1184 0
994 1184 -1185 0
994 -1184 -1185 0
-994 1184 -1185 0
-994 -1184 1185 0
994 1184 -1186 0
994 -1184 1186 0
-994 1184 1186 0
-994 -1184 -1186 0
1183 1185 -1187 0
1183 -1185 1187 0
-1183 1185 1187 0
-1183 -1185 -1187 0
8 41 -1188 0
8 -41 -1188 0
-8 41 -1188 0
-8 -41 1188 0
1005 1188 -1189 0
1005 -1188 -1189 0
-1005 1188 -1189 0
-1005 -1188 1189 0
1005 1188 -1190 0
1005 -1188 1190 0
-1005 1188 1190 0
-1005 -1188 -1190 0
1000 1190 -1191 0
1000 -1190 -1191 0
-1000 1190 -1191 0
-1000 -1190 1191 0
1000 1190 -1192 0
1000 -1190 1192 0
-1000 1190 1192 0
-1000 -1190 -1192 0
1189 1191 -1193 0
1189 -1191 1193 0
-1189 1191 1193 0
-1189 -1191 -1193 0
9 41 -1194 0
9 -41 -1194 0
-9 41 -1194 0
-9 -41 1194 0
1011 1194 -1195 0
1011 -1194 -1195 0
-1011 1194 -1195 0
-1011 -1194 1195 0
1011 1194 -1196 0
1011 -1194 1196 0
-1011 1194 1196 0
-1011 -1194 -1196 0
1006 1196 -1197 0
1006 -1196 -1197 0
-1006 1196 -1197 0
-1006 -1196 1197 0
1006 1196 -1198 0
1006 -1196 1198 0
-1006 1196 1198 0
-1006 -1196 -1198 0
1195 1197 -1199 0
1195 -1197 1199 0
-1195 1197 1199 0
-1195 -1197 -1199 0
10 41 -1200 0
10 -41 -1200 0
-10 41 -1200 0
-10 -41 1200 0
1017 1200 -1201 0
1017 -1200 -1201 0
-1017 1200 -1201 0
-1017 -1200 1201 0
1017 1200 -1202 0
1017 -1200 1202 0
-1017 1200 1202 0
-1017 -1200 -1202 0
1012 1202 -1203 0
1012 -1202 -1203 0
-1012 1202 -1203 0
-1012 -1202 1203 0
1012 1202 -1204 0
1012 -1202 1204 0
-1012 1202 1204 0
-1012 -1202 -1204 0
1201 1203 -1205 0
1201 -1203 1205 0
-1201 1203 1205 0
-1201 -1203 -1205 0
11 41 -1206 0
11 -41 -1206 0
-11 41 -1206 0
-11 -41 1206 0
1023 1206 -1207 0
1023 -1206 -1207 0
-1023 1206 -1207 0
-1023 -1206 1207 0
1023 1206 -1208 0
1023 -1206 1208 0
-1023 1206 1208 0
-1023 -1206 -1208 0
1018 1208 -1209 0
1018 -1208 -1209 0
-1018 1208 -1209 0
-1018 -1208 1209 0
1018 1208 -1210 0
1018 -1208 1210 0
-1018 1208 1210 0
-1018 -1208 -1210 0
1207 1209 -1211 0
1207 -1209 1211 0
-1207 1209 1211 0
-1207 -1209 -1211 0
12 41 -1212 0
12 -41 -1212 0
-12 41 -1212 0
-12 -41 1212 0
1029 1212 -1213 0
1029 -1212 -1213 0
-1029 1212 -1213 0
-1029 -1212 1213 0
1029 1212 -1214 0
1029 -1212 1214 0
-1029 1212 1214 0
-1029 -1212 -1214 0
1024 1214 -1215 0
1024 -1214 -1215 0
-1024 1214 -1215 0
-1024 -1214 1215 0
1024 1214 -1216 0
1024 -1214 1216 0
-1024 1214 1216 0
-1024 -1214 -1216 0
1213 1215 -1217 0
1213 -1215 1217 0
-1213 1215 1217 0
-1213 -1215 -1217 0
13 41 -1218 0
13 -41 -1218 0
-13 41 -1218 0
-13 -41 1218 0
1035 1218 -1219 0
1035 -1218 -1219 0
-1035 1218 -1219 0
-1035 -1218 1219 0
1035 1218 -1220 0
1035 -1218 1220 0
-1035 1218 1220 0
-1035 -1218 -1220 0
1030 1220 -1221 0
1030 -1220 -1221 0
-1030 1220 -1221 0
-1030 -1220 1221 0
1030 1220 -1222 0
1030 -1220 1222 0
-1030 1220 1222 0
-1030 -1220 -1222 0
1219 1221 -1223 0
1219 -1221 1223 0
-1219 1221 1223 0
-1219 -1221 -1223 0
14 41 -1224 0
14 -41 -1224 0
-14 41 -1224 0
-14 -41 1224 0
1041 1224 -1225 0
1041 -1224 -1225 0
-1041 1224 -1225 0
-1041 -1224 1225 0
1041 1224 -1226 0
1041 -1224 1226 0
-1041 1224 1226 0
-1041 -1224 -1226 0
1036 1226 -1227 0
1036 -1226 -1227 0
-1036 1226 -1227 0
-1036 -1226 1227 0
1036 1226 -1228 0
1036 -1226 1228 0
-1036 1226 1228 0
-1036 -1226 -1228 0
1225 1227 -1229 0
1225 -1227 1229 0
-1225 1227 1229 0
-1225 -1227 -1229 0
15 41 -1230 0
15 -41 -1230 0
-15 41 -1230 0
-15 -41 1230 0
1047 1230 -1231 0
1047 -1230 -1231 0
-1047 1230 -1231 0
-1047 -1230 1231 0
1047 1230 -1232 0
1047 -1230 1232 0
-1047 1230 1232 0
-1047 -1230 -1232 0
1042 1232 -1233 0
1042 -1232 -1233 0
-1042 1232 -1233 0
-1042 -1232 1233 0
1042 1232 -1234 0
1042 -1232 1234 0
-1042 1232 1234 0
-1042 -1232 -1234 0
1231 1233 -1235 0
1231 -1233 1235 0
-1231 1233 1235 0
-1231 -1233 -1235 0
16 41 -1236 0
16 -41 -1236 0
-16 41 -1236 0
-16 -41 1236 0
1053 1236 -1237 0
1053 -1236 -1237 0
-1053 1236 -1237 0
-1053 -1236 1237 0
1053 1236 -1238 0
1053 -1236 1238 0
-1053 1236 1238 0
-1053 -1236 -1238 0
1048 1238 -1239 0
1048 -1238 -1239 0
-1048 1238 -1239 0
-1048 -1238 1239 0
1048 1238 -1240 0
1048 -1238 1240 0
-1048 1238 1240 0
-1048 -1238 -1240 0
1237 1239 -1241 0
1237 -1239 1241 0
-1237 1239 1241 0
-1237 -1239 -1241 0
17 41 -1242 0
17 -41 -1242 0
-17 41 -1242 0
-17 -41 1242 0
1059 1242 -1243 0
1059 -1242 -1243 0
-1059 1242 -1243 0
-1059 -1242 1243 0
1059 1242 -1244 0
1059 -1242 1244 0
-1059 1242 1244 0
-1059 -1242 -1244 0
1054 1244 -1245 0
1054 -1244 -1245 0
-1054 1244 -1245 0
-1054 -1244 1245 0
1054 1244 -1246 0
1054 -1244 1246 0
-1054 1244 1246 0
-1054 -1244 -1246 0
1243 1245 -1247 0
1243 -1245 1247 0
-1243 1245 1247 0
-1243 -1245 -1247 0
18 41 -1248 0
18 -41 -1248 0
-18 41 -1248 0
-18 -41 1248 0
1065 1248 -1249 0
1065 -1248 -1249 0
-1065 1248 -1249 0
-1065 -1248 1249 0
1065 1248 -1250 0
1065 -1248 1250 0
-1065 1248 1250 0
-1065 -1248 -1250 0
1060 1250 -1251 0
1060 -1250 -1251 0
-1060 1250 -1251 0
-1060 -1250 1251 0
1060 1250 -1252 0
1060 -1250 1252 0
-1060 1250 1252 0
-1060 -1250 -1252 0
1249 1251 -1253 0
1249 -1251 1253 0
-1249 1251 1253 0
-1249 -1251 -1253 0
19 41 -1254 0
19 -41 -1254 0
-19 41 -1254 0
-19 -41 1254 0
1071 1254 -1255 0
1071 -1254 -1255 0
-1071 1254 -1255 0
-1071 -1254 1255 0
1071 1254 -1256 0
1071 -1254 1256 0
-1071 1254 1256 0
-1071 -1254 -1256 0
1066 1256 -1257 0
1066 -1256 -1257 0
-1066 1256 -1257 0
-1066 -1256 1257 0
1066 1256 -1258 0
1066 -1256 1258 0
-1066 1256 1258 0
-1066 -1256 -1258 0
1255 1257 -1259 0
1255 -1257 1259 0
-1255 1257 1259 0
-1255 -1257 -1259 0
20 41 -1260 0
20 -41 -1260 0
-20 41 -1260 0
-20 -41 1260 0
1077 1260 -1261 0
1077 -1260 -1261 0
-1077 1260 -1261 0
-1077 -1260 1261 0
1077 1260 -1262 0
1077 -1260 1262 0
-1077 1260 1262 0
-1077 -1260 -1262 0
1072 1262 -1263 0
1072 -1262 -1263 0
-1072 1262 -1263 0
-1072 -1262 1263 0
1072 1262 -1264 0
1072 -1262 1264 0
-1072 1262 1264 0
-1072 -1262 -1264 0
1261 1263 -1265 0
1261 -1263 1265 0
-1261 1263 1265 0
-1261 -1263 -1265 0
21 41 -1266 0
21 -41 -1266 0
-21 41 -1266 0
-21 -41 1266 0
1083 1266 -1267 0
1083 -1266 -1267 0
-1083 1266 -1267 0
-1083 -1266 1267 0
1083 1266 -1268 0
1083 -1266 1268 0
-1083 1266 1268 0
-1083 -1266 -1268 0
1078 1268 -1269 0
1078 -1268 -1269 0
-1078 1268 -1269 0
-1078 -1268 1269 0
1078 1268 -1270 0
1078 -1268 1270 0
-1078 1268 1270 0
-1078 -1268 -1270 0
1267 1269 -1271 0
1267 -1269 1271 0
-1267 1269 1271 0
-1267 -1269 -1271 0
22 41 -1272 0
22 -41 -1272 0
-22 41 -1272 0
-22 -41 1272 0
1089 1272 -1273 0
1089 -1272 -1273 0
-1089 1272 -1273 0
-1089 -1272 1273 0
1089 1272 -1274 0
1089 -1272 1274 0
-1089 1272 1274 0
-1089 -1272 -1274 0
1084 1274 -1275 0
1084 -1274 -1275 0
-1084 1274 -1275 0
-1084 -1274 1275 0
1084 1274 -1276 0
1084 -1274 1276 0
-1084 1274 1276 0
-1084 -1274 -1276 0
1273 1275 -1277 0
1273 -1275 1277 0
-1273 1275 1277 0
-1273 -1275 -1277 0
23 41 -1278 0
23 -41 -1278 0
-23 41 -1278 0
-23 -41 1278 0
1095 1278 -1279 0
1095 -1278 -1279 0
-1095 1278 -1279 0
-1095 -1278 1279 0
1095 1278 -1280 0
1095 -1278 1280 0
-1095 1278 1280 0
-1095 -1278 -1280 0
1090 1280 -1281 0
1090 -1280 -1281 0
-1090 1280 -1281 0
-1090 -1280 1281 0
1090 1280 -1282 0
1090 -1280 1282 0
-1090 1280 1282 0
-1090 -1280 -1282 0
1279 1281 -1283 0
1279 -1281 1283 0
-1279 1281 1283 0
-1279 -1281 -1283 0
24 41 -1284 0
24 -41 -1284 0
-24 41 -1284 0
-24 -41 1284 0
1101 1284 -1285 0
1101 -1284 -1285 0
-1101 1284 -1285 0
-1101 -1284 1285 0
1101 1284 -1286 0
1101 -1284 1286 0
-1101 1284 1286 0
-1101 -1284 -1286 0
1096 1286 -1287 0
1096 -1286 -1287 0
-1096 1286 -1287 0
-1096 -1286 1287 0
1096 1286 -1288 0
1096 -1286 1288 0
-1096 1286 1288 0
-1096 -1286 -1288 0
1285 1287 -1289 0
1285 -1287 1289 0
-1285 1287 1289 0
-1285 -1287 -1289 0
25 41 -1290 0
25 -41 -1290 0
-25 41 -1290 0
-25 -41 1290 0
1107 1290 -1291 0
1107 -1290 -1291 0
-1107 1290 -1291 0
-1107 -1290 1291 0
1107 1290 -1292 0
1107 -1290 1292 0
-1107 1290 1292 0
-1107 -1290 -1292 0
1102 1292 -1293 0
1102 -1292 -1293 0
-1102 1292 -1293 0
-1102 -1292 1293 0
1102 1292 -1294 0
1102 -1292 1294 0
-1102 1292 1294 0
-1102 -1292 -1294 0
1291 1293 -1295 0
1291 -1293 1295 0
-1291 1293 1295 0
-1291 -1293 -1295 0
26 41 -1296 0
26 -41 -1296 0
-26 41 -1296 0
-26 -41 1296 0
1113 1296 -1297 0
1113 -1296 -1297 0
-1113 1296 -1297 0
-1113 -1296 1297 0
1113 1296 -1298 0
1113 -1296 1298 0
-1113 1296 1298 0
-1113 -1296 -1298 0
1108 1298 -1299 0
1108 -1298 -1299 0
-1108 1298 -1299 0
-1108 -1298 1299 0
1108 1298 -1300 0
1108 -1298 1300 0
-1108 1298 1300 0
-1108 -1298 -1300 0
1297 1299 -1301 0
1297 -1299 1301 0
-1297 1299 1301 0
-1297 -1299 -1301 0
27 41 -1302 0
27 -41 -1302 0
-27 41 -1302 0
-27 -41 1302 0
1119 1302 -1303 0
1119 -1302 -1303 0
-1119 1302 -1303 0
-1119 -1302 1303 0
1119 1302 -1304 0
1119 -1302 1304 0
-1119 1302 1304 0
-1119 -1302 -1304 0
1114 1304 -1305 0
1114 -1304 -1305 0
-1114 1304 -1305 0
-1114 -1304 1305 0
1114 1304 -1306 0
1114 -1304 1306 0
-1114 1304 1306 0
-1114 -1304 -1306 0
1303 1305 -1307 0
1303 -1305 1307 0
-1303 1305 1307 0
-1303 -1305 -1307 0
28 41 -1308 0
28 -41 -1308 0
-28 41 -1308 0
-28 -41 1308 0
1125 1308 -1309 0
1125 -1308 -1309 0
-1125 1308 -1309 0
-1125 -1308 1309 0
1125 1308 -1310 0
1125 -1308 1310 0
-1125 1308 1310 0
-1125 -1308 -1310 0
1120 1310 -1311 0
1120 -1310 -1311 0
-1120 1310 -1311 0
-1120 -1310 1311 0
1120 1310 -1312 0
1120 -1310 1312 0
-1120 1310 1312 0
-1120 -1310 -1312 0
1309 1311 -1313 0
1309 -1311 1313 0
-1309 1311 1313 0
-1309 -1311 -1313 0
29 41 -1314 0
29 -41 -1314 0
-29 41 -1314 0
-29 -41 1314 0
1131 1314 -1315 0
1131 -1314 -1315 0
-1131 1314 -1315 0
-1131 -1314 1315 0
1131 1314 -1316 0
1131 -1314 1316 0
-1131 1314 1316 0
-1131 -1314 -1316 0
1126 1316 -1317 0
1126 -1316 -1317 0
-1126 1316 -1317 0
-1126 -1316 1317 0
1126 1316 -1318 0
1126 -1316 1318 0
-1126 1316 1318 0
-1126 -1316 -1318 0
1315 1317 -1319 0
1315 -1317 1319 0
-1315 1317 1319 0
-1315 -1317 -1319 0
30 41 -1320 0
30 -41 -1320 0
-30 41 -1320 0
-30 -41 1320 0
1137 1320 -1321 0
1137 -1320 -1321 0
-1137 1320 -1321 0
-1137 -1320 1321 0
1137 1320 -1322 0
1137 -1320 1322 0
-1137 1320 1322 0
-1137 -1320 -1322 0
1132 1322 -1323 0
1132 -1322 -1323 0
-1132 1322 -1323 0
-1132 -1322 1323 0
1132 1322 -1324 0
1132 -1322 1324 0
-1132 1322 1324 0
-1132 -1322 -1324 0
1321 1323 -1325 0
1321 -1323 1325 0
-1321 1323 1325 0
-1321 -1323 -1325 0
31 41 -1326 0
31 -41 -1326 0
-31 41 -1326 0
-31 -41 1326 0
1143 1326 -1327 0
1143 -1326 -1327 0
-1143 1326 -1327 0
-1143 -1326 1327 0
1143 1326 -1328 0
1143 -1326 1328 0
-1143 1326 1328 0
-1143 -1326 -1328 0
1138 1328 -1329 0
1138 -1328 -1329 0
-1138 1328 -1329 0
-1138 -1328 1329 0
1138 1328 -1330 0
1138 -1328 1330 0
-1138 1328 1330 0
-1138 -1328 -1330 0
1327 1329 -1331 0
1327 -1329 1331 0
-1327 1329 1331 0
-1327 -1329 -1331 0
32 41 -1332 0
32 -41 -1332 0
-32 41 -1332 0
-32 -41 1332 0
1145 1332 -1333 0
1145 -1332 -1333 0
-1145 1332 -1333 0
-1145 -1332 1333 0
1145 1332 -1334 0
1145 -1332 1334 0
-1145 1332 1334 0
-1145 -1332 -1334 0
1144 1334 -1335 0
1144 -1334 -1335 0
-1144 1334 -1335 0
-1144 -1334 1335 0
1144 1334 -1336 0
1144 -1334 1336 0
-1144 1334 1336 0
-1144 -1334 -1336 0
1333 1335 -1337 0
1333 -1335 1337 0
-1333 1335 1337 0
-1333 -1335 -1337 0
33 41 -1338 0
33 -41 -1338 0
-33 41 -1338 0
-33 -41 1338 0
1 42 -1339 0
1 -42 -1339 0
-1 42 -1339 0
-1 -42 1339 0
1156 1339 -1340 0
1156 -1339 -1340 0
-1156 1339 -1340 0
-1156 -1339 1340 0
1156 1339 -1341 0
1156 -1339 1341 0
-1156 1339 1341 0
-1156 -1339 -1341 0
1151 1341 -1342 0
1151 -1341 -1342 0
-1151 1341 -1342 0
-1151 -1341 1342 0
1151 1341 -1343 0
1151 -1341 1343 0
-1151 1341 1343 0
-1151 -1341 -1343 0
1340 1342 -1344 0
1340 -1342 1344 0
-1340 1342 1344 0
-1340 -1342 -1344 0
2 42 -1345 0
2 -42 -1345 0
-2 42 -1345 0
-2 -42 1345 0
1162 1345 -1346 0
1162 -1345 -1346 0
-1162 1345 -1346 0
-1162 -1345 1346 0
1162 1345 -1347 0
1162 -1345 1347 0
-1162 1345 1347 0
-1162 -1345 -1347 0
1157 1347 -1348 0
1157 -1347 -1348 0
-1157 1347 -1348 0
-1157 -1347 1348 0
1157 1347 -1349 0
1157 -1347 1349 0
-1157 1347 1349 0
-1157 -1347 -1349 0
1346 1348 -1350 0
1346 -1348 1350 0
-1346 1348 1350 0
-1346 -1348 -1350 0
3 42 -1351 0
3 -42 -1351 0
-3 42 -1351 0
-3 -42 1351 0
1168 1351 -1352 0
1168 -1351 -1352 0
-1168 1351 -1352 0
-1168 -1351 1352 0
1168 1351 -1353 0
1168 -1351 1353 0
-1168 1351 1353 0
-1168 -1351 -1353 0
1163 1353 -1354 0
1163 -1353 -1354 0
-1163 1353 -1354 0
-1163 -1353 1354 0
1163 1353 -1355 0
1163 -1353 1355 0
-1163 1353 1355 0
-1163 -1353 -1355 0
1352 1354 -1356 0
1352 -1354 1356 0
-1352 1354 1356 0
-1352 -1354 -1356 0
4 42 -1357 0
4 -42 -1357 0
-4 42 -1357 0
-4 -42 1357 0
1174 1357 -1358 0
1174 -1357 -1358 0
-1174 1357 -1358 0
-1174 -1357 1358 0
1174 1357 -1359 0
1174 -1357 1359 0
-1174 1357 1359 0
-1174 -1357 -1359 0
1169 1359 -1360 0
1169 -1359 -1360 0
-1169 1359 -1360 0
-1169 -1359 1360 0
1169 1359 -1361 0
1169 -1359 1361 0
-1169 1359 1361 0
-1169 -1359 -1361 0
1358 1360 -1362 0
1358 -1360 1362 0
-1358 1360 1362 0
-1358 -1360 -1362 0
5 42 -1363 0
5 -42 -1363 0
-5 42 -1363 0
-5 -42 1363 0
1180 1363 -1364 0
1180 -1363 -1364 0
-1180 1363 -1364 0
-1180 -1363 1364 0
1180 1363 -1365 0
1180 -1363 1365 0
-1180 1363 1365 0
-1180 -1363 -1365 0
1175 1365 -1366 0
1175 -1365 -1366 0
-1175 1365 -1366 0
-1175 -1365 1366 0
1175 1365 -1367 0
1175 -1365 1367 0
-1175 1365 1367 0
-1175 -1365 -1367 0
1364 1366 -1368 0
1364 -1366 1368 0
-1364 1366 1368 0
-1364 -1366 -1368 0
6 42 -1369 0
6 -42 -1369 0
-6 42 -1369 0
-6 -42 1369 0
1186 1369 -1370 0
1186 -1369 -1370 0
-1186 1369 -1370 0
-1186 -1369 1370 0
1186 1369 -1371 0
1186 -1369 1371 0
-1186 1369 1371 0
-1186 -1369 -1371 0
1181 1371 -1372 0
1181 -1371 -1372 0
-1181 1371 -1372 0
-1181 -1371 1372 0
1181 1371 -1373 0
1181 -1371 1373 0
-1181 1371 1373 0
-1181 -1371 -1373 0
1370 1372 -1374 0
1370 -1372 1374 0
-1370 1372 1374 0
-1370 -1372 -1374 0
7 42 -1375 0
7 -42 -1375 0
-7 42 -1375 0
-7 -42 1375 0
1192 1375 -1376 0
1192 -1375 -1376 0
-1192 1375 -1376 0
-1192 -1375 1376 0
1192 1375 -1377 0
1192 -1375 1377 0
-1192 1375 1377 0
-1192 -1375 -1377 0
1187 1377 -1378 0
1187 -1377 -1378 0
-1187 1377 -1378 0
-1187 -1377 1378 0
1187 1377 -1379 0
1187 -1377 1379 0
-1187 1377 1379 0
-1187 -1377 -1379 0
1376 1378 -1380 0
1376 -1378 1380 0
-1376 1378 1380 0
-1376 -1378 -1380 0
8 42 -1381 0
8 -42 -1381 0
-8 42 -1381 0
-8 -42 1381 0
1198 1381 -1382 0
1198 -1381 -1382 0
-1198 1381 -1382 0
-1198 -1381 1382 0
1198 1381 -1383 0
1198 -1381 1383 0
-1198 1381 1383 0
-1198 -1381 -1383 0
1193 1383 -1384 0
1193 -1383 -1384 0
-1193 1383 -1384 0
-1193 -1383 1384 0
1193 1383 -1385 0
1193 -1383 1385 0
-1193 1383 1385 0
-1193 -1383 -1385 0
1382 1384 -1386 0
1382 -1384 1386 0
-1382 1384 1386 0
-1382 -1384 -1386 0
9 42 -1387 0
9 -42 -1387 0
-9 42 -1387 0
-9 -42 1387 0
1204 1387 -1388 0
1204 -1387 -1388 0
-1204 1387 -1388 0
-1204 -1387 1388 0
1204 1387 -1389 0
1204 -1387 1389 0
-1204 1387 1389 0
-1204 -1387 -1389 0
1199 1389 -1390 0
1199 -1389 -1390 0
-1199 1389 -1390 0
-1199 -1389 1390 0
1199 1389 -1391 0
1199 -1389 1391 0
-1199 1389 1391 0
-1199 -1389 -1391 0
1388 1390 -1392 0
1388 -1390 1392 0
-1388 1390 1392 0
-1388 -1390 -1392 0
10 42 -1393 0
10 -42 -1393 0
-10 42 -1393 0
-10 -42 1393 0
1210 1393 -1394 0
1210 -1393 -1394 0
-1210 1393 -1394 0
-1210 -1393 1394 0
1210 1393 -1395 0
1210 -1393 1395 0
-1210 1393 1395 0
-1210 -1393 -1395 0
1205 1395 -1396 0
1205 -1395 -1396 0
-1205 1395 -1396 0
-1205 -1395 1396 0
1205 1395 -1397 0
1205 -1395 1397 0
-1205 1395 1397 0
-1205 -1395 -1397 0
1394 1396 -1398 0
1394 -1396 1398 0
-1394 1396 1398 0
-1394 -1396 -1398 0
11 42 -1399 0
11 -42 -1399 0
-11 42 -1399 0
-11 -42 1399 0
1216 1399 -1400 0
1216 -1399 -1400 0
-1216 1399 -1400 0
-1216 -1399 1400 0
1216 1399 -1401 0
1216 -1399 1401 0
-1216 1399 1401 0
-1216 -1399 -1401 0
1211 1401 -1402 0
1211 -1401 -1402 0
-1211 1401 -1402 0
-1211 -1401 1402 0
1211 1401 -1403 0
1211 -1401 1403 0
-1211 1401 1403 0
-1211 -1401 -1403 0
1400 1402 -1404 0
1400 -1402 1404 0
-1400 1402 1404 0
-1400 -1402 -1404 0
12 42 -1405 0
12 -42 -1405 0
-12 42 -1405 0
-12 -42 1405 0
1222 1405 -1406 0
1222 -1405 -1406 0
-1222 1405 -1406 0
-1222 -1405 1406 0
1222 1405 -1407 0
1222 -1405 1407 0
-1222 1405 1407 0
-1222 -1405 -1407 0
1217 1407 -1408 0
1217 -1407 -1408 0
-1217 1407 -1408 0
-1217 -1407 1408 0
1217 1407 -1409 0
1217 -1407 1409 0
-1217 1407 1409 0
-1217 -1407 -1409 0
1406 1408 -1410 0
1406 -1408 1410 0
-1406 1408 1410 0
-1406 -1408 -1410 0
13 42 -1411 0
13 -42 -1411 0
-13 42 -1411 0
-13 -42 1411 0
1228 1411 -1412 0
1228 -1411 -1412 0
-1228 1411 -1412 0
-1228 -1411 1412 0
1228 1411 -1413 0
1228 -1411 1413 0
-1228 1411 1413 0
-1228 -1411 -1413 0
1223 1413 -1414 0
1223 -1413 -1414 0
-1223 1413 -1414 0
-1223 -1413 1414 0
1223 1413 -1415 0
1223 -1413 1415 0
-1223 1413 1415 0
-1223 -1413 -1415 0
1412 1414 -1416 0
1412 -1414 1416 0
-1412 1414 1416 0
-1412 -1414 -1416 0
14 42 -1417 0
14 -42 -1417 0
-14 42 -1417 0
-14 -42 1417 0
1234 1417 -1418 0
1234 -1417 -1418 0
-1234 1417 -1418 0
-1234 -1417 1418 0
1234 1417 -1419 0
1234 -1417 1419 0
-1234 1417 1419 0
-1234 -1417 -1419 0
1229 1419 -1420 0
1229 -1419 -1420 0
-1229 1419 -1420 0
-1229 -1419 1420 0
1229 1419 -1421 0
1229 -1419 1421 0
-1229 1419 1421 0
-1229 -1419 -1421 0
1418 1420 -1422 0
1418 -1420 1422 0
-1418 1420 1422 0
-1418 -1420 -1422 0
15 42 -1423 0
15 -42 -1423 0
-15 42 -1423 0
-15 -42 1423 0
1240 1423 -1424 0
1240 -1423 -1424 0
-1240 1423 -1424 0
-1240 -1423 1424 0
1240 1423 -1425 0
1240 -1423 1425 0
-1240 1423 1425 0
-1240 -1423 -1425 0
1235 1425 -1426 0
1235 -1425 -1426 0
-1235 1425 -1426 0
-1235 -1425 1426 0
1235 1425 -1427 0
1235 -1425 1427 0
-1235 1425 1427 0
-1235 -1425 -1427 0
1424 1426 -1428 0
1424 -1426 1428 0
-1424 1426 1428 0
-1424 -1426 -1428 0
16 42 -1429 0
16 -42 -1429 0
-16 42 -1429 0
-16 -42 1429 0
1246 1429 -1430 0
1246 -1429 -1430 0
-1246 1429 -1430 0
-1246 -1429 1430 0
1246 1429 -1431 0
1246 -1429 1431 0
-1246 1429 1431 0
-1246 -1429 -1431 0
1241 1431 -1432 0
1241 -1431 -1432 0
-1241 1431 -1432 0
-1241 -1431 1432 0
1241 1431 -1433 0
1241 -1431 1433 0
-1241 1431 1433 0
-1241 -1431 -1433 0
1430 1432 -1434 0
1430 -1432 1434 0
-1430 1432 1434 0
-1430 -1432 -1434 0
17 42 -1435 0
17 -42 -1435 0
-17 42 -1435 0
-17 -42 1435 0
1252 1435 -1436 0
1252 -1435 -1436 0
-1252 1435 -1436 0
-1252 -1435 1436 0
1252 1435 -1437 0
1252 -1435 1437 0
-1252 1435 1437 0
-1252 -1435 -1437 0
1247 1437 -1438 0
1247 -1437 -1438 0
-1247 1437 -1438 0
-1247 -1437 1438 0
1247 1437 -1439 0
1247 -1437 1439 0
-1247 1437 1439 0
-1247 -1437 -1439 0
1436 1438 -1440 0
1436 -1438 1440 0
-1436 1438 1440 0
-1436 -1438 -1440 0
18 42 -1441 0
18 -42 -1441 0
-18 42 -1441 0
-18 -42 1441 0
1258 1441 -1442 0
1258 -1441 -1442 0
-1258 1441 -1442 0
-1258 -1441 1442 0
1258 1441 -1443 0
1258 -1441 1443 0
-1258 1441 1443 0
-1258 -1441 -1443 0
1253 1443 -1444 0
1253 -1443 -1444 0
-1253 1443 -1444 0
-1253 -1443 1444 0
1253 1443 -1445 0
1253 -1443 1445 0
-1253 1443 1445 0
-1253 -1443 -1445 0
1442 1444 -1446 0
1442 -1444 1446 0
-1442 1444 1446 0
-1442 -1444 -1446 0
19 42 -1447 0
19 -42 -1447 0
-19 42 -1447 0
-19 -42 1447 0
1264 1447 -1448 0
1264 -1447 -1448 0
-1264 1447 -1448 0
-1264 -1447 1448 0
1264 1447 -1449 0
1264 -1447 1449 0
-1264 1447 1449 0
-1264 -1447 -1449 0
1259 1449 -1450 0
1259 -1449 -1450 0
-1259 1449 -1450 0
-1259 -1449 1450 0
1259 1449 -1451 0
1259 -1449 1451 0
-1259 1449 1451 0
-1259 -1449 -1451 0
1448 1450 -1452 0
1448 -1450 1452 0
-1448 1450 1452 0
-1448 -1450 -1452 0
20 42 -1453 0
20 -42 -1453 0
-20 42 -1453 0
-20 -42 1453 0
1270 1453 -1454 0
1270 -1453 -1454 0
-1270 1453 -1454 0
-1270 -1453 1454 0
1270 1453 -1455 0
1270 -1453 1455 0
-1270 1453 1455 0
-1270 -1453 -1455 0
1265 1455 -1456 0
1265 -1455 -1456 0
-1265 1455 -1456 0
-1265 -1455 1456 0
1265 1455 -1457 0
1265 -1455 1457 0
-1265 1455 1457 0
-1265 -1455 -1457 0
1454 1456 -1458 0
1454 -1456 1458 0
-1454 1456 1458 0
-1454 -1456 -1458 0
21 42 -1459 0
21 -42 -1459 0
-21 42 -1459 0
-21 -42 1459 0
1276 1459 -1460 0
1276 -1459 -1460 0
-1276 1459 -1460 0
-1276 -1459 1460 0
1276 1459 -1461 0
1276 -1459 1461 0
-1276 1459 1461 0
-1276 -1459 -1461 0
1271 1461 -1462 0
1271 -1461 -1462 0
-1271 1461 -1462 0
-1271 -1461 1462 0
1271 1461 -1463 0
1271 -1461 1463 0
-1271 1461 1463 0
-1271 -1461 -1463 0
1460 1462 -1464 0
1460 -1462 1464 0
-1460 1462 1464 0
-1460 -1462 -1464 0
22 42 -1465 0
22 -42 -1465 0
-22 42 -1465 0
-22 -42 1465 0
1282 1465 -1466 0
1282 -1465 -1466 0
-1282 1465 -1466 0
-1282 -1465 1466 0
1282 1465 -1467 0
1282 -1465 1467 0
-1282 1465 1467 0
-1282 -1465 -1467 0
1277 1467 -1468 0
1277 -1467 -1468 0
-1277 1467 -1468 0
-1277 -1467 1468 0
1277 1467 -1469 0
1277 -1467 1469 0
-1277 1467 1469 0
-1277 -1467 -1469 0
1466 1468 -1470 0
1466 -1468 1470 0
-1466 1468 1470 0
-1466 -1468 -1470 0
23 42 -1471 0
23 -42 -1471 0
-23 42 -1471 0
-23 -42 1471 0
1288 1471 -1472 0
1288 -1471 -1472 0
-1288 1471 -1472 0
-1288 -1471 1472 0
1288 1471 -1473 0
1288 -1471 1473 0
-1288 1471 1473 0
-1288 -1471 -1473 0
1283 1473 -1474 0
1283 -1473 -1474 0
-1283 1473 -1474 0
-1283 -1473 1474 0
1283 1473 -1475 0
1283 -1473 1475 0
-1283 1473 1475 0
-1283 -1473 -1475 0
1472 1474 -1476 0
1472 -1474 1476 0
-1472 1474 1476 0
-1472 -1474 -1476 0
24 42 -1477 0
24 -42 -1477 0
-24 42 -1477 0
-24 -42 1477 0
1294 1477 -1478 0
1294 -1477 -1478 0
-1294 1477 -1478 0
-1294 -1477 1478 0
1294 1477 -1479 0
1294 -1477 1479 0
-1294 1477 1479 0
-1294 -1477 -1479 0
1289 1479 -1480 0
1289 -1479 -1480 0
-1289 1479 -1480 0
-1289 -1479 1480 0
1289 1479 -1481 0
1289 -1479 1481 0
-1289 1479 1481 0
-1289 -1479 -1481 0
1478 1480 -1482 0
1478 -1480 1482 0
-1478 1480 1482 0
-1478 -1480 -1482 0
25 42 -1483 0
25 -42 -1483 0
-25 42 -1483 0
-25 -42 1483 0
1300 1483 -1484 0
1300 -1483 -1484 0
-1300 1483 -1484 0
-1300 -1483 1484 0
1300 1483 -1485 0
1300 -1483 1485 0
-1300 1483 1485 0
-1300 -1483 -1485 0
1295 1485 -1486 0
1295 -1485 -1486 0
-1295 1485 -1486 0
-1295 -1485 1486 0
1295 1485 -1487 0
1295 -1485 1487 0
-1295 1485 1487 0
-1295 -1485 -1487 0
1484 1486 -1488 0
1484 -1486 1488 0
-1484 1486 1488 0
-1484 -1486 -1488 0
26 42 -1489 0
26 -42 -1489 0
-26 42 -1489 0
-26 -42 1489 0
1306 1489 -1490 0
1306 -1489 -1490 0
-1306 1489 -1490 0
-1306 -1489 1490 0
1306 1489 -1491 0
1306 -1489 1491 0
-1306 1489 1491 0
-1306 -1489 -1491 0
1301 1491 -1492 0
1301 -1491 -1492 0
-1301 1491 -1492 0
-1301 -1491 1492 0
1301 1491 -1493 0
1301 -1491 1493 0
-1301 1491 1493 0
-1301 -1491 -1493 0
1490 1492 -1494 0
1490 -1492 1494 0
-1490 1492 1494 0
-1490 -1492 -1494 0
27 42 -1495 0
27 -42 -1495 0
-27 42 -1495 0
-27 -42 1495 0
1312 1495 -1496 0
1312 -1495 -1496 0
-1312 1495 -1496 0
-1312 -1495 1496 0
1312 1495 -1497 0
1312 -1495 1497 0
-1312 1495 1497 0
-1312 -1495 -1497 0
1307 1497 -1498 0
1307 -1497 -1498 0
-1307 1497 -1498 0
-1307 -1497 1498 0
1307 1497 -1499 0
1307 -1497 1499 0
-1307 1497 1499 0
-1307 -1497 -1499 0
1496 1498 -1500 0
1496 -1498 1500 0
-1496 1498 1500 0
-1496 -1498 -1500 0
28 42 -1501 0
28 -42 -1501 0
-28 42 -1501 0
-28 -42 1501 0
1318 1501 -1502 0
1318 -1501 -1502 0
-1318 1501 -1502 0
-1318 -1501 1502 0
1318 1501 -1503 0
1318 -1501 1503 0
-1318 1501 1503 0
-1318 -1501 -1503 0
1313 1503 -1504 0
1313 -1503 -1504 0
-1313 1503 -1504 0
-1313 -1503 1504 0
1313 1503 -1505 0
1313 -1503 1505 0
-1313 1503 1505 0
-1313 -1503 -1505 0
1502 1504 -1506 0
1502 -1504 1506 0
-1502 1504 1506 0
-1502 -1504 -1506 0
29 42 -1507 0
29 -42 -1507 0
-29 42 -1507 0
-29 -42 1507 0
1324 1507 -1508 0
1324 -1507 -1508 0
-1324 1507 -1508 0
-1324 -1507 1508 0
1324 1507 -1509 0
1324 -1507 1509 0
-1324 1507 1509 0
-1324 -1507 -1509 0
1319 1509 -1510 0
1319 -1509 -1510 0
-1319 1509 -1510 0
-1319 -1509 1510 0
1319 1509 -1511 0
1319 -1509 1511 0
-1319 1509 1511 0
-1319 -1509 -1511 0
1508 1510 -1512 0
1508 -1510 1512 0
-1508 1510 1512 0
-1508 -1510 -1512 0
30 42 -1513 0
30 -42 -1513 0
-30 42 -1513 0
-30 -42 1513 0
1330 1513 -1514 0
1330 -1513 -1514 0
-1330 1513 -1514 0
-1330 -1513 1514 0
1330 1513 -1515 0
1330 -1513 1515 0
-1330 1513 1515 0
-1330 -1513 -1515 0
1325 1515 -1516 0
1325 -1515 -1516 0
-1325 1515 -1516 0
-1325 -1515 1516 0
1325 1515 -1517 0
1325 -1515 1517 0
-1325 1515 1517 0
-1325 -1515 -1517 0
1514 1516 -1518 0
1514 -1516 1518 0
-1514 1516 1518 0
-1514 -1516 -1518 0
31 42 -1519 0
31 -42 -1519 0
-31 42 -1519 0
-31 -42 1519 0
1336 1519 -1520 0
1336 -1519 -1520 0
-1336 1519 -1520 0
-1336 -1519 1520 0
1336 1519 -1521 0
1336 -1519 1521 0
-1336 1519 1521 0
-1336 -1519 -1521 0
1331 1521 -1522 0
1331 -1521 -1522 0
-1331 1521 -1522 0
-1331 -1521 1522 0
1331 1521 -1523 0
1331 -1521 1523 0
-1331 1521 1523 0
-1331 -1521 -1523 0
1520 1522 -1524 0
1520 -1522 1524 0
-1520 1522 1524 0
-1520 -1522 -1524 0
32 42 -1525 0
32 -42 -1525 0
-32 42 -1525 0
-32 -42 1525 0
1338 1525 -1526 0
1338 -1525 -1526 0
-1338 1525 -1526 0
-1338 -1525 1526 0
1338 1525 -1527 0
1338 -1525 1527 0
-1338 1525 1527 0
-1338 -1525 -1527 0
1337 1527 -1528 0
1337 -1527 -1528 0
-1337 1527 -1528 0
-1337 -1527 1528 0
1337 1527 -1529 0
1337 -1527 1529 0
-1337 1527 1529 0
-1337 -1527 -1529 0
1526 1528 -1530 0
1526 -1528 1530 0
-1526 1528 1530 0
-1526 -1528 -1530 0
33 42 -1531 0
33 -42 -1531 0
-33 42 -1531 0
-33 -42 1531 0
1 43 -1532 0
1 -43 -1532 0
-1 43 -1532 0
-1 -43 1532 0
1349 1532 -1533 0
1349 -1532 -1533 0
-1349 1532 -1533 0
-1349 -1532 1533 0
1349 1532 -1534 0
1349 -1532 1534 0
-1349 1532 1534 0
-1349 -1532 -1534 0
1344 1534 -1535 0
1344 -1534 -1535 0
-1344 1534 -1535 0
-1344 -1534 1535 0
1344 1534 -1536 0
1344 -1534 1536 0
-1344 1534 1536 0
-1344 -1534 -1536 0
1533 1535 -1537 0
1533 -1535 1537 0
-1533 1535 1537 0
-1533 -1535 -1537 0
2 43 -1538 0
2 -43 -1538 0
-2 43 -1538 0
-2 -43 1538 0
1355 1538 -1539 0
1355 -1538 -1539 0
-1355 1538 -1539 0
-1355 -1538 1539 0
1355 1538 -1540 0
1355 -1538 1540 0
-1355 1538 1540 0
-1355 -1538 -1540 0
1350 1540 -1541 0
1350 -1540 -1541 0
-1350 1540 -1541 0
-1350 -1540 1541 0
1350 1540 -1542 0
1350 -1540 1542 0
-1350 1540 1542 0
-1350 -1540 -1542 0
1539 1541 -1543 0
1539 -1541 1543 0
-1539 1541 1543 0
-1539 -1541 -1543 0
3 43 -1544 0
3 -43 -1544 0
-3 43 -1544 0
-3 -43 1544 0
1361 1544 -1545 0
1361 -1544 -1545 0
-1361 1544 -1545 0
-1361 -1544 1545 0
1361 1544 -1546 0
1361 -1544 1546 0
-1361 1544 1546 0
-1361 -1544 -1546 0
1356 1546 -1547 0
1356 -1546 -1547 0
-1356 1546 -1547 0
-1356 -1546 1547 0
1356 1546 -1548 0
1356 -1546 1548 0
-1356 1546 1548 0
-1356 -1546 -1548 0
1545 1547 -1549 0
1545 -1547 1549 0
-1545 1547 1549 0
-1545 -1547 -1549 0
4 43 -1550 0
4 -43 -1550 0
-4 43 -1550 0
-4 -43 1550 0
1367 1550 -1551 0
1367 -1550 -1551 0
-1367 1550 -1551 0
-1367 -1550 1551 0
1367 1550 -1552 0
1367 -1550 1552 0
-1367 1550 1552 0
-1367 -1550 -1552 0
1362 1552 -1553 0
1362 -1552 -1553 0
-1362 1552 -1553 0
-1362 -1552 1553 0
1362 1552 -1554 0
1362 -1552 1554 0
-1362 1552 1554 0
-1362 -1552 -1554 0
1551 1553 -1555 0
1551 -1553 1555 0
-1551 1553 1555 0
-1551 -1553 -1555 0
5 43 -1556 0
5 -43 -1556 0
-5 43 -1556 0
-5 -43 1556 0
1373 1556 -1557 0
1373 -1556 -1557 0
-1373 1556 -1557 0
-1373 -1556 1557 0
1373 1556 -1558 0
1373 -1556 1558 0
-1373 1556 1558 0
-1373 -1556 -1558 0
1368 1558 -1559 0
1368 -1558 -1559 0
-1368 1558 -1559 0
-1368 -1558 1559 0
1368 1558 -1560 0
1368 -1558 1560 0
-1368 1558 1560 0
-1368 -1558 -1560 0
1557 1559 -1561 0
1557 -1559 1561 0
-1557 1559 1561 0
-1557 -1559 -1561 0
6 43 -1562 0
6 -43 -1562 0
-6 43 -1562 0
-6 -43 1562 0
1379 1562 -1563 0
1379 -1562 -1563 0
-1379 1562 -1563 0
-1379 -1562 1563 0
1379 1562 -1564 0
1379 -1562 1564 0
-1379 1562 1564 0
-1379 -1562 -1564 0
1374 1564 -1565 0
1374 -1564 -1565 0
-1374 1564 -1565 0
-1374 -1564 1565 0
1374 1564 -1566 0
1374 -1564 1566 0
-1374 1564 1566 0
-1374 -1564 -1566 0
1563 1565 -1567 0
1563 -1565 1567 0
-1563 1565 1567 0
-1563 -1565 -1567 0
7 43 -1568 0
7 -43 -1568 0
-7 43 -1568 0
-7 -43 1568 0
1385 1568 -1569 0
1385 -1568 -1569 0
-1385 1568 -1569 0
-1385 -1568 1569 0
1385 1568 -1570 0
1385 -1568 1570 0
-1385 1568 1570 0
-1385 -1568 -1570 0
1380 1570 -1571 0
1380 -1570 -1571 0
-1380 1570 -1571 0
-1380 -1570 1571 0
1380 1570 -1572 0
1380 -1570 1572 0
-1380 1570 1572 0
-1380 -1570 -1572 0
1569 1571 -1573 0
1569 -1571 1573 0
-1569 1571 1573 0
-1569 -1571 -1573 0
8 43 -1574 0
8 -43 -1574 0
-8 43 -1574 0
-8 -43 1574 0
1391 1574 -1575 0
1391 -1574 -1575 0
-1391 1574 -1575 0
-1391 -1574 1575 0
1391 1574 -1576 0
1391 -1574 1576 0
-1391 1574 1576 0
-1391 -1574 -1576 0
1386 1576 -1577 0
1386 -1576 -1577 0
-1386 1576 -1577 0
-1386 -1576 1577 0
1386 1576 -1578 0
1386 -1576 1578 0
-1386 1576 1578 0
-1386 -1576 -1578 0
1575 1577 -1579 0
1575 -1577 1579 0
-1575 1577 1579 0
-1575 -1577 -1579 0
9 43 -1580 0
9 -43 -1580 0
-9 43 -1580 0
-9 -43 1580 0
1397 1580 -1581 0
1397 -1580 -1581 0
-1397 1580 -1581 0
-1397 -1580 1581 0
1397 1580 -1582 0
1397 -1580 1582 0
-1397 1580 1582 0
-1397 -1580 -1582 0
1392 1582 -1583 0
1392 -1582 -1583 0
-1392 1582 -1583 0
-1392 -1582 1583 0
1392 1582 -1584 0
1392 -1582 1584 0
-1392 1582 1584 0
-1392 -1582 -1584 0
1581 1583 -1585 0
1581 -1583 1585 0
-1581 1583 1585 0
-1581 -1583 -1585 0
10 43 -1586 0
10 -43 -1586 0
-10 43 -1586 0
-10 -43 1586 0
1403 1586 -1587 0
1403 -1586 -1587 0
-1403 1586 -1587 0
-1403 -1586 1587 0
1403 1586 -1588 0
1403 -1586 1588 0
-1403 1586 1588 0
-1403 -1586 -1588 0
1398 1588 -1589 0
1398 -1588 -1589 0
-1398 1588 -1589 0
-1398 -1588 1589 0
1398 1588 -1590 0
1398 -1588 1590 0
-1398 1588 1590 0
-1398 -1588 -1590 0
1587 1589 -1591 0
1587 -1589 1591 0
-1587 1589 1591 0
-1587 -1589 -1591 0
11 43 -1592 0
11 -43 -1592 0
-11 43 -1592 0
-11 -43 1592 0
1409 1592 -1593 0
1409 -1592 -1593 0
-1409 1592 -1593 0
-1409 -1592 1593 0
1409 1592 -1594 0
1409 -1592 1594 0
-1409 1592 1594 0
-1409 -1592 -1594 0
1404 1594 -1595 0
1404 -1594 -1595 0
-1404 1594 -1595 0
-1404 -1594 1595 0
1404 1594 -1596 0
1404 -1594 1596 0
-1404 1594 1596 0
-1404 -1594 -1596 0
1593 1595 -1597 0
1593 -1595 1597 0
-1593 1595 1597 0
-1593 -1595 -1597 0
12 43 -1598 0
12 -43 -1598 0
-12 43 -1598 0
-12 -43 1598 0
1415 1598 -1599 0
1415 -1598 -1599 0
-1415 1598 -1599 0
-1415 -1598 1599 0
1415 1598 -1600 0
1415 -1598 1600 0
-1415 1598 1600 0
-1415 -1598 -1600 0
1410 1600 -1601 0
1410 -1600 -1601 0
-1410 1600 -1601 0
-1410 -1600 1601 0
1410 1600 -1602 0
1410 -1600 1602 0
-1410 1600 1602 0
-1410 -1600 -1602 0
1599 1601 -1603 0
1599 -1601 1603 0
-1599 1601 1603 0
-1599 -1601 -1603 0
13 43 -1604 0
13 -43 -1604 0
-13 43 -1604 0
-13 -43 1604 0
1421 1604 -1605 0
1421 -1604 -1605 0
-1421 1604 -1605 0
-1421 -1604 1605 0
1421 1604 -1606 0
1421 -1604 1606 0
-1421 1604 1606 0
-1421 -1604 -1606 0
1416 1606 -1607 0
1416 -1606 -1607 0
-1416 1606 -1607 0
-1416 -1606 1607 0
1416 1606 -1608 0
1416 -1606 1608 0
-1416 1606 1608 0
-1416 -1606 -1608 0
1605 1607 -1609 0
1605 -1607 1609 0
-1605 1607 1609 0
-1605 -1607 -1609 0
14 43 -1610 0
14 -43 -1610 0
-14 43 -1610 0
-14 -43 1610 0
1427 1610 -1611 0
1427 -1610 -1611 0
-1427 1610 -1611 0
-1427 -1610 1611 0
1427 1610 -1612 0
1427 -1610 1612 0
-1427 1610 1612 0
-1427 -1610 -1612 0
1422 1612 -1613 0
1422 -1612 -1613 0
-1422 1612 -1613 0
-1422 -1612 1613 0
1422 1612 -1614 0
1422 -1612 1614 0
-1422 1612 1614 0
-1422 -1612 -1614 0
1611 1613 -1615 0
1611 -1613 1615 0
-1611 1613 1615 0
-1611 -1613 -1615 0
15 43 -1616 0
15 -43 -1616 0
-15 43 -1616 0
-15 -43 1616 0
1433 1616 -1617 0
1433 -1616 -1617 0
-1433 1616 -1617 0
-1433 -1616 1617 0
1433 1616 -1618 0
1433 -1616 1618 0
-1433 1616 1618 0
-1433 -1616 -1618 0
1428 1618 -1619 0
1428 -1618 -1619 0
-1428 1618 -1619 0
-1428 -1618 1619 0
1428 1618 -1620 0
1428 -1618 1620 0
-1428 1618 1620 0
-1428 -1618 -1620 0
1617 1619 -1621 0
1617 -1619 1621 0
-1617 1619 1621 0
-1617 -1619 -1621 0
16 43 -1622 0
16 -43 -1622 0
-16 43 -1622 0
-16 -43 1622 0
1439 1622 -1623 0
1439 -1622 -1623 0
-1439 1622 -1623 0
-1439 -1622 1623 0
1439 1622 -1624 0
1439 -1622 1624 0
-1439 1622 1624 0
-1439 -1622 -1624 0
1434 1624 -1625 0
1434 -1624 -1625 0
-1434 1624 -1625 0
-1434 -1624 1625 0
1434 1624 -1626 0
1434 -1624 1626 0
-1434 1624 1626 0
-1434 -1624 -1626 0
1623 1625 -1627 0
1623 -1625 1627 0
-1623 1625 1627 0
-1623 -1625 -1627 0
17 43 -1628 0
17 -43 -1628 0
-17 43 -1628 0
-17 -43 1628 0
1445 1628 -1629 0
1445 -1628 -1629 0
-1445 1628 -1629 0
-1445 -1628 1629 0
1445 1628 -1630 0
1445 -1628 1630 0
-1445 1628 1630 0
-1445 -1628 -1630 0
1440 1630 -1631 0
1440 -1630 -1631 0
-1440 1630 -1631 0
-1440 -1630 1631 0
1440 1630 -1632 0
1440 -1630 1632 0
-1440 1630 1632 0
-1440 -1630 -1632 0
1629 1631 -1633 0
1629 -1631 1633 0
-1629 1631 1633 0
-1629 -1631 -1633 0
18 43 -1634 0
18 -43 -1634 0
-18 43 -1634 0
-18 -43 1634 0
1451 1634 -1635 0
1451 -1634 -1635 0
-1451 1634 -1635 0
-1451 -1634 1635 0
1451 1634 -1636 0
1451 -1634 1636 0
-1451 1634 1636 0
-1451 -1634 -1636 0
1446 1636 -1637 0
1446 -1636 -1637 0
-1446 1636 -1637 0
-1446 -1636 1637 0
1446 1636 -1638 0
1446 -1636 1638 0
-1446 1636 1638 0
-1446 -1636 -1638 0
1635 1637 -1639 0
1635 -1637 1639 0
-1635 1637 1639 0
-1635 -1637 -1639 0
19 43 -1640 0
19 -43 -1640 0
-19 43 -1640 0
-19 -43 1640 0
1457 1640 -1641 0
1457 -1640 -1641 0
-1457 1640 -1641 0
-1457 -1640 1641 0
1457 1640 -1642 0
1457 -1640 1642 0
-1457 1640 1642 0
-1457 -1640 -1642 0
1452 1642 -1643 0
1452 -1642 -1643 0
-1452 1642 -1643 0
-1452 -1642 1643 0
1452 1642 -1644 0
1452 -1642 1644 0
-1452 1642 1644 0
-1452 -1642 -1644 0
1641 1643 -1645 0
1641 -1643 1645 0
-1641 1643 1645 0
-1641 -1643 -1645 0
20 43 -1646 0
20 -43 -1646 0
-20 43 -1646 0
-20 -43 1646 0
1463 1646 -1647 0
1463 -1646 -1647 0
-1463 1646 -1647 0
-1463 -1646 1647 0
1463 1646 -1648 0
1463 -1646 1648 0
-1463 1646 1648 0
-1463 -1646 -1648 0
1458 1648 -1649 0
1458 -1648 -1649 0
-1458 1648 -1649 0
-1458 -1648 1649 0
1458 1648 -1650 0
1458 -1648 1650 0
-1458 1648 1650 0
-1458 -1648 -1650 0
1647 1649 -1651 0
1647 -1649 1651 0
-1647 1649 1651 0
-1647 -1649 -1651 0
21 43 -1652 0
21 -43 -1652 0
-21 43 -1652 0
-21 -43 1652 0
1469 1652 -1653 0
1469 -1652 -1653 0
-1469 1652 -1653 0
-1469 -1652 1653 0
1469 1652 -1654 0
1469 -1652 1654 0
-1469 1652 1654 0
-1469 -1652 -1654 0
1464 1654 -1655 0
1464 -1654 -1655 0
-1464 1654 -1655 0
-1464 -1654 1655 0
1464 1654 -1656 0
1464 -1654 1656 0
-1464 1654 1656 0
-1464 -1654 -1656 0
1653 1655 -1657 0
1653 -1655 1657 0
-1653 1655 1657 0
-1653 -1655 -1657 0
22 43 -1658 0
22 -43 -1658 0
-22 43 -1658 0
-22 -43 1658 0
1475 1658 -1659 0
1475 -1658 -1659 0
-1475 1658 -1659 0
-1475 -1658 1659 0
1475 1658 -1660 0
1475 -1658 1660 0
-1475 1658 1660 0
-1475 -1658 -1660 0
1470 1660 -1661 0
1470 -1660 -1661 0
-1470 1660 -1661 0
-1470 -1660 1661 0
1470 1660 -1662 0
1470 -1660 1662 0
-1470 1660 1662 0
-1470 -1660 -1662 0
1659 1661 -1663 0
1659 -1661 1663 0
-1659 1661 1663 0
-1659 -1661 -1663 0
23 43 -1664 0
23 -43 -1664 0
-23 43 -1664 0
-23 -43 1664 0
1481 1664 -1665 0
1481 -1664 -1665 0
-1481 1664 -1665 0
-1481 -1664 1665 0
1481 1664 -1666 0
1481 -1664 1666 0
-1481 1664 1666 0
-1481 -1664 -1666 0
1476 1666 -1667 0
1476 -1666 -1667 0
-1476 1666 -1667 0
-1476 -1666 1667 0
1476 1666 -1668 0
1476 -1666 1668 0
-1476 1666 1668 0
-1476 -1666 -1668 0
1665 1667 -1669 0
1665 -1667 1669 0
-1665 1667 1669 0
-1665 -1667 -1669 0
24 43 -1670 0
24 -43 -1670 0
-24 43 -1670 0
-24 -43 1670 0
1487 1670 -1671 0
1487 -1670 -1671 0
-1487 1670 -1671 0
-1487 -1670 1671 0
1487 1670 -1672 0
1487 -1670 1672 0
-1487 1670 1672 0
-1487 -1670 -1672 0
1482 1672 -1673 0
1482 -1672 -1673 0
-1482 1672 -1673 0
-1482 -1672 1673 0
1482 1672 -1674 0
1482 -1672 1674 0
-1482 1672 1674 0
-1482 -1672 -1674 0
1671 1673 -1675 0
1671 -1673 1675 0
-1671 1673 1675 0
-1671 -1673 -1675 0
25 43 -1676 0
25 -43 -1676 0
-25 43 -1676 0
-25 -43 1676 0
1493 1676 -1677 0
1493 -1676 -1677 0
-1493 1676 -1677 0
-1493 -1676 1677 0
1493 1676 -1678 0
1493 -1676 1678 0
-1493 1676 1678 0
-1493 -1676 -1678 0
1488 1678 -1679 0
1488 -1678 -1679 0
-1488 1678 -1679 0
-1488 -1678 1679 0
1488 1678 -1680 0
1488 -1678 1680 0
-1488 1678 1680 0
-1488 -1678 -1680 0
1677 1679 -1681 0
1677 -1679 1681 0
-1677 1679 1681 0
-1677 -1679 -1681 0
26 43 -1682 0
26 -43 -1682 0
-26 43 -1682 0
-26 -43 1682 0
1499 1682 -1683 0
1499 -1682 -1683 0
-1499 1682 -1683 0
-1499 -1682 1683 0
1499 1682 -1684 0
1499 -1682 1684 0
-1499 1682 1684 0
-1499 -1682 -1684 0
1494 1684 -1685 0
1494 -1684 -1685 0
-1494 1684 -1685 0
-1494 -1684 1685 0
1494 1684 -1686 0
1494 -1684 1686 0
-1494 1684 1686 0
-1494 -1684 -1686 0
1683 1685 -1687 0
1683 -1685 1687 0
-1683 1685 1687 0
-1683 -1685 -1687 0
27 43 -1688 0
27 -43 -1688 0
-27 43 -1688 0
-27 -43 1688 0
1505 1688 -1689 0
1505 -1688 -1689 0
-1505 1688 -1689 0
-1505 -1688 1689 0
1505 1688 -1690 0
1505 -1688 1690 0
-1505 1688 1690 0
-1505 -1688 -1690 0
1500 1690 -1691 0
1500 -1690 -1691 0
-1500 1690 -1691 0
-1500 -1690 1691 0
1500 1690 -1692 0
1500 -1690 1692 0
-1500 1690 1692 0
-1500 -1690 -1692 0
1689 1691 -1693 0
1689 -1691 1693 0
-1689 1691 1693 0
-1689 -1691 -1693 0
28 43 -1694 0
28 -43 -1694 0
-28 43 -1694 0
-28 -43 1694 0
1511 1694 -1695 0
1511 -1694 -1695 0
-1511 1694 -1695 0
-1511 -1694 1695 0
1511 1694 -1696 0
1511 -1694 1696 0
-1511 1694 1696 0
-1511 -1694 -1696 0
1506 1696 -1697 0
1506 -1696 -1697 0
-1506 1696 -1697 0
-1506 -1696 1697 0
1506 1696 -1698 0
1506 -1696 1698 0
-1506 1696 1698 0
-1506 -1696 -1698 0
1695 1697 -1699 0
1695 -1697 1699 0
-1695 1697 1699 0
-1695 -1697 -1699 0
29 43 -1700 0
29 -43 -1700 0
-29 43 -1700 0
-29 -43 1700 0
1517 1700 -1701 0
1517 -1700 -1701 0
-1517 1700 -1701 0
-1517 -1700 1701 0
1517 1700 -1702 0
1517 -1700 1702 0
-1517 1700 1702 0
-1517 -1700 -1702 0
1512 1702 -1703 0
1512 -1702 -1703 0
-1512 1702 -1703 0
-1512 -1702 1703 0
1512 1702 -1704 0
1512 -1702 1704 0
-1512 1702 1704 0
-1512 -1702 -1704 0
1701 1703 -1705 0
1701 -1703 1705 0
-1701 1703 1705 0
-1701 -1703 -1705 0
30 43 -1706 0
30 -43 -1706 0
-30 43 -1706 0
-30 -43 1706 0
1523 1706 -1707 0
1523 -1706 -1707 0
-1523 1706 -1707 0
-1523 -1706 1707 0
1523 1706 -1708 0
1523 -1706 1708 0
-1523 1706 1708 0
-1523 -1706 -1708 0
1518 1708 -1709 0
1518 -1708 -1709 0
-1518 1708 -1709 0
-1518 -1708 1709 0
1518 1708 -1710 0
1518 -1708 1710 0
-1518 1708 1710 0
-1518 -1708 -1710 0
1707 1709 -1711 0
1707 -1709 1711 0
-1707 1709 1711 0
-1707 -1709 -1711 0
31 43 -1712 0
31 -43 -1712 0
-31 43 -1712 0
-31 -43 1712 0
1529 1712 -1713 0
1529 -1712 -1713 0
-1529 1712 -1713 0
-1529 -1712 1713 0
1529 1712 -1714 0
1529 -1712 1714 0
-1529 1712 1714 0
-1529 -1712 -1714 0
1524 1714 -1715 0
1524 -1714 -1715 0
-1524 1714 -1715 0
-1524 -1714 1715 0
1524 1714 -1716 0
1524 -1714 1716 0
-1524 1714 1716 0
-1524 -1714 -1716 0
1713 1715 -1717 0
1713 -1715 1717 0
-1713 1715 1717 0
-1713 -1715 -1717 0
32 43 -1718 0
32 -43 -1718 0
-32 43 -1718 0
-32 -43 1718 0
1531 1718 -1719 0
1531 -1718 -1719 0
-1531 1718 -1719 0
-1531 -1718 1719 0
1531 1718 -1720 0
1531 -1718 1720 0
-1531 1718 1720 0
-1531 -1718 -1720 0
1530 1720 -1721 0
1530 -1720 -1721 0
-1530 1720 -1721 0
-1530 -1720 1721 0
1530 1720 -1722 0
1530 -1720 1722 0
-1530 1720 1722 0
-1530 -1720 -1722 0
1719 1721 -1723 0
1719 -1721 1723 0
-1719 1721 1723 0
-1719 -1721 -1723 0
33 43 -1724 0
33 -43 -1724 0
-33 43 -1724 0
-33 -43 1724 0
1 44 -1725 0
1 -44 -1725 0
-1 44 -1725 0
-1 -44 1725 0
1542 1725 -1726 0
1542 -1725 -1726 0
-1542 1725 -1726 0
-1542 -1725 1726 0
1542 1725 -1727 0
1542 -1725 1727 0
-1542 1725 1727 0
-1542 -1725 -1727 0
1537 1727 -1728 0
1537 -1727 -1728 0
-1537 1727 -1728 0
-1537 -1727 1728 0
1537 1727 -1729 0
1537 -1727 1729 0
-1537 1727 1729 0
-1537 -1727 -1729 0
1726 1728 -1730 0
1726 -1728 1730 0
-1726 1728 1730 0
-1726 -1728 -1730 0
2 44 -1731 0
2 -44 -1731 0
-2 44 -1731 0
-2 -44 1731 0
1548 1731 -1732 0
1548 -1731 -1732 0
-1548 1731 -1732 0
-1548 -1731 1732 0
1548 1731 -1733 0
1548 -1731 1733 0
-1548 1731 1733 0
-1548 -1731 -1733 0
1543 1733 -1734 0
1543 -1733 -1734 0
-1543 1733 -1734 0
-1543 -1733 1734 0
1543 1733 -1735 0
1543 -1733 1735 0
-1543 1733 1735 0
-1543 -1733 -1735 0
1732 1734 -1736 0
1732 -1734 1736 0
-1732 1734 1736 0
-1732 -1734 -1736 0
3 44 -1737 0
3 -44 -1737 0
-3 44 -1737 0
-3 -44 1737 0
1554 1737 -1738 0
1554 -1737 -1738 0
-1554 1737 -1738 0
-1554 -1737 1738 0
1554 1737 -1739 0
1554 -1737 1739 0
-1554 1737 1739 0
-1554 -1737 -1739 0
1549 1739 -1740 0
1549 -1739 -1740 0
-1549 1739 -1740 0
-1549 -1739 1740 0
1549 1739 -1741 0
1549 -1739 1741 0
-1549 1739 1741 0
-1549 -1739 -1741 0
1738 1740 -1742 0
1738 -1740 1742 0
-1738 1740 1742 0
-1738 -1740 -1742 0
4 44 -1743 0
4 -44 -1743 0
-4 44 -1743 0
-4 -44 1743 0
1560 1743 -1744 0
1560 -1743 -1744 0
-1560 1743 -1744 0
-1560 -1743 1744 0
1560 1743 -1745 0
1560 -1743 1745 0
-1560 1743 1745 0
-1560 -1743 -1745 0
1555 1745 -1746 0
1555 -1745 -1746 0
-1555 1745 -1746 0
-1555 -1745 1746 0
1555 1745 -1747 0
1555 -1745 1747 0
-1555 1745 1747 0
-1555 -1745 -1747 0
1744 1746 -1748 0
1744 -1746 1748 0
-1744 1746 1748 0
-1744 -1746 -1748 0
5 44 -1749 0
5 -44 -1749 0
-5 44 -1749 0
-5 -44 1749 0
1566 1749 -1750 0
1566 -1749 -1750 0
-1566 1749 -1750 0
-1566 -1749 1750 0
1566 1749 -1751 0
1566 -1749 1751 0
-1566 1749 1751 0
-1566 -1749 -1751 0
1561 1751 -1752 0
1561 -1751 -1752 0
-1561 1751 -1752 0
-1561 -1751 1752 0
1561 1751 -1753 0
1561 -1751 1753 0
-1561 1751 1753 0
-1561 -1751 -1753 0
1750 1752 -1754 0
1750 -1752 1754 0
-1750 1752 1754 0
-1750 -1752 -1754 0
6 44 -1755 0
6 -44 -1755 0
-6 44 -1755 0
-6 -44 1755 0
1572 1755 -1756 0
1572 -1755 -1756 0
-1572 1755 -1756 0
-1572 -1755 1756 0
1572 1755 -1757 0
1572 -1755 1757 0
-1572 1755 1757 0
-1572 -1755 -1757 0
1567 1757 -1758 0
1567 -1757 -1758 0
-1567 1757 -1758 0
-1567 -1757 1758 0
1567 1757 -1759 0
1567 -1757 1759 0
-1567 1757 1759 0
-1567 -1757 -1759 0
1756 1758 -1760 0
1756 -1758 1760 0
-1756 1758 1760 0
-1756 -1758 -1760 0
7 44 -1761 0
7 -44 -1761 0
-7 44 -1761 0
-7 -44 1761 0
1578 1761 -1762 0
1578 -1761 -1762 0
-1578 1761 -1762 0
-1578 -1761 1762 0
1578 1761 -1763 0
1578 -1761 1763 0
-1578 1761 1763 0
-1578 -1761 -1763 0
1573 1763 -1764 0
1573 -1763 -1764 0
-1573 1763 -1764 0
-1573 -1763 1764 0
1573 1763 -1765 0
1573 -1763 1765 0
-1573 1763 1765 0
-1573 -1763 -1765 0
1762 1764 -1766 0
1762 -1764 1766 0
-1762 1764 1766 0
-1762 -1764 -1766 0
8 44 -1767 0
8 -44 -1767 0
-8 44 -1767 0
-8 -44 1767 0
1584 1767 -1768 0
1584 -1767 -1768 0
-1584 1767 -1768 0
-1584 -1767 1768 0
1584 1767 -1769 0
1584 -1767 1769 0
-1584 1767 1769 0
-1584 -1767 -1769 0
1579 1769 -1770 0
1579 -1769 -1770 0
-1579 1769 -1770 0
-1579 -1769 1770 0
1579 1769 -1771 0
1579 -1769 1771 0
-1579 1769 1771 0
-1579 -1769 -1771 0
1768 1770 -1772 0
1768 -1770 1772 0
-1768 1770 1772 0
-1768 -1770 -1772 0
9 44 -1773 0
9 -44 -1773 0
-9 44 -1773 0
-9 -44 1773 0
1590 1773 -1774 0
1590 -1773 -1774 0
-1590 1773 -1774 0
-1590 -1773 1774 0
1590 1773 -1775 0
1590 -1773 1775 0
-1590 1773 1775 0
-1590 -1773 -1775 0
1585 1775 -1776 0
1585 -1775 -1776 0
-1585 1775 -1776 0
-1585 -1775 1776 0
1585 1775 -1777 0
1585 -1775 1777 0
-1585 1775 1777 0
-1585 -1775 -1777 0
1774 1776 -1778 0
1774 -1776 1778 0
-1774 1776 1778 0
-1774 -1776 -1778 0
10 44 -1779 0
10 -44 -1779 0
-10 44 -1779 0
-10 -44 1779 0
1596 1779 -1780 0
1596 -1779 -1780 0
-1596 1779 -1780 0
-1596 -1779 1780 0
1596 1779 -1781 0
1596 -1779 1781 0
-1596 1779 1781 0
-1596 -1779 -1781 0
1591 1781 -1782 0
1591 -1781 -1782 0
-1591 1781 -1782 0
-1591 -1781 1782 0
1591 1781 -1783 0
1591 -1781 1783 0
-1591 1781 1783 0
-1591 -1781 -1783 0
1780 1782 -1784 0
1780 -1782 1784 0
-1780 1782 1784 0
-1780 -1782 -1784 0
11 44 -1785 0
11 -44 -1785 0
-11 44 -1785 0
-11 -44 1785 0
1602 1785 -1786 0
1602 -1785 -1786 0
-1602 1785 -1786 0
-1602 -1785 1786 0
1602 1785 -1787 0
1602 -1785 1787 0
-1602 1785 1787 0
-1602 -1785 -1787 0
1597 1787 -1788 0
1597 -1787 -1788 0
-1597 1787 -1788 0
-1597 -1787 1788 0
1597 1787 -1789 0
1597 -1787 1789 0
-1597 1787 1789 0
-1597 -1787 -1789 0
1786 1788 -1790 0
1786 -1788 1790 0
-1786 1788 1790 0
-1786 -1788 -1790 0
12 44 -1791 0
12 -44 -1791 0
-12 44 -1791 0
-12 -44 1791 0
1608 1791 -1792 0
1608 -1791 -1792 0
-1608 1791 -1792 0
-1608 -1791 1792 0
1608 1791 -1793 0
1608 -1791 1793 0
-1608 1791 1793 0
-1608 -1791 -1793 0
1603 1793 -1794 0
1603 -1793 -1794 0
-1603 1793 -1794 0
-1603 -1793 1794 0
1603 1793 -1795 0
1603 -1793 1795 0
-1603 1793 1795 0
-1603 -1793 -1795 0
1792 1794 -1796 0
1792 -1794 1796 0
-1792 1794 1796 0
-1792 -1794 -1796 0
13 44 -1797 0
13 -44 -1797 0
-13 44 -1797 0
-13 -44 1797 0
1614 1797 -1798 0
1614 -1797 -1798 0
-1614 1797 -1798 0
-1614 -1797 1798 0
1614 1797 -1799 0
1614 -1797 1799 0
-1614 1797 1799 0
-1614 -1797 -1799 0
1609 1799 -1800 0
1609 -1799 -1800 0
-1609 1799 -1800 0
-1609 -1799 1800 0
1609 1799 -1801 0
1609 -1799 1801 0
-1609 1799 1801 0
-1609 -1799 -1801 0
1798 1800 -1802 0
1798 -1800 1802 0
-1798 1800 1802 0
-1798 -1800 -1802 0
14 44 -1803 0
14 -44 -1803 0
-14 44 -1803 0
-14 -44 1803 0
1620 1803 -1804 0
1620 -1803 -1804 0
-1620 1803 -1804 0
-1620 -1803 1804 0
1620 1803 -1805 0
1620 -1803 1805 0
-1620 1803 1805 0
-1620 -1803 -1805 0
1615 1805 -1806 0
1615 -1805 -1806 0
-1615 1805 -1806 0
-1615 -1805 1806 0
1615 1805 -1807 0
1615 -1805 1807 0
-1615 1805 1807 0
-1615 -1805 -1807 0
1804 1806 -1808 0
1804 -1806 1808 0
-1804 1806 1808 0
-1804 -1806 -1808 0
15 44 -1809 0
15 -44 -1809 0
-15 44 -1809 0
-15 -44 1809 0
1626 1809 -1810 0
1626 -1809 -1810 0
-1626 1809 -1810 0
-1626 -1809 1810 0
1626 1809 -1811 0
1626 -1809 1811 0
-1626 1809 1811 0
-1626 -1809 -1811 0
1621 1811 -1812 0
1621 -1811 -1812 0
-1621 1811 -1812 0
-1621 -1811 1812 0
1621 1811 -1813 0
1621 -1811 1813 0
-1621 1811 1813 0
-1621 -1811 -1813 0
1810 1812 -1814 0
1810 -1812 1814 0
-1810 1812 1814 0
-1810 -1812 -1814 0
16 44 -1815 0
16 -44 -1815 0
-16 44 -1815 0
-16 -44 1815 0
1632 1815 -1816 0
1632 -1815 -1816 0
-1632 1815 -1816 0
-1632 -1815 1816 0
1632 1815 -1817 0
1632 -1815 1817 0
-1632 1815 1817 0
-1632 -1815 -1817 0
1627 1817 -1818 0
1627 -1817 -1818 0
-1627 1817 -1818 0
-1627 -1817 1818 0
1627 1817 -1819 0
1627 -1817 1819 0
-1627 1817 1819 0
-1627 -1817 -1819 0
1816 1818 -1820 0
1816 -1818 1820 0
-1816 1818 1820 0
-1816 -1818 -1820 0
17 44 -1821 0
17 -44 -1821 0
-17 44 -1821 0
-17 -44 1821 0
1638 1821 -1822 0
1638 -1821 -1822 0
-1638 1821 -1822 0
-1638 -1821 1822 0
1638 1821 -1823 0
1638 -1821 1823 0
-1638 1821 1823 0
-1638 -1821 -1823 0
1633 1823 -1824 0
1633 -1823 -1824 0
-1633 1823 -1824 0
-1633 -1823 1824 0
1633 1823 -1825 0
1633 -1823 1825 0
-1633 1823 1825 0
-1633 -1823 -1825 0
1822 1824 -1826 0
1822 -1824 1826 0
-1822 1824 1826 0
-1822 -1824 -1826 0
18 44 -1827 0
18 -44 -1827 0
-18 44 -1827 0
-18 -44 1827 0
1644 1827 -1828 0
1644 -1827 -1828 0
-1644 1827 -1828 0
-1644 -1827 1828 0
1644 1827 -1829 0
1644 -1827 1829 0
-1644 1827 1829 0
-1644 -1827 -1829 0
1639 1829 -1830 0
1639 -1829 -1830 0
-1639 1829 -1830 0
-1639 -1829 1830 0
1639 1829 -1831 0
1639 -1829 1831 0
-1639 1829 1831 0
-1639 -1829 -1831 0
1828 1830 -1832 0
1828 -1830 1832 0
-1828 1830 1832 0
-1828 -1830 -1832 0
19 44 -1833 0
19 -44 -1833 0
-19 44 -1833 0
-19 -44 1833 0
1650 1833 -1834 0
1650 -1833 -1834 0
-1650 1833 -1834 0
-1650 -1833 1834 0
1650 1833 -1835 0
1650 -1833 1835 0
-1650 1833 1835 0
-1650 -1833 -1835 0
1645 1835 -1836 0
1645 -1835 -1836 0
-1645 1835 -1836 0
-1645 -1835 1836 0
1645 1835 -1837 0
1645 -1835 1837 0
-1645 1835 1837 0
-1645 -1835 -1837 0
1834 1836 -1838 0
1834 -1836 1838 0
-1834 1836 1838 0
-1834 -1836 -1838 0
20 44 -1839 0
20 -44 -1839 0
-20 44 -1839 0
-20 -44 1839 0
1656 1839 -1840 0
1656 -1839 -1840 0
-1656 1839 -1840 0
-1656 -1839 1840 0
1656 1839 -1841 0
1656 -1839 1841 0
-1656 1839 1841 0
-1656 -1839 -1841 0
1651 1841 -1842 0
1651 -1841 -1842 0
-1651 1841 -1842 0
-1651 -1841 1842 0
1651 1841 -1843 0
1651 -1841 1843 0
-1651 1841 1843 0
-1651 -1841 -1843 0
1840 1842 -1844 0
1840 -1842 1844 0
-1840 1842 1844 0
-1840 -1842 -1844 0
21 44 -1845 0
21 -44 -1845 0
-21 44 -1845 0
-21 -44 1845 0
1662 1845 -1846 0
1662 -1845 -1846 0
-1662 1845 -1846 0
-1662 -1845 1846 0
1662 1845 -1847 0
1662 -1845 1847 0
-1662 1845 1847 0
-1662 -1845 -1847 0
1657 1847 -1848 0
1657 -1847 -1848 0
-1657 1847 -1848 0
-1657 -1847 1848 0
1657 1847 -1849 0
1657 -1847 1849 0
-1657 1847 1849 0
-1657 -1847 -1849 0
1846 1848 -1850 0
1846 -1848 1850 0
-1846 1848 1850 0
-1846 -1848 -1850 0
22 44 -1851 0
22 -44 -1851 0
-22 44 -1851 0
-22 -44 1851 0
1668 1851 -1852 0
1668 -1851 -1852 0
-1668 1851 -1852 0
-1668 -1851 1852 0
1668 1851 -1853 0
1668 -1851 1853 0
-1668 1851 1853 0
-1668 -1851 -1853 0
1663 1853 -1854 0
1663 -1853 -1854 0
-1663 1853 -1854 0
-1663 -1853 1854 0
1663 1853 -1855 0
1663 -1853 1855 0
-1663 1853 1855 0
-1663 -1853 -1855 0
1852 1854 -1856 0
1852 -1854 1856 0
-1852 1854 1856 0
-1852 -1854 -1856 0
23 44 -1857 0
23 -44 -1857 0
-23 44 -1857 0
-23 -44 1857 0
1674 1857 -1858 0
1674 -1857 -1858 0
-1674 1857 -1858 0
-1674 -1857 1858 0
1674 1857 -1859 0
1674 -1857 1859 0
-1674 1857 1859 0
-1674 -1857 -1859 0
1669 1859 -1860 0
1669 -1859 -1860 0
-1669 1859 -1860 0
-1669 -1859 1860 0
1669 1859 -1861 0
1669 -1859 1861 0
-1669 1859 1861 0
-1669 -1859 -1861 0
1858 1860 -1862 0
1858 -1860 1862 0
-1858 1860 1862 0
-1858 -1860 -1862 0
24 44 -1863 0
24 -44 -1863 0
-24 44 -1863 0
-24 -44 1863 0
1680 1863 -1864 0
1680 -1863 -1864 0
-1680 1863 -1864 0
-1680 -1863 1864 0
1680 1863 -1865 0
1680 -1863 1865 0
-1680 1863 1865 0
-1680 -1863 -1865 0
1675 1865 -1866 0
1675 -1865 -1866 0
-1675 1865 -1866 0
-1675 -1865 1866 0
1675 1865 -1867 0
1675 -1865 1867 0
-1675 1865 1867 0
-1675 -1865 -1867 0
1864 1866 -1868 0
1864 -1866 1868 0
-1864 1866 1868 0
-1864 -1866 -1868 0
25 44 -1869 0
25 -44 -1869 0
-25 44 -1869 0
-25 -44 1869 0
1686 1869 -1870 0
1686 -1869 -1870 0
-1686 1869 -1870 0
-1686 -1869 1870 0
1686 1869 -1871 0
1686 -1869 1871 0
-1686 1869 1871 0
-1686 -1869 -1871 0
1681 1871 -1872 0
1681 -1871 -1872 0
-1681 1871 -1872 0
-1681 -1871 1872 0
1681 1871 -1873 0
1681 -1871 1873 0
-1681 1871 1873 0
-1681 -1871 -1873 0
1870 1872 -1874 0
1870 -1872 1874 0
-1870 1872 1874 0
-1870 -1872 -1874 0
26 44 -1875 0
26 -44 -1875 0
-26 44 -1875 0
-26 -44 1875 0
1692 1875 -1876 0
1692 -1875 -1876 0
-1692 1875 -1876 0
-1692 -1875 1876 0
1692 1875 -1877 0
1692 -1875 1877 0
-1692 1875 1877 0
-1692 -1875 -1877 0
1687 1877 -1878 0
1687 -1877 -1878 0
-1687 1877 -1878 0
-1687 -1877 1878 0
1687 1877 -1879 0
1687 -1877 1879 0
-1687 1877 1879 0
-1687 -1877 -1879 0
1876 1878 -1880 0
1876 -1878 1880 0
-1876 1878 1880 0
-1876 -1878 -1880 0
27 44 -1881 0
27 -44 -1881 0
-27 44 -1881 0
-27 -44 1881 0
1698 1881 -1882 0
1698 -1881 -1882 0
-1698 1881 -1882 0
-1698 -1881 1882 0
1698 1881 -1883 0
1698 -1881 1883 0
-1698 1881 1883 0
-1698 -1881 -1883 0
1693 1883 -1884 0
1693 -1883 -1884 0
-1693 1883 -1884 0
-1693 -1883 1884 0
1693 1883 -1885 0
1693 -1883 1885 0
-1693 1883 1885 0
-1693 -1883 -1885 0
1882 1884 -1886 0
1882 -1884 1886 0
-1882 1884 1886 0
-1882 -1884 -1886 0
28 44 -1887 0
28 -44 -1887 0
-28 44 -1887 0
-28 -44 1887 0
1704 1887 -1888 0
1704 -1887 -1888 0
-1704 1887 -1888 0
-1704 -1887 1888 0
1704 1887 -1889 0
1704 -1887 1889 0
-1704 1887 1889 0
-1704 -1887 -1889 0
1699 1889 -1890 0
1699 -1889 -1890 0
-1699 1889 -1890 0
-1699 -1889 1890 0
1699 1889 -1891 0
1699 -1889 1891 0
-1699 1889 1891 0
-1699 -1889 -1891 0
1888 1890 -1892 0
1888 -1890 1892 0
-1888 1890 1892 0
-1888 -1890 -1892 0
29 44 -1893 0
29 -44 -1893 0
-29 44 -1893 0
-29 -44 1893 0
1710 1893 -1894 0
1710 -1893 -1894 0
-1710 1893 -1894 0
-1710 -1893 1894 0
1710 1893 -1895 0
1710 -1893 1895 0
-1710 1893 1895 0
-1710 -1893 -1895 0
1705 1895 -1896 0
1705 -1895 -1896 0
-1705 1895 -1896 0
-1705 -1895 1896 0
1705 1895 -1897 0
1705 -1895 1897 0
-1705 1895 1897 0
-1705 -1895 -1897 0
1894 1896 -1898 0
1894 -1896 1898 0
-1894 1896 1898 0
-1894 -1896 -1898 0
30 44 -1899 0
30 -44 -1899 0
-30 44 -1899 0
-30 -44 1899 0
1716 1899 -1900 0
1716 -1899 -1900 0
-1716 1899 -1900 0
-1716 -1899 1900 0
1716 1899 -1901 0
1716 -1899 1901 0
-1716 1899 1901 0
-1716 -1899 -1901 0
1711 1901 -1902 0
1711 -1901 -1902 0
-1711 1901 -1902 0
-1711 -1901 1902 0
1711 1901 -1903 0
1711 -1901 1903 0
-1711 1901 1903 0
-1711 -1901 -1903 0
1900 1902 -1904 0
1900 -1902 1904 0
-1900 1902 1904 0
-1900 -1902 -1904 0
31 44 -1905 0
31 -44 -1905 0
-31 44 -1905 0
-31 -44 1905 0
1722 1905 -1906 0
1722 -1905 -1906 0
-1722 1905 -1906 0
-1722 -1905 1906 0
1722 1905 -1907 0
1722 -1905 1907 0
-1722 1905 1907 0
-1722 -1905 -1907 0
1717 1907 -1908 0
1717 -1907 -1908 0
-1717 1907 -1908 0
-1717 -1907 1908 0
1717 1907 -1909 0
1717 -1907 1909 0
-1717 1907 1909 0
-1717 -1907 -1909 0
1906 1908 -1910 0
1906 -1908 1910 0
-1906 1908 1910 0
-1906 -1908 -1910 0
32 44 -1911 0
32 -44 -1911 0
-32 44 -1911 0
-32 -44 1911 0
1724 1911 -1912 0
1724 -1911 -1912 0
-1724 1911 -1912 0
-1724 -1911 1912 0
1724 1911 -1913 0
1724 -1911 1913 0
-1724 1911 1913 0
-1724 -1911 -1913 0
1723 1913 -1914 0
1723 -1913 -1914 0
-1723 1913 -1914 0
-1723 -1913 1914 0
1723 1913 -1915 0
1723 -1913 1915 0
-1723 1913 1915 0
-1723 -1913 -1915 0
1912 1914 -1916 0
1912 -1914 1916 0
-1912 1914 1916 0
-1912 -1914 -1916 0
33 44 -1917 0
33 -44 -1917 0
-33 44 -1917 0
-33 -44 1917 0
1 45 -1918 0
1 -45 -1918 0
-1 45 -1918 0
-1 -45 1918 0
1735 1918 -1919 0
1735 -1918 -1919 0
-1735 1918 -1919 0
-1735 -1918 1919 0
1735 1918 -1920 0
1735 -1918 1920 0
-1735 1918 1920 0
-1735 -1918 -1920 0
1730 1920 -1921 0
1730 -1920 -1921 0
-1730 1920 -1921 0
-1730 -1920 1921 0
1730 1920 -1922 0
1730 -1920 1922 0
-1730 1920 1922 0
-1730 -1920 -1922 0
1919 1921 -1923 0
1919 -1921 1923 0
-1919 1921 1923 0
-1919 -1921 -1923 0
2 45 -1924 0
2 -45 -1924 0
-2 45 -1924 0
-2 -45 1924 0
1741 1924 -1925 0
1741 -1924 -1925 0
-1741 1924 -1925 0
-1741 -1924 1925 0
1741 1924 -1926 0
1741 -1924 1926 0
-1741 1924 1926 0
-1741 -1924 -1926 0
1736 1926 -1927 0
1736 -1926 -1927 0
-1736 1926 -1927 0
-1736 -1926 1927 0
1736 1926 -1928 0
1736 -1926 1928 0
-1736 1926 1928 0
-1736 -1926 -1928 0
1925 1927 -1929 0
1925 -1927 1929 0
-1925 1927 1929 0
-1925 -1927 -1929 0
3 45 -1930 0
3 -45 -1930 0
-3 45 -1930 0
-3 -45 1930 0
1747 1930 -1931 0
1747 -1930 -1931 0
-1747 1930 -1931 0
-1747 -1930 1931 0
1747 1930 -1932 0
1747 -1930 1932 0
-1747 1930 1932 0
-1747 -1930 -1932 0
1742 1932 -1933 0
1742 -1932 -1933 0
-1742 1932 -1933 0
-1742 -1932 1933 0
1742 1932 -1934 0
1742 -1932 1934 0
-1742 1932 1934 0
-1742 -1932 -1934 0
1931 1933 -1935 0
1931 -1933 1935 0
-1931 1933 1935 0
-1931 -1933 -1935 0
4 45 -1936 0
4 -45 -1936 0
-4 45 -1936 0
-4 -45 1936 0
1753 1936 -1937 0
1753 -1936 -1937 0
-1753 1936 -1937 0
-1753 -1936 1937 0
1753 1936 -1938 0
1753 -1936 1938 0
-1753 1936 1938 0
-1753 -1936 -1938 0
1748 1938 -1939 0
1748 -1938 -1939 0
-1748 1938 -1939 0
-1748 -1938 1939 0
1748 1938 -1940 0
1748 -1938 1940 0
-1748 1938 1940 0
-1748 -1938 -1940 0
1937 1939 -1941 0
1937 -1939 1941 0
-1937 1939 1941 0
-1937 -1939 -1941 0
5 45 -1942 0
5 -45 -1942 0
-5 45 -1942 0
-5 -45 1942 0
1759 1942 -1943 0
1759 -1942 -1943 0
-1759 1942 -1943 0
-1759 -1942 1943 0
1759 1942 -1944 0
1759 -1942 1944 0
-1759 1942 1944 0
-1759 -1942 -1944 0
1754 1944 -1945 0
1754 -1944 -1945 0
-1754 1944 -1945 0
-1754 -1944 1945 0
1754 1944 -1946 0
1754 -1944 1946 0
-1754 1944 1946 0
-1754 -1944 -1946 0
1943 1945 -1947 0
1943 -1945 1947 0
-1943 1945 1947 0
-1943 -1945 -1947 0
6 45 -1948 0
6 -45 -1948 0
-6 45 -1948 0
-6 -45 1948 0
1765 1948 -1949 0
1765 -1948 -1949 0
-1765 1948 -1949 0
-1765 -1948 1949 0
1765 1948 -1950 0
1765 -1948 1950 0
-1765 1948 1950 0
-1765 -1948 -1950 0
1760 1950 -1951 0
1760 -1950 -1951 0
-1760 1950 -1951 0
-1760 -1950 1951 0
1760 1950 -1952 0
1760 -1950 1952 0
-1760 1950 1952 0
-1760 -1950 -1952 0
1949 1951 -1953 0
1949 -1951 1953 0
-1949 1951 1953 0
-1949 -1951 -1953 0
7 45 -1954 0
7 -45 -1954 0
-7 45 -1954 0
-7 -45 1954 0
1771 1954 -1955 0
1771 -1954 -1955 0
-1771 1954 -1955 0
-1771 -1954 1955 0
1771 1954 -1956 0
1771 -1954 1956 0
-1771 1954 1956 0
-1771 -1954 -1956 0
1766 1956 -1957 0
1766 -1956 -1957 0
-1766 1956 -1957 0
-1766 -1956 1957 0
1766 1956 -1958 0
1766 -1956 1958 0
-1766 1956 1958 0
-1766 -1956 -1958 0
1955 1957 -1959 0
1955 -1957 1959 0
-1955 1957 1959 0
-1955 -1957 -1959 0
8 45 -1960 0
8 -45 -1960 0
-8 45 -1960 0
-8 -45 1960 0
1777 1960 -1961 0
1777 -1960 -1961 0
-1777 1960 -1961 0
-1777 -1960 1961 0
1777 1960 -1962 0
1777 -1960 1962 0
-1777 1960 1962 0
-1777 -1960 -1962 0
1772 1962 -1963 0
1772 -1962 -1963 0
-1772 1962 -1963 0
-1772 -1962 1963 0
1772 1962 -1964 0
1772 -1962 1964 0
-1772 1962 1964 0
-1772 -1962 -1964 0
1961 1963 -1965 0
1961 -1963 1965 0
-1961 1963 1965 0
-1961 -1963 -1965 0
9 45 -1966 0
9 -45 -1966 0
-9 45 -1966 0
-9 -45 1966 0
1783 1966 -1967 0
1783 -1966 -1967 0
-1783 1966 -1967 0
-1783 -1966 1967 0
1783 1966 -1968 0
1783 -1966 1968 0
-1783 1966 1968 0
-1783 -1966 -1968 0
1778 1968 -1969 0
1778 -1968 -1969 0
-1778 1968 -1969 0
-1778 -1968 1969 0
1778 1968 -1970 0
1778 -1968 1970 0
-1778 1968 1970 0
-1778 -1968 -1970 0
1967 1969 -1971 0
1967 -1969 1971 0
-1967 1969 1971 0
-1967 -1969 -1971 0
10 45 -1972 0
10 -45 -1972 0
-10 45 -1972 0
-10 -45 1972 0
1789 1972 -1973 0
1789 -1972 -1973 0
-1789 1972 -1973 0
-1789 -1972 1973 0
1789 1972 -1974 0
1789 -1972 1974 0
-1789 1972 1974 0
-1789 -1972 -1974 0
1784 1974 -1975 0
1784 -1974 -1975 0
-1784 1974 -1975 0
-1784 -1974 1975 0
1784 1974 -1976 0
1784 -1974 1976 0
-1784 1974 1976 0
-1784 -1974 -1976 0
1973 1975 -1977 0
1973 -1975 1977 0
-1973 1975 1977 0
-1973 -1975 -1977 0
11 45 -1978 0
11 -45 -1978 0
-11 45 -1978 0
-11 -45 1978 0
1795 1978 -1979 0
1795 -1978 -1979 0
-1795 1978 -1979 0
-1795 -1978 1979 0
1795 1978 -1980 0
1795 -1978 1980 0
-1795 1978 1980 0
-1795 -1978 -1980 0
1790 1980 -1981 0
1790 -1980 -1981 0
-1790 1980 -1981 0
-1790 -1980 1981 0
1790 1980 -1982 0
1790 -1980 1982 0
-1790 1980 1982 0
-1790 -1980 -1982 0
1979 1981 -1983 0
1979 -1981 1983 0
-1979 1981 1983 0
-1979 -1981 -1983 0
12 45 -1984 0
12 -45 -1984 0
-12 45 -1984 0
-12 -45 1984 0
1801 1984 -1985 0
1801 -1984 -1985 0
-1801 1984 -1985 0
-1801 -1984 1985 0
1801 1984 -1986 0
1801 -1984 1986 0
-1801 1984 1986 0
-1801 -1984 -1986 0
1796 1986 -1987 0
1796 -1986 -1987 0
-1796 1986 -1987 0
-1796 -1986 1987 0
1796 1986 -1988 0
1796 -1986 1988 0
-1796 1986 1988 0
-1796 -1986 -1988 0
1985 1987 -1989 0
1985 -1987 1989 0
-1985 1987 1989 0
-1985 -1987 -1989 0
13 45 -1990 0
13 -45 -1990 0
-13 45 -1990 0
-13 -45 1990 0
1807 1990 -1991 0
1807 -1990 -1991 0
-1807 1990 -1991 0
-1807 -1990 1991 0
1807 1990 -1992 0
1807 -1990 1992 0
-1807 1990 1992 0
-1807 -1990 -1992 0
1802 1992 -1993 0
1802 -1992 -1993 0
-1802 1992 -1993 0
-1802 -1992 1993 0
1802 1992 -1994 0
1802 -1992 1994 0
-1802 1992 1994 0
-1802 -1992 -1994 0
1991 1993 -1995 0
1991 -1993 1995 0
-1991 1993 1995 0
-1991 -1993 -1995 0
14 45 -1996 0
14 -45 -1996 0
-14 45 -1996 0
-14 -45 1996 0
1813 1996 -1997 0
1813 -1996 -1997 0
-1813 1996 -1997 0
-1813 -1996 1997 0
1813 1996 -1998 0
1813 -1996 1998 0
-1813 1996 1998 0
-1813 -1996 -1998 0
1808 1998 -1999 0
1808 -1998 -1999 0
-1808 1998 -1999 0
-1808 -1998 1999 0
1808 1998 -2000 0
1808 -1998 2000 0
-1808 1998 2000 0
-1808 -1998 -2000 0
1997 1999 -2001 0
1997 -1999 2001 0
-1997 1999 2001 0
-1997 -1999 -2001 0
15 45 -2002 0
15 -45 -2002 0
-15 45 -2002 0
-15 -45 2002 0
1819 2002 -2003 0
1819 -2002 -2003 0
-1819 2002 -2003 0
-1819 -2002 2003 0
1819 2002 -2004 0
1819 -2002 2004 0
-1819 2002 2004 0
-1819 -2002 -2004 0
1814 2004 -2005 0
1814 -2004 -2005 0
-1814 2004 -2005 0
-1814 -2004 2005 0
1814 2004 -2006 0
1814 -2004 2006 0
-1814 2004 2006 0
-1814 -2004 -2006 0
2003 2005 -2007 0
2003 -2005 2007 0
-2003 2005 2007 0
-2003 -2005 -2007 0
16 45 -2008 0
16 -45 -2008 0
-16 45 -2008 0
-16 -45 2008 0
1825 2008 -2009 0
1825 -2008 -2009 0
-1825 2008 -2009 0
-1825 -2008 2009 0
1825 2008 -2010 0
1825 -2008 2010 0
-1825 2008 2010 0
-1825 -2008 -2010 0
1820 2010 -2011 0
1820 -2010 -2011 0
-1820 2010 -2011 0
-1820 -2010 2011 0
1820 2010 -2012 0
1820 -2010 2012 0
-1820 2010 2012 0
-1820 -2010 -2012 0
2009 2011 -2013 0
2009 -2011 2013 0
-2009 2011 2013 0
-2009 -2011 -2013 0
17 45 -2014 0
17 -45 -2014 0
-17 45 -2014 0
-17 -45 2014 0
1831 2014 -2015 0
1831 -2014 -2015 0
-1831 2014 -2015 0
-1831 -2014 2015 0
1831 2014 -2016 0
1831 -2014 2016 0
-1831 2014 2016 0
-1831 -2014 -2016 0
1826 2016 -2017 0
1826 -2016 -2017 0
-1826 2016 -2017 0
-1826 -2016 2017 0
1826 2016 -2018 0
1826 -2016 2018 0
-1826 2016 2018 0
-1826 -2016 -2018 0
2015 2017 -2019 0
2015 -2017 2019 0
-2015 2017 2019 0
-2015 -2017 -2019 0
18 45 -2020 0
18 -45 -2020 0
-18 45 -2020 0
-18 -45 2020 0
1837 2020 -2021 0
1837 -2020 -2021 0
-1837 2020 -2021 0
-1837 -2020 2021 0
1837 2020 -2022 0
1837 -2020 2022 0
-1837 2020 2022 0
-1837 -2020 -2022 0
1832 2022 -2023 0
1832 -2022 -2023 0
-1832 2022 -2023 0
-1832 -2022 2023 0
1832 2022 -2024 0
1832 -2022 2024 0
-1832 2022 2024 0
-1832 -2022 -2024 0
2021 2023 -2025 0
2021 -2023 2025 0
-2021 2023 2025 0
-2021 -2023 -2025 0
19 45 -2026 0
19 -45 -2026 0
-19 45 -2026 0
-19 -45 2026 0
1843 2026 -2027 0
1843 -2026 -2027 0
-1843 2026 -2027 0
-1843 -2026 2027 0
1843 2026 -2028 0
1843 -2026 2028 0
-1843 2026 2028 0
-1843 -2026 -2028 0
1838 2028 -2029 0
1838 -2028 -2029 0
-1838 2028 -2029 0
-1838 -2028 2029 0
1838 2028 -2030 0
1838 -2028 2030 0
-1838 2028 2030 0
-1838 -2028 -2030 0
2027 2029 -2031 0
2027 -2029 2031 0
-2027 2029 2031 0
-2027 -2029 -2031 0
20 45 -2032 0
20 -45 -2032 0
-20 45 -2032 0
-20 -45 2032 0
1849 2032 -2033 0
1849 -2032 -2033 0
-1849 2032 -2033 0
-1849 -2032 2033 0
1849 2032 -2034 0
1849 -2032 2034 0
-1849 2032 2034 0
-1849 -2032 -2034 0
1844 2034 -2035 0
1844 -2034 -2035 0
-1844 2034 -2035 0
-1844 -2034 2035 0
1844 2034 -2036 0
1844 -2034 2036 0
-1844 2034 2036 0
-1844 -2034 -2036 0
2033 2035 -2037 0
2033 -2035 2037 0
-2033 2035 2037 0
-2033 -2035 -2037 0
21 45 -2038 0
21 -45 -2038 0
-21 45 -2038 0
-21 -45 2038 0
1855 2038 -2039 0
1855 -2038 -2039 0
-1855 2038 -2039 0
-1855 -2038 2039 0
1855 2038 -2040 0
1855 -2038 2040 0
-1855 2038 2040 0
-1855 -2038 -2040 0
1850 2040 -2041 0
1850 -2040 -2041 0
-1850 2040 -2041 0
-1850 -2040 2041 0
1850 2040 -2042 0
1850 -2040 2042 0
-1850 2040 2042 0
-1850 -2040 -2042 0
2039 2041 -2043 0
2039 -2041 2043 0
-2039 2041 2043 0
-2039 -2041 -2043 0
22 45 -2044 0
22 -45 -2044 0
-22 45 -2044 0
-22 -45 2044 0
1861 2044 -2045 0
1861 -2044 -2045 0
-1861 2044 -2045 0
-1861 -2044 2045 0
1861 2044 -2046 0
1861 -2044 2046 0
-1861 2044 2046 0
-1861 -2044 -2046 0
1856 2046 -2047 0
1856 -2046 -2047 0
-1856 2046 -2047 0
-1856 -2046 2047 0
1856 2046 -2048 0
1856 -2046 2048 0
-1856 2046 2048 0
-1856 -2046 -2048 0
2045 2047 -2049 0
2045 -2047 2049 0
-2045 2047 2049 0
-2045 -2047 -2049 0
23 45 -2050 0
23 -45 -2050 0
-23 45 -2050 0
-23 -45 2050 0
1867 2050 -2051 0
1867 -2050 -2051 0
-1867 2050 -2051 0
-1867 -2050 2051 0
1867 2050 -2052 0
1867 -2050 2052 0
-1867 2050 2052 0
-1867 -2050 -2052 0
1862 2052 -2053 0
1862 -2052 -2053 0
-1862 2052 -2053 0
-1862 -2052 2053 0
1862 2052 -2054 0
1862 -2052 2054 0
-1862 2052 2054 0
-1862 -2052 -2054 0
2051 2053 -2055 0
2051 -2053 2055 0
-2051 2053 2055 0
-2051 -2053 -2055 0
24 45 -2056 0
24 -45 -2056 0
-24 45 -2056 0
-24 -45 2056 0
1873 2056 -2057 0
1873 -2056 -2057 0
-1873 2056 -2057 0
-1873 -2056 2057 0
1873 2056 -2058 0
1873 -2056 2058 0
-1873 2056 2058 0
-1873 -2056 -2058 0
1868 2058 -2059 0
1868 -2058 -2059 0
-1868 2058 -2059 0
-1868 -2058 2059 0
1868 2058 -2060 0
1868 -2058 2060 0
-1868 2058 2060 0
-1868 -2058 -2060 0
2057 2059 -2061 0
2057 -2059 2061 0
-2057 2059 2061 0
-2057 -2059 -2061 0
25 45 -2062 0
25 -45 -2062 0
-25 45 -2062 0
-25 -45 2062 0
1879 2062 -2063 0
1879 -2062 -2063 0
-1879 2062 -2063 0
-1879 -2062 2063 0
1879 2062 -2064 0
1879 -2062 2064 0
-1879 2062 2064 0
-1879 -2062 -2064 0
1874 2064 -2065 0
1874 -2064 -2065 0
-1874 2064 -2065 0
-1874 -2064 2065 0
1874 2064 -2066 0
1874 -2064 2066 0
-1874 2064 2066 0
-1874 -2064 -2066 0
2063 2065 -2067 0
2063 -2065 2067 0
-2063 2065 2067 0
-2063 -2065 -2067 0
26 45 -2068 0
26 -45 -2068 0
-26 45 -2068 0
-26 -45 2068 0
1885 2068 -2069 0
1885 -2068 -2069 0
-1885 2068 -2069 0
-1885 -2068 2069 0
1885 2068 -2070 0
1885 -2068 2070 0
-1885 2068 2070 0
-1885 -2068 -2070 0
1880 2070 -2071 0
1880 -2070 -2071 0
-1880 2070 -2071 0
-1880 -2070 2071 0
1880 2070 -2072 0
1880 -2070 2072 0
-1880 2070 2072 0
-1880 -2070 -2072 0
2069 2071 -2073 0
2069 -2071 2073 0
-2069 2071 2073 0
-2069 -2071 -2073 0
27 45 -2074 0
27 -45 -2074 0
-27 45 -2074 0
-27 -45 2074 0
1891 2074 -2075 0
1891 -2074 -2075 0
-1891 2074 -2075 0
-1891 -2074 2075 0
1891 2074 -2076 0
1891 -2074 2076 0
-1891 2074 2076 0
-1891 -2074 -2076 0
1886 2076 -2077 0
1886 -2076 -2077 0
-1886 2076 -2077 0
-1886 -2076 2077 0
1886 2076 -2078 0
1886 -2076 2078 0
-1886 2076 2078 0
-1886 -2076 -2078 0
2075 2077 -2079 0
2075 -2077 2079 0
-2075 2077 2079 0
-2075 -2077 -2079 0
28 45 -2080 0
28 -45 -2080 0
-28 45 -2080 0
-28 -45 2080 0
1897 2080 -2081 0
1897 -2080 -2081 0
-1897 2080 -2081 0
-1897 -2080 2081 0
1897 2080 -2082 0
1897 -2080 2082 0
-1897 2080 2082 0
-1897 -2080 -2082 0
1892 2082 -2083 0
1892 -2082 -2083 0
-1892 2082 -2083 0
-1892 -2082 2083 0
1892 2082 -2084 0
1892 -2082 2084 0
-1892 2082 2084 0
-1892 -2082 -2084 0
2081 2083 -2085 0
2081 -2083 2085 0
-2081 2083 2085 0
-2081 -2083 -2085 0
29 45 -2086 0
29 -45 -2086 0
-29 45 -2086 0
-29 -45 2086 0
1903 2086 -2087 0
1903 -2086 -2087 0
-1903 2086 -2087 0
-1903 -2086 2087 0
1903 2086 -2088 0
1903 -2086 2088 0
-1903 2086 2088 0
-1903 -2086 -2088 0
1898 2088 -2089 0
1898 -2088 -2089 0
-1898 2088 -2089 0
-1898 -2088 2089 0
1898 2088 -2090 0
1898 -2088 2090 0
-1898 2088 2090 0
-1898 -2088 -2090 0
2087 2089 -2091 0
2087 -2089 2091 0
-2087 2089 2091 0
-2087 -2089 -2091 0
30 45 -2092 0
30 -45 -2092 0
-30 45 -2092 0
-30 -45 2092 0
1909 2092 -2093 0
1909 -2092 -2093 0
-1909 2092 -2093 0
-1909 -2092 2093 0
1909 2092 -2094 0
1909 -2092 2094 0
-1909 2092 2094 0
-1909 -2092 -2094 0
1904 2094 -2095 0
1904 -2094 -2095 0
-1904 2094 -2095 0
-1904 -2094 2095 0
1904 2094 -2096 0
1904 -2094 2096 0
-1904 2094 2096 0
-1904 -2094 -2096 0
2093 2095 -2097 0
2093 -2095 2097 0
-2093 2095 2097 0
-2093 -2095 -2097 0
31 45 -2098 0
31 -45 -2098 0
-31 45 -2098 0
-31 -45 2098 0
1915 2098 -2099 0
1915 -2098 -2099 0
-1915 2098 -2099 0
-1915 -2098 2099 0
1915 2098 -2100 0
1915 -2098 2100 0
-1915 2098 2100 0
-1915 -2098 -2100 0
1910 2100 -2101 0
1910 -2100 -2101 0
-1910 2100 -2101 0
-1910 -2100 2101 0
1910 2100 -2102 0
1910 -2100 2102 0
-1910 2100 2102 0
-1910 -2100 -2102 0
2099 2101 -2103 0
2099 -2101 2103 0
-2099 2101 2103 0
-2099 -2101 -2103 0
32 45 -2104 0
32 -45 -2104 0
-32 45 -2104 0
-32 -45 2104 0
1917 2104 -2105 0
1917 -2104 -2105 0
-1917 2104 -2105 0
-1917 -2104 2105 0
1917 2104 -2106 0
1917 -2104 2106 0
-1917 2104 2106 0
-1917 -2104 -2106 0
1916 2106 -2107 0
1916 -2106 -2107 0
-1916 2106 -2107 0
-1916 -2106 2107 0
1916 2106 -2108 0
1916 -2106 2108 0
-1916 2106 2108 0
-1916 -2106 -2108 0
2105 2107 -2109 0
2105 -2107 2109 0
-2105 2107 2109 0
-2105 -2107 -2109 0
33 45 -2110 0
33 -45 -2110 0
-33 45 -2110 0
-33 -45 2110 0
1 46 -2111 0
1 -46 -2111 0
-1 46 -2111 0
-1 -46 2111 0
1928 2111 -2112 0
1928 -2111 -2112 0
-1928 2111 -2112 0
-1928 -2111 2112 0
1928 2111 -2113 0
1928 -2111 2113 0
-1928 2111 2113 0
-1928 -2111 -2113 0
1923 2113 -2114 0
1923 -2113 -2114 0
-1923 2113 -2114 0
-1923 -2113 2114 0
1923 2113 -2115 0
1923 -2113 2115 0
-1923 2113 2115 0
-1923 -2113 -2115 0
2112 2114 -2116 0
2112 -2114 2116 0
-2112 2114 2116 0
-2112 -2114 -2116 0
2 46 -2117 0
2 -46 -2117 0
-2 46 -2117 0
-2 -46 2117 0
1934 2117 -2118 0
1934 -2117 -2118 0
-1934 2117 -2118 0
-1934 -2117 2118 0
1934 2117 -2119 0
1934 -2117 2119 0
-1934 2117 2119 0
-1934 -2117 -2119 0
1929 2119 -2120 0
1929 -2119 -2120 0
-1929 2119 -2120 0
-1929 -2119 2120 0
1929 2119 -2121 0
1929 -2119 2121 0
-1929 2119 2121 0
-1929 -2119 -2121 0
2118 2120 -2122 0
2118 -2120 2122 0
-2118 2120 2122 0
-2118 -2120 -2122 0
3 46 -2123 0
3 -46 -2123 0
-3 46 -2123 0
-3 -46 2123 0
1940 2123 -2124 0
1940 -2123 -2124 0
-1940 2123 -2124 0
-1940 -2123 2124 0
1940 2123 -2125 0
1940 -2123 2125 0
-1940 2123 2125 0
-1940 -2123 -2125 0
1935 2125 -2126 0
1935 -2125 -2126 0
-1935 2125 -2126 0
-1935 -2125 2126 0
1935 2125 -2127 0
1935 -2125 2127 0
-1935 2125 2127 0
-1935 -2125 -2127 0
2124 2126 -2128 0
2124 -2126 2128 0
-2124 2126 2128 0
-2124 -2126 -2128 0
4 46 -2129 0
4 -46 -2129 0
-4 46 -2129 0
-4 -46 2129 0
1946 2129 -2130 0
1946 -2129 -2130 0
-1946 2129 -2130 0
-1946 -2129 2130 0
1946 2129 -2131 0
1946 -2129 2131 0
-1946 2129 2131 0
-1946 -2129 -2131 0
1941 2131 -2132 0
1941 -2131 -2132 0
-1941 2131 -2132 0
-1941 -2131 2132 0
1941 2131 -2133 0
1941 -2131 2133 0
-1941 2131 2133 0
-1941 -2131 -2133 0
2130 2132 -2134 0
2130 -2132 2134 0
-2130 2132 2134 0
-2130 -2132 -2134 0
5 46 -2135 0
5 -46 -2135 0
-5 46 -2135 0
-5 -46 2135 0
1952 2135 -2136 0
1952 -2135 -2136 0
-1952 2135 -2136 0
-1952 -2135 2136 0
1952 2135 -2137 0
1952 -2135 2137 0
-1952 2135 2137 0
-1952 -2135 -2137 0
1947 2137 -2138 0
1947 -2137 -2138 0
-1947 2137 -2138 0
-1947 -2137 2138 0
1947 2137 -2139 0
1947 -2137 2139 0
-1947 2137 2139 0
-1947 -2137 -2139 0
2136 2138 -2140 0
2136 -2138 2140 0
-2136 2138 2140 0
-2136 -2138 -2140 0
6 46 -2141 0
6 -46 -2141 0
-6 46 -2141 0
-6 -46 2141 0
1958 2141 -2142 0
1958 -2141 -2142 0
-1958 2141 -2142 0
-1958 -2141 2142 0
1958 2141 -2143 0
1958 -2141 2143 0
-1958 2141 2143 0
-1958 -2141 -2143 0
1953 2143 -2144 0
1953 -2143 -2144 0
-1953 2143 -2144 0
-1953 -2143 2144 0
1953 2143 -2145 0
1953 -2143 2145 0
-1953 2143 2145 0
-1953 -2143 -2145 0
2142 2144 -2146 0
2142 -2144 2146 0
-2142 2144 2146 0
-2142 -2144 -2146 0
7 46 -2147 0
7 -46 -2147 0
-7 46 -2147 0
-7 -46 2147 0
1964 2147 -2148 0
1964 -2147 -2148 0
-1964 2147 -2148 0
-1964 -2147 2148 0
1964 2147 -2149 0
1964 -2147 2149 0
-1964 2147 2149 0
-1964 -2147 -2149 0
1959 2149 -2150 0
1959 -2149 -2150 0
-1959 2149 -2150 0
-1959 -2149 2150 0
1959 2149 -2151 0
1959 -2149 2151 0
-1959 2149 2151 0
-1959 -2149 -2151 0
2148 2150 -2152 0
2148 -2150 2152 0
-2148 2150 2152 0
-2148 -2150 -2152 0
8 46 -2153 0
8 -46 -2153 0
-8 46 -2153 0
-8 -46 2153 0
1970 2153 -2154 0
1970 -2153 -2154 0
-1970 2153 -2154 0
-1970 -2153 2154 0
1970 2153 -2155 0
1970 -2153 2155 0
-1970 2153 2155 0
-1970 -2153 -2155 0
1965 2155 -2156 0
1965 -2155 -2156 0
-1965 2155 -2156 0
-1965 -2155 2156 0
1965 2155 -2157 0
1965 -2155 2157 0
-1965 2155 2157 0
-1965 -2155 -2157 0
2154 2156 -2158 0
2154 -2156 2158 0
-2154 2156 2158 0
-2154 -2156 -2158 0
9 46 -2159 0
9 -46 -2159 0
-9 46 -2159 0
-9 -46 2159 0
1976 2159 -2160 0
1976 -2159 -2160 0
-1976 2159 -2160 0
-1976 -2159 2160 0
1976 2159 -2161 0
1976 -2159 2161 0
-1976 2159 2161 0
-1976 -2159 -2161 0
1971 2161 -2162 0
1971 -2161 -2162 0
-1971 2161 -2162 0
-1971 -2161 2162 0
1971 2161 -2163 0
1971 -2161 2163 0
-1971 2161 2163 0
-1971 -2161 -2163 0
2160 2162 -2164 0
2160 -2162 2164 0
-2160 2162 2164 0
-2160 -2162 -2164 0
10 46 -2165 0
10 -46 -2165 0
-10 46 -2165 0
-10 -46 2165 0
1982 2165 -2166 0
1982 -2165 -2166 0
-1982 2165 -2166 0
-1982 -2165 2166 0
1982 2165 -2167 0
1982 -2165 2167 0
-1982 2165 2167 0
-1982 -2165 -2167 0
1977 2167 -2168 0
1977 -2167 -2168 0
-1977 2167 -2168 0
-1977 -2167 2168 0
1977 2167 -2169 0
1977 -2167 2169 0
-1977 2167 2169 0
-1977 -2167 -2169 0
2166 2168 -2170 0
2166 -2168 2170 0
-2166 2168 2170 0
-2166 -2168 -2170 0
11 46 -2171 0
11 -46 -2171 0
-11 46 -2171 0
-11 -46 2171 0
1988 2171 -2172 0
1988 -2171 -2172 0
-1988 2171 -2172 0
-1988 -2171 2172 0
1988 2171 -2173 0
1988 -2171 2173 0
-1988 2171 2173 0
-1988 -2171 -2173 0
1983 2173 -2174 0
1983 -2173 -2174 0
-1983 2173 -2174 0
-1983 -2173 2174 0
1983 2173 -2175 0
1983 -2173 2175 0
-1983 2173 2175 0
-1983 -2173 -2175 0
2172 2174 -2176 0
2172 -2174 2176 0
-2172 2174 2176 0
-2172 -2174 -2176 0
12 46 -2177 0
12 -46 -2177 0
-12 46 -2177 0
-12 -46 2177 0
1994 2177 -2178 0
1994 -2177 -2178 0
-1994 2177 -2178 0
-1994 -2177 2178 0
1994 2177 -2179 0
1994 -2177 2179 0
-1994 2177 2179 0
-1994 -2177 -2179 0
1989 2179 -2180 0
1989 -2179 -2180 0
-1989 2179 -2180 0
-1989 -2179 2180 0
1989 2179 -2181 0
1989 -2179 2181 0
-1989 2179 2181 0
-1989 -2179 -2181 0
2178 2180 -2182 0
2178 -2180 2182 0
-2178 2180 2182 0
-2178 -2180 -2182 0
13 46 -2183 0
13 -46 -2183 0
-13 46 -2183 0
-13 -46 2183 0
2000 2183 -2184 0
2000 -2183 -2184 0
-2000 2183 -2184 0
-2000 -2183 2184 0
2000 2183 -2185 0
2000 -2183 2185 0
-2000 2183 2185 0
-2000 -2183 -2185 0
1995 2185 -2186 0
1995 -2185 -2186 0
-1995 2185 -2186 0
-1995 -2185 2186 0
1995 2185 -2187 0
1995 -2185 2187 0
-1995 2185 2187 0
-1995 -2185 -2187 0
2184 2186 -2188 0
2184 -2186 2188 0
-2184 2186 2188 0
-2184 -2186 -2188 0
14 46 -2189 0
14 -46 -2189 0
-14 46 -2189 0
-14 -46 2189 0
2006 2189 -2190 0
2006 -2189 -2190 0
-2006 2189 -2190 0
-2006 -2189 2190 0
2006 2189 -2191 0
2006 -2189 2191 0
-2006 2189 2191 0
-2006 -2189 -2191 0
2001 2191 -2192 0
2001 -2191 -2192 0
-2001 2191 -2192 0
-2001 -2191 2192 0
2001 2191 -2193 0
2001 -2191 2193 0
-2001 2191 2193 0
-2001 -2191 -2193 0
2190 2192 -2194 0
2190 -2192 2194 0
-2190 2192 2194 0
-2190 -2192 -2194 0
15 46 -2195 0
15 -46 -2195 0
-15 46 -2195 0
-15 -46 2195 0
2012 2195 -2196 0
2012 -2195 -2196 0
-2012 2195 -2196 0
-2012 -2195 2196 0
2012 2195 -2197 0
2012 -2195 2197 0
-2012 2195 2197 0
-2012 -2195 -2197 0
2007 2197 -2198 0
2007 -2197 -2198 0
-2007 2197 -2198 0
-2007 -2197 2198 0
2007 2197 -2199 0
2007 -2197 2199 0
-2007 2197 2199 0
-2007 -2197 -2199 0
2196 2198 -2200 0
2196 -2198 2200 0
-2196 2198 2200 0
-2196 -2198 -2200 0
16 46 -2201 0
16 -46 -2201 0
-16 46 -2201 0
-16 -46 2201 0
2018 2201 -2202 0
2018 -2201 -2202 0
-2018 2201 -2202 0
-2018 -2201 2202 0
2018 2201 -2203 0
2018 -2201 2203 0
-2018 2201 2203 0
-2018 -2201 -2203 0
2013 2203 -2204 0
2013 -2203 -2204 0
-2013 2203 -2204 0
-2013 -2203 2204 0
2013 2203 -2205 0
2013 -2203 2205 0
-2013 2203 2205 0
-2013 -2203 -2205 0
2202 2204 -2206 0
2202 -2204 2206 0
-2202 2204 2206 0
-2202 -2204 -2206 0
17 46 -2207 0
17 -46 -2207 0
-17 46 -2207 0
-17 -46 2207 0
2024 2207 -2208 0
2024 -2207 -2208 0
-2024 2207 -2208 0
-2024 -2207 2208 0
2024 2207 -2209 0
2024 -2207 2209 0
-2024 2207 2209 0
-2024 -2207 -2209 0
2019 2209 -2210 0
2019 -2209 -2210 0
-2019 2209 -2210 0
-2019 -2209 2210 0
2019 2209 -2211 0
2019 -2209 2211 0
-2019 2209 2211 0
-2019 -2209 -2211 0
2208 2210 -2212 0
2208 -2210 2212 0
-2208 2210 2212 0
-2208 -2210 -2212 0
18 46 -2213 0
18 -46 -2213 0
-18 46 -2213 0
-18 -46 2213 0
2030 2213 -2214 0
2030 -2213 -2214 0
-2030 2213 -2214 0
-2030 -2213 2214 0
2030 2213 -2215 0
2030 -2213 2215 0
-2030 2213 2215 0
-2030 -2213 -2215 0
2025 2215 -2216 0
2025 -2215 -2216 0
-2025 2215 -2216 0
-2025 -2215 2216 0
2025 2215 -2217 0
2025 -2215 2217 0
-2025 2215 2217 0
-2025 -2215 -2217 0
2214 2216 -2218 0
2214 -2216 2218 0
-2214 2216 2218 0
-2214 -2216 -2218 0
19 46 -2219 0
19 -46 -2219 0
-19 46 -2219 0
-19 -46 2219 0
2036 2219 -2220 0
2036 -2219 -2220 0
-2036 2219 -2220 0
-2036 -2219 2220 0
2036 2219 -2221 0
2036 -2219 2221 0
-2036 2219 2221 0
-2036 -2219 -2221 0
2031 2221 -2222 0
2031 -2221 -2222 0
-2031 2221 -2222 0
-2031 -2221 2222 0
2031 2221 -2223 0
2031 -2221 2223 0
-2031 2221 2223 0
-2031 -2221 -2223 0
2220 2222 -2224 0
2220 -2222 2224 0
-2220 2222 2224 0
-2220 -2222 -2224 0
20 46 -2225 0
20 -46 -2225 0
-20 46 -2225 0
-20 -46 2225 0
2042 2225 -2226 0
2042 -2225 -2226 0
-2042 2225 -2226 0
-2042 -2225 2226 0
2042 2225 -2227 0
2042 -2225 2227 0
-2042 2225 2227 0
-2042 -2225 -2227 0
2037 2227 -2228 0
2037 -2227 -2228 0
-2037 2227 -2228 0
-2037 -2227 2228 0
2037 2227 -2229 0
2037 -2227 2229 0
-2037 2227 2229 0
-2037 -2227 -2229 0
2226 2228 -2230 0
2226 -2228 2230 0
-2226 2228 2230 0
-2226 -2228 -2230 0
21 46 -2231 0
21 -46 -2231 0
-21 46 -2231 0
-21 -46 2231 0
2048 2231 -2232 0
2048 -2231 -2232 0
-2048 2231 -2232 0
-2048 -2231 2232 0
2048 2231 -2233 0
2048 -2231 2233 0
-2048 2231 2233 0
-2048 -2231 -2233 0
2043 2233 -2234 0
2043 -2233 -2234 0
-2043 2233 -2234 0
-2043 -2233 2234 0
2043 2233 -2235 0
2043 -2233 2235 0
-2043 2233 2235 0
-2043 -2233 -2235 0
2232 2234 -2236 0
2232 -2234 2236 0
-2232 2234 2236 0
-2232 -2234 -2236 0
22 46 -2237 0
22 -46 -2237 0
-22 46 -2237 0
-22 -46 2237 0
2054 2237 -2238 0
2054 -2237 -2238 0
-2054 2237 -2238 0
-2054 -2237 2238 0
2054 2237 -2239 0
2054 -2237 2239 0
-2054 2237 2239 0
-2054 -2237 -2239 0
2049 2239 -2240 0
2049 -2239 -2240 0
-2049 2239 -2240 0
-2049 -2239 2240 0
2049 2239 -2241 0
2049 -2239 2241 0
-2049 2239 2241 0
-2049 -2239 -2241 0
2238 2240 -2242 0
2238 -2240 2242 0
-2238 2240 2242 0
-2238 -2240 -2242 0
23 46 -2243 0
23 -46 -2243 0
-23 46 -2243 0
-23 -46 2243 0
2060 2243 -2244 0
2060 -2243 -2244 0
-2060 2243 -2244 0
-2060 -2243 2244 0
2060 2243 -2245 0
2060 -2243 2245 0
-2060 2243 2245 0
-2060 -2243 -2245 0
2055 2245 -2246 0
2055 -2245 -2246 0
-2055 2245 -2246 0
-2055 -2245 2246 0
2055 2245 -2247 0
2055 -2245 2247 0
-2055 2245 2247 0
-2055 -2245 -2247 0
2244 2246 -2248 0
2244 -2246 2248 0
-2244 2246 2248 0
-2244 -2246 -2248 0
24 46 -2249 0
24 -46 -2249 0
-24 46 -2249 0
-24 -46 2249 0
2066 2249 -2250 0
2066 -2249 -2250 0
-2066 2249 -2250 0
-2066 -2249 2250 0
2066 2249 -2251 0
2066 -2249 2251 0
-2066 2249 2251 0
-2066 -2249 -2251 0
2061 2251 -2252 0
2061 -2251 -2252 0
-2061 2251 -2252 0
-2061 -2251 2252 0
2061 2251 -2253 0
2061 -2251 2253 0
-2061 2251 2253 0
-2061 -2251 -2253 0
2250 2252 -2254 0
2250 -2252 2254 0
-2250 2252 2254 0
-2250 -2252 -2254 0
25 46 -2255 0
25 -46 -2255 0
-25 46 -2255 0
-25 -46 2255 0
2072 2255 -2256 0
2072 -2255 -2256 0
-2072 2255 -2256 0
-2072 -2255 2256 0
2072 2255 -2257 0
2072 -2255 2257 0
-2072 2255 2257 0
-2072 -2255 -2257 0
2067 2257 -2258 0
2067 -2257 -2258 0
-2067 2257 -2258 0
-2067 -2257 2258 0
2067 2257 -2259 0
2067 -2257 2259 0
-2067 2257 2259 0
-2067 -2257 -2259 0
2256 2258 -2260 0
2256 -2258 2260 0
-2256 2258 2260 0
-2256 -2258 -2260 0
26 46 -2261 0
26 -46 -2261 0
-26 46 -2261 0
-26 -46 2261 0
2078 2261 -2262 0
2078 -2261 -2262 0
-2078 2261 -2262 0
-2078 -2261 2262 0
2078 2261 -2263 0
2078 -2261 2263 0
-2078 2261 2263 0
-2078 -2261 -2263 0
2073 2263 -2264 0
2073 -2263 -2264 0
-2073 2263 -2264 0
-2073 -2263 2264 0
2073 2263 -2265 0
2073 -2263 2265 0
-2073 2263 2265 0
-2073 -2263 -2265 0
2262 2264 -2266 0
2262 -2264 2266 0
-2262 2264 2266 0
-2262 -2264 -2266 0
27 46 -2267 0
27 -46 -2267 0
-27 46 -2267 0
-27 -46 2267 0
2084 2267 -2268 0
2084 -2267 -2268 0
-2084 2267 -2268 0
-2084 -2267 2268 0
2084 2267 -2269 0
2084 -2267 2269 0
-2084 2267 2269 0
-2084 -2267 -2269 0
2079 2269 -2270 0
2079 -2269 -2270 0
-2079 2269 -2270 0
-2079 -2269 2270 0
2079 2269 -2271 0
2079 -2269 2271 0
-2079 2269 2271 0
-2079 -2269 -2271 0
2268 2270 -2272 0
2268 -2270 2272 0
-2268 2270 2272 0
-2268 -2270 -2272 0
28 46 -2273 0
28 -46 -2273 0
-28 46 -2273 0
-28 -46 2273 0
2090 2273 -2274 0
2090 -2273 -2274 0
-2090 2273 -2274 0
-2090 -2273 2274 0
2090 2273 -2275 0
2090 -2273 2275 0
-2090 2273 2275 0
-2090 -2273 -2275 0
2085 2275 -2276 0
2085 -2275 -2276 0
-2085 2275 -2276 0
-2085 -2275 2276 0
2085 2275 -2277 0
2085 -2275 2277 0
-2085 2275 2277 0
-2085 -2275 -2277 0
2274 2276 -2278 0
2274 -2276 2278 0
-2274 2276 2278 0
-2274 -2276 -2278 0
29 46 -2279 0
29 -46 -2279 0
-29 46 -2279 0
-29 -46 2279 0
2096 2279 -2280 0
2096 -2279 -2280 0
-2096 2279 -2280 0
-2096 -2279 2280 0
2096 2279 -2281 0
2096 -2279 2281 0
-2096 2279 2281 0
-2096 -2279 -2281 0
2091 2281 -2282 0
2091 -2281 -2282 0
-2091 2281 -2282 0
-2091 -2281 2282 0
2091 2281 -2283 0
2091 -2281 2283 0
-2091 2281 2283 0
-2091 -2281 -2283 0
2280 2282 -2284 0
2280 -2282 2284 0
-2280 2282 2284 0
-2280 -2282 -2284 0
30 46 -2285 0
30 -46 -2285 0
-30 46 -2285 0
-30 -46 2285 0
2102 2285 -2286 0
2102 -2285 -2286 0
-2102 2285 -2286 0
-2102 -2285 2286 0
2102 2285 -2287 0
2102 -2285 2287 0
-2102 2285 2287 0
-2102 -2285 -2287 0
2097 2287 -2288 0
2097 -2287 -2288 0
-2097 2287 -2288 0
-2097 -2287 2288 0
2097 2287 -2289 0
2097 -2287 2289 0
-2097 2287 2289 0
-2097 -2287 -2289 0
2286 2288 -2290 0
2286 -2288 2290 0
-2286 2288 2290 0
-2286 -2288 -2290 0
31 46 -2291 0
31 -46 -2291 0
-31 46 -2291 0
-31 -46 2291 0
2108 2291 -2292 0
2108 -2291 -2292 0
-2108 2291 -2292 0
-2108 -2291 2292 0
2108 2291 -2293 0
2108 -2291 2293 0
-2108 2291 2293 0
-2108 -2291 -2293 0
2103 2293 -2294 0
2103 -2293 -2294 0
-2103 2293 -2294 0
-2103 -2293 2294 0
2103 2293 -2295 0
2103 -2293 2295 0
-2103 2293 2295 0
-2103 -2293 -2295 0
2292 2294 -2296 0
2292 -2294 2296 0
-2292 2294 2296 0
-2292 -2294 -2296 0
32 46 -2297 0
32 -46 -2297 0
-32 46 -2297 0
-32 -46 2297 0
2110 2297 -2298 0
2110 -2297 -2298 0
-2110 2297 -2298 0
-2110 -2297 2298 0
2110 2297 -2299 0
2110 -2297 2299 0
-2110 2297 2299 0
-2110 -2297 -2299 0
2109 2299 -2300 0
2109 -2299 -2300 0
-2109 2299 -2300 0
-2109 -2299 2300 0
2109 2299 -2301 0
2109 -2299 2301 0
-2109 2299 2301 0
-2109 -2299 -2301 0
2298 2300 -2302 0
2298 -2300 2302 0
-2298 2300 2302 0
-2298 -2300 -2302 0
33 46 -2303 0
33 -46 -2303 0
-33 46 -2303 0
-33 -46 2303 0
1 47 -2304 0
1 -47 -2304 0
-1 47 -2304 0
-1 -47 2304 0
2121 2304 -2305 0
2121 -2304 -2305 0
-2121 2304 -2305 0
-2121 -2304 2305 0
2121 2304 -2306 0
2121 -2304 2306 0
-2121 2304 2306 0
-2121 -2304 -2306 0
2116 2306 -2307 0
2116 -2306 -2307 0
-2116 2306 -2307 0
-2116 -2306 2307 0
2116 2306 -2308 0
2116 -2306 2308 0
-2116 2306 2308 0
-2116 -2306 -2308 0
2305 2307 -2309 0
2305 -2307 2309 0
-2305 2307 2309 0
-2305 -2307 -2309 0
2 47 -2310 0
2 -47 -2310 0
-2 47 -2310 0
-2 -47 2310 0
2127 2310 -2311 0
2127 -2310 -2311 0
-2127 2310 -2311 0
-2127 -2310 2311 0
2127 2310 -2312 0
2127 -2310 2312 0
-2127 2310 2312 0
-2127 -2310 -2312 0
2122 2312 -2313 0
2122 -2312 -2313 0
-2122 2312 -2313 0
-2122 -2312 2313 0
2122 2312 -2314 0
2122 -2312 2314 0
-2122 2312 2314 0
-2122 -2312 -2314 0
2311 2313 -2315 0
2311 -2313 2315 0
-2311 2313 2315 0
-2311 -2313 -2315 0
3 47 -2316 0
3 -47 -2316 0
-3 47 -2316 0
-3 -47 2316 0
2133 2316 -2317 0
2133 -2316 -2317 0
-2133 2316 -2317 0
-2133 -2316 2317 0
2133 2316 -2318 0
2133 -2316 2318 0
-2133 2316 2318 0
-2133 -2316 -2318 0
2128 2318 -2319 0
2128 -2318 -2319 0
-2128 2318 -2319 0
-2128 -2318 2319 0
2128 2318 -2320 0
2128 -2318 2320 0
-2128 2318 2320 0
-2128 -2318 -2320 0
2317 2319 -2321 0
2317 -2319 2321 0
-2317 2319 2321 0
-2317 -2319 -2321 0
4 47 -2322 0
4 -47 -2322 0
-4 47 -2322 0
-4 -47 2322 0
2139 2322 -2323 0
2139 -2322 -2323 0
-2139 2322 -2323 0
-2139 -2322 2323 0
2139 2322 -2324 0
2139 -2322 2324 0
-2139 2322 2324 0
-2139 -2322 -2324 0
2134 2324 -2325 0
2134 -2324 -2325 0
-2134 2324 -2325 0
-2134 -2324 2325 0
2134 2324 -2326 0
2134 -2324 2326 0
-2134 2324 2326 0
-2134 -2324 -2326 0
2323 2325 -2327 0
2323 -2325 2327 0
-2323 2325 2327 0
-2323 -2325 -2327 0
5 47 -2328 0
5 -47 -2328 0
-5 47 -2328 0
-5 -47 2328 0
2145 2328 -2329 0
2145 -2328 -2329 0
-2145 2328 -2329 0
-2145 -2328 2329 0
2145 2328 -2330 0
2145 -2328 2330 0
-2145 2328 2330 0
-2145 -2328 -2330 0
2140 2330 -2331 0
2140 -2330 -2331 0
-2140 2330 -2331 0
-2140 -2330 2331 0
2140 2330 -2332 0
2140 -2330 2332 0
-2140 2330 2332 0
-2140 -2330 -2332 0
2329 2331 -2333 0
2329 -2331 2333 0
-2329 2331 2333 0
-2329 -2331 -2333 0
6 47 -2334 0
6 -47 -2334 0
-6 47 -2334 0
-6 -47 2334 0
2151 2334 -2335 0
2151 -2334 -2335 0
-2151 2334 -2335 0
-2151 -2334 2335 0
2151 2334 -2336 0
2151 -2334 2336 0
-2151 2334 2336 0
-2151 -2334 -2336 0
2146 2336 -2337 0
2146 -2336 -2337 0
-2146 2336 -2337 0
-2146 -2336 2337 0
2146 2336 -2338 0
2146 -2336 2338 0
-2146 2336 2338 0
-2146 -2336 -2338 0
2335 2337 -2339 0
2335 -2337 2339 0
-2335 2337 2339 0
-2335 -2337 -2339 0
7 47 -2340 0
7 -47 -2340 0
-7 47 -2340 0
-7 -47 2340 0
2157 2340 -2341 0
2157 -2340 -2341 0
-2157 2340 -2341 0
-2157 -2340 2341 0
2157 2340 -2342 0
2157 -2340 2342 0
-2157 2340 2342 0
-2157 -2340 -2342 0
2152 2342 -2343 0
2152 -2342 -2343 0
-2152 2342 -2343 0
-2152 -2342 2343 0
2152 2342 -2344 0
2152 -2342 2344 0
-2152 2342 2344 0
-2152 -2342 -2344 0
2341 2343 -2345 0
2341 -2343 2345 0
-2341 2343 2345 0
-2341 -2343 -2345 0
8 47 -2346 0
8 -47 -2346 0
-8 47 -2346 0
-8 -47 2346 0
2163 2346 -2347 0
2163 -2346 -2347 0
-2163 2346 -2347 0
-2163 -2346 2347 0
2163 2346 -2348 0
2163 -2346 2348 0
-2163 2346 2348 0
-2163 -2346 -2348 0
2158 2348 -2349 0
2158 -2348 -2349 0
-2158 2348 -2349 0
-2158 -2348 2349 0
2158 2348 -2350 0
2158 -2348 2350 0
-2158 2348 2350 0
-2158 -2348 -2350 0
2347 2349 -2351 0
2347 -2349 2351 0
-2347 2349 2351 0
-2347 -2349 -2351 0
9 47 -2352 0
9 -47 -2352 0
-9 47 -2352 0
-9 -47 2352 0
2169 2352 -2353 0
2169 -2352 -2353 0
-2169 2352 -2353 0
-2169 -2352 2353 0
2169 2352 -2354 0
2169 -2352 2354 0
-2169 2352 2354 0
-2169 -2352 -2354 0
2164 2354 -2355 0
2164 -2354 -2355 0
-2164 2354 -2355 0
-2164 -2354 2355 0
2164 2354 -2356 0
2164 -2354 2356 0
-2164 2354 2356 0
-2164 -2354 -2356 0
2353 2355 -2357 0
2353 -2355 2357 0
-2353 2355 2357 0
-2353 -2355 -2357 0
10 47 -2358 0
10 -47 -2358 0
-10 47 -2358 0
-10 -47 2358 0
2175 2358 -2359 0
2175 -2358 -2359 0
-2175 2358 -2359 0
-2175 -2358 2359 0
2175 2358 -2360 0
2175 -2358 2360 0
-2175 2358 2360 0
-2175 -2358 -2360 0
2170 2360 -2361 0
2170 -2360 -2361 0
-2170 2360 -2361 0
-2170 -2360 2361 0
2170 2360 -2362 0
2170 -2360 2362 0
-2170 2360 2362 0
-2170 -2360 -2362 0
2359 2361 -2363 0
2359 -2361 2363 0
-2359 2361 2363 0
-2359 -2361 -2363 0
11 47 -2364 0
11 -47 -2364 0
-11 47 -2364 0
-11 -47 2364 0
2181 2364 -2365 0
2181 -2364 -2365 0
-2181 2364 -2365 0
-2181 -2364 2365 0
2181 2364 -2366 0
2181 -2364 2366 0
-2181 2364 2366 0
-2181 -2364 -2366 0
2176 2366 -2367 0
2176 -2366 -2367 0
-2176 2366 -2367 0
-2176 -2366 2367 0
2176 2366 -2368 0
2176 -2366 2368 0
-2176 2366 2368 0
-2176 -2366 -2368 0
2365 2367 -2369 0
2365 -2367 2369 0
-2365 2367 2369 0
-2365 -2367 -2369 0
12 47 -2370 0
12 -47 -2370 0
-12 47 -2370 0
-12 -47 2370 0
2187 2370 -2371 0
2187 -2370 -2371 0
-2187 2370 -2371 0
-2187 -2370 2371 0
2187 2370 -2372 0
2187 -2370 2372 0
-2187 2370 2372 0
-2187 -2370 -2372 0
2182 2372 -2373 0
2182 -2372 -2373 0
-2182 2372 -2373 0
-2182 -2372 2373 0
2182 2372 -2374 0
2182 -2372 2374 0
-2182 2372 2374 0
-2182 -2372 -2374 0
2371 2373 -2375 0
2371 -2373 2375 0
-2371 2373 2375 0
-2371 -2373 -2375 0
13 47 -2376 0
13 -47 -2376 0
-13 47 -2376 0
-13 -47 2376 0
2193 2376 -2377 0
2193 -2376 -2377 0
-2193 2376 -2377 0
-2193 -2376 2377 0
2193 2376 -2378 0
2193 -2376 2378 0
-2193 2376 2378 0
-2193 -2376 -2378 0
2188 2378 -2379 0
2188 -2378 -2379 0
-2188 2378 -2379 0
-2188 -2378 2379 0
2188 2378 -2380 0
2188 -2378 2380 0
-2188 2378 2380 0
-2188 -2378 -2380 0
2377 2379 -2381 0
2377 -2379 2381 0
-2377 2379 2381 0
-2377 -2379 -2381 0
14 47 -2382 0
14 -47 -2382 0
-14 47 -2382 0
-14 -47 2382 0
2199 2382 -2383 0
2199 -2382 -2383 0
-2199 2382 -2383 0
-2199 -2382 2383 0
2199 2382 -2384 0
2199 -2382 2384 0
-2199 2382 2384 0
-2199 -2382 -2384 0
2194 2384 -2385 0
2194 -2384 -2385 0
-2194 2384 -2385 0
-2194 -2384 2385 0
2194 2384 -2386 0
2194 -2384 2386 0
-2194 2384 2386 0
-2194 -2384 -2386 0
2383 2385 -2387 0
2383 -2385 2387 0
-2383 2385 2387 0
-2383 -2385 -2387 0
15 47 -2388 0
15 -47 -2388 0
-15 47 -2388 0
-15 -47 2388 0
2205 2388 -2389 0
2205 -2388 -2389 0
-2205 2388 -2389 0
-2205 -2388 2389 0
2205 2388 -2390 0
2205 -2388 2390 0
-2205 2388 2390 0
-2205 -2388 -2390 0
2200 2390 -2391 0
2200 -2390 -2391 0
-2200 2390 -2391 0
-2200 -2390 2391 0
2200 2390 -2392 0
2200 -2390 2392 0
-2200 2390 2392 0
-2200 -2390 -2392 0
2389 2391 -2393 0
2389 -2391 2393 0
-2389 2391 2393 0
-2389 -2391 -2393 0
16 47 -2394 0
16 -47 -2394 0
-16 47 -2394 0
-16 -47 2394 0
2211 2394 -2395 0
2211 -2394 -2395 0
-2211 2394 -2395 0
-2211 -2394 2395 0
2211 2394 -2396 0
2211 -2394 2396 0
-2211 2394 2396 0
-2211 -2394 -2396 0
2206 2396 -2397 0
2206 -2396 -2397 0
-2206 2396 -2397 0
-2206 -2396 2397 0
2206 2396 -2398 0
2206 -2396 2398 0
-2206 2396 2398 0
-2206 -2396 -2398 0
2395 2397 -2399 0
2395 -2397 2399 0
-2395 2397 2399 0
-2395 -2397 -2399 0
17 47 -2400 0
17 -47 -2400 0
-17 47 -2400 0
-17 -47 2400 0
2217 2400 -2401 0
2217 -2400 -2401 0
-2217 2400 -2401 0
-2217 -2400 2401 0
2217 2400 -2402 0
2217 -2400 2402 0
-2217 2400 2402 0
-2217 -2400 -2402 0
2212 2402 -2403 0
2212 -2402 -2403 0
-2212 2402 -2403 0
-2212 -2402 2403 0
2212 2402 -2404 0
2212 -2402 2404 0
-2212 2402 2404 0
-2212 -2402 -2404 0
2401 2403 -2405 0
2401 -2403 2405 0
-2401 2403 2405 0
-2401 -2403 -2405 0
18 47 -2406 0
18 -47 -2406 0
-18 47 -2406 0
-18 -47 2406 0
2223 2406 -2407 0
2223 -2406 -2407 0
-2223 2406 -2407 0
-2223 -2406 2407 0
2223 2406 -2408 0
2223 -2406 2408 0
-2223 2406 2408 0
-2223 -2406 -2408 0
2218 2408 -2409 0
2218 -2408 -2409 0
-2218 2408 -2409 0
-2218 -2408 2409 0
2218 2408 -2410 0
2218 -2408 2410 0
-2218 2408 2410 0
-2218 -2408 -2410 0
2407 2409 -2411 0
2407 -2409 2411 0
-2407 2409 2411 0
-2407 -2409 -2411 0
19 47 -2412 0
19 -47 -2412 0
-19 47 -2412 0
-19 -47 2412 0
2229 2412 -2413 0
2229 -2412 -2413 0
-2229 2412 -2413 0
-2229 -2412 2413 0
2229 2412 -2414 0
2229 -2412 2414 0
-2229 2412 2414 0
-2229 -2412 -2414 0
2224 2414 -2415 0
2224 -2414 -2415 0
-2224 2414 -2415 0
-2224 -2414 2415 0
2224 2414 -2416 0
2224 -2414 2416 0
-2224 2414 2416 0
-2224 -2414 -2416 0
2413 2415 -2417 0
2413 -2415 2417 0
-2413 2415 2417 0
-2413 -2415 -2417 0
20 47 -2418 0
20 -47 -2418 0
-20 47 -2418 0
-20 -47 2418 0
2235 2418 -2419 0
2235 -2418 -2419 0
-2235 2418 -2419 0
-2235 -2418 2419 0
2235 2418 -2420 0
2235 -2418 2420 0
-2235 2418 2420 0
-2235 -2418 -2420 0
2230 2420 -2421 0
2230 -2420 -2421 0
-2230 2420 -2421 0
-2230 -2420 2421 0
2230 2420 -2422 0
2230 -2420 2422 0
-2230 2420 2422 0
-2230 -2420 -2422 0
2419 2421 -2423 0
2419 -2421 2423 0
-2419 2421 2423 0
-2419 -2421 -2423 0
21 47 -2424 0
21 -47 -2424 0
-21 47 -2424 0
-21 -47 2424 0
2241 2424 -2425 0
2241 -2424 -2425 0
-2241 2424 -2425 0
-2241 -2424 2425 0
2241 2424 -2426 0
2241 -2424 2426 0
-2241 2424 2426 0
-2241 -2424 -2426 0
2236 2426 -2427 0
2236 -2426 -2427 0
-2236 2426 -2427 0
-2236 -2426 2427 0
2236 2426 -2428 0
2236 -2426 2428 0
-2236 2426 2428 0
-2236 -2426 -2428 0
2425 2427 -2429 0
2425 -2427 2429 0
-2425 2427 2429 0
-2425 -2427 -2429 0
22 47 -2430 0
22 -47 -2430 0
-22 47 -2430 0
-22 -47 2430 0
2247 2430 -2431 0
2247 -2430 -2431 0
-2247 2430 -2431 0
-2247 -2430 2431 0
2247 2430 -2432 0
2247 -2430 2432 0
-2247 2430 2432 0
-2247 -2430 -2432 0
2242 2432 -2433 0
2242 -2432 -2433 0
-2242 2432 -2433 0
-2242 -2432 2433 0
2242 2432 -2434 0
2242 -2432 2434 0
-2242 2432 2434 0
-2242 -2432 -2434 0
2431 2433 -2435 0
2431 -2433 2435 0
-2431 2433 2435 0
-2431 -2433 -2435 0
23 47 -2436 0
23 -47 -2436 0
-23 47 -2436 0
-23 -47 2436 0
2253 2436 -2437 0
2253 -2436 -2437 0
-2253 2436 -2437 0
-2253 -2436 2437 0
2253 2436 -2438 0
2253 -2436 2438 0
-2253 2436 2438 0
-2253 -2436 -2438 0
2248 2438 -2439 0
2248 -2438 -2439 0
-2248 2438 -2439 0
-2248 -2438 2439 0
2248 2438 -2440 0
2248 -2438 2440 0
-2248 2438 2440 0
-2248 -2438 -2440 0
2437 2439 -2441 0
2437 -2439 2441 0
-2437 2439 2441 0
-2437 -2439 -2441 0
24 47 -2442 0
24 -47 -2442 0
-24 47 -2442 0
-24 -47 2442 0
2259 2442 -2443 0
2259 -2442 -2443 0
-2259 2442 -2443 0
-2259 -2442 2443 0
2259 2442 -2444 0
2259 -2442 2444 0
-2259 2442 2444 0
-2259 -2442 -2444 0
2254 2444 -2445 0
2254 -2444 -2445 0
-2254 2444 -2445 0
-2254 -2444 2445 0
2254 2444 -2446 0
2254 -2444 2446 0
-2254 2444 2446 0
-2254 -2444 -2446 0
2443 2445 -2447 0
2443 -2445 2447 0
-2443 2445 2447 0
-2443 -2445 -2447 0
25 47 -2448 0
25 -47 -2448 0
-25 47 -2448 0
-25 -47 2448 0
2265 2448 -2449 0
2265 -2448 -2449 0
-2265 2448 -2449 0
-2265 -2448 2449 0
2265 2448 -2450 0
2265 -2448 2450 0
-2265 2448 2450 0
-2265 -2448 -2450 0
2260 2450 -2451 0
2260 -2450 -2451 0
-2260 2450 -2451 0
-2260 -2450 2451 0
2260 2450 -2452 0
2260 -2450 2452 0
-2260 2450 2452 0
-2260 -2450 -2452 0
2449 2451 -2453 0
2449 -2451 2453 0
-2449 2451 2453 0
-2449 -2451 -2453 0
26 47 -2454 0
26 -47 -2454 0
-26 47 -2454 0
-26 -47 2454 0
2271 2454 -2455 0
2271 -2454 -2455 0
-2271 2454 -2455 0
-2271 -2454 2455 0
2271 2454 -2456 0
2271 -2454 2456 0
-2271 2454 2456 0
-2271 -2454 -2456 0
2266 2456 -2457 0
2266 -2456 -2457 0
-2266 2456 -2457 0
-2266 -2456 2457 0
2266 2456 -2458 0
2266 -2456 2458 0
-2266 2456 2458 0
-2266 -2456 -2458 0
2455 2457 -2459 0
2455 -2457 2459 0
-2455 2457 2459 0
-2455 -2457 -2459 0
27 47 -2460 0
27 -47 -2460 0
-27 47 -2460 0
-27 -47 2460 0
2277 2460 -2461 0
2277 -2460 -2461 0
-2277 2460 -2461 0
-2277 -2460 2461 0
2277 2460 -2462 0
2277 -2460 2462 0
-2277 2460 2462 0
-2277 -2460 -2462 0
2272 2462 -2463 0
2272 -2462 -2463 0
-2272 2462 -2463 0
-2272 -2462 2463 0
2272 2462 -2464 0
2272 -2462 2464 0
-2272 2462 2464 0
-2272 -2462 -2464 0
2461 2463 -2465 0
2461 -2463 2465 0
-2461 2463 2465 0
-2461 -2463 -2465 0
28 47 -2466 0
28 -47 -2466 0
-28 47 -2466 0
-28 -47 2466 0
2283 2466 -2467 0
2283 -2466 -2467 0
-2283 2466 -2467 0
-2283 -2466 2467 0
2283 2466 -2468 0
2283 -2466 2468 0
-2283 2466 2468 0
-2283 -2466 -2468 0
2278 2468 -2469 0
2278 -2468 -2469 0
-2278 2468 -2469 0
-2278 -2468 2469 0
2278 2468 -2470 0
2278 -2468 2470 0
-2278 2468 2470 0
-2278 -2468 -2470 0
2467 2469 -2471 0
2467 -2469 2471 0
-2467 2469 2471 0
-2467 -2469 -2471 0
29 47 -2472 0
29 -47 -2472 0
-29 47 -2472 0
-29 -47 2472 0
2289 2472 -2473 0
2289 -2472 -2473 0
-2289 2472 -2473 0
-2289 -2472 2473 0
2289 2472 -2474 0
2289 -2472 2474 0
-2289 2472 2474 0
-2289 -2472 -2474 0
2284 2474 -2475 0
2284 -2474 -2475 0
-2284 2474 -2475 0
-2284 -2474 2475 0
2284 2474 -2476 0
2284 -2474 2476 0
-2284 2474 2476 0
-2284 -2474 -2476 0
2473 2475 -2477 0
2473 -2475 2477 0
-2473 2475 2477 0
-2473 -2475 -2477 0
30 47 -2478 0
30 -47 -2478 0
-30 47 -2478 0
-30 -47 2478 0
2295 2478 -2479 0
2295 -2478 -2479 0
-2295 2478 -2479 0
-2295 -2478 2479 0
2295 2478 -2480 0
2295 -2478 2480 0
-2295 2478 2480 0
-2295 -2478 -2480 0
2290 2480 -2481 0
2290 -2480 -2481 0
-2290 2480 -2481 0
-2290 -2480 2481 0
2290 2480 -2482 0
2290 -2480 2482 0
-2290 2480 2482 0
-2290 -2480 -2482 0
2479 2481 -2483 0
2479 -2481 2483 0
-2479 2481 2483 0
-2479 -2481 -2483 0
31 47 -2484 0
31 -47 -2484 0
-31 47 -2484 0
-31 -47 2484 0
2301 2484 -2485 0
2301 -2484 -2485 0
-2301 2484 -2485 0
-2301 -2484 2485 0
2301 2484 -2486 0
2301 -2484 2486 0
-2301 2484 2486 0
-2301 -2484 -2486 0
2296 2486 -2487 0
2296 -2486 -2487 0
-2296 2486 -2487 0
-2296 -2486 2487 0
2296 2486 -2488 0
2296 -2486 2488 0
-2296 2486 2488 0
-2296 -2486 -2488 0
2485 2487 -2489 0
2485 -2487 2489 0
-2485 2487 2489 0
-2485 -2487 -2489 0
32 47 -2490 0
32 -47 -2490 0
-32 47 -2490 0
-32 -47 2490 0
2303 2490 -2491 0
2303 -2490 -2491 0
-2303 2490 -2491 0
-2303 -2490 2491 0
2303 2490 -2492 0
2303 -2490 2492 0
-2303 2490 2492 0
-2303 -2490 -2492 0
2302 2492 -2493 0
2302 -2492 -2493 0
-2302 2492 -2493 0
-2302 -2492 2493 0
2302 2492 -2494 0
2302 -2492 2494 0
-2302 2492 2494 0
-2302 -2492 -2494 0
2491 2493 -2495 0
2491 -2493 2495 0
-2491 2493 2495 0
-2491 -2493 -2495 0
33 47 -2496 0
33 -47 -2496 0
-33 47 -2496 0
-33 -47 2496 0
1 48 -2497 0
1 -48 -2497 0
-1 48 -2497 0
-1 -48 2497 0
2314 2497 -2498 0
2314 -2497 -2498 0
-2314 2497 -2498 0
-2314 -2497 2498 0
2314 2497 -2499 0
2314 -2497 2499 0
-2314 2497 2499 0
-2314 -2497 -2499 0
2309 2499 -2500 0
2309 -2499 -2500 0
-2309 2499 -2500 0
-2309 -2499 2500 0
2309 2499 -2501 0
2309 -2499 2501 0
-2309 2499 2501 0
-2309 -2499 -2501 0
2498 2500 -2502 0
2498 -2500 2502 0
-2498 2500 2502 0
-2498 -2500 -2502 0
2 48 -2503 0
2 -48 -2503 0
-2 48 -2503 0
-2 -48 2503 0
2320 2503 -2504 0
2320 -2503 -2504 0
-2320 2503 -2504 0
-2320 -2503 2504 0
2320 2503 -2505 0
2320 -2503 2505 0
-2320 2503 2505 0
-2320 -2503 -2505 0
2315 2505 -2506 0
2315 -2505 -2506 0
-2315 2505 -2506 0
-2315 -2505 2506 0
2315 2505 -2507 0
2315 -2505 2507 0
-2315 2505 2507 0
-2315 -2505 -2507 0
2504 2506 -2508 0
2504 -2506 2508 0
-2504 2506 2508 0
-2504 -2506 -2508 0
3 48 -2509 0
3 -48 -2509 0
-3 48 -2509 0
-3 -48 2509 0
2326 2509 -2510 0
2326 -2509 -2510 0
-2326 2509 -2510 0
-2326 -2509 2510 0
2326 2509 -2511 0
2326 -2509 2511 0
-2326 2509 2511 0
-2326 -2509 -2511 0
2321 2511 -2512 0
2321 -2511 -2512 0
-2321 2511 -2512 0
-2321 -2511 2512 0
2321 2511 -2513 0
2321 -2511 2513 0
-2321 2511 2513 0
-2321 -2511 -2513 0
2510 2512 -2514 0
2510 -2512 2514 0
-2510 2512 2514 0
-2510 -2512 -2514 0
4 48 -2515 0
4 -48 -2515 0
-4 48 -2515 0
-4 -48 2515 0
2332 2515 -2516 0
2332 -2515 -2516 0
-2332 2515 -2516 0
-2332 -2515 2516 0
2332 2515 -2517 0
2332 -2515 2517 0
-2332 2515 2517 0
-2332 -2515 -2517 0
2327 2517 -2518 0
2327 -2517 -2518 0
-2327 2517 -2518 0
-2327 -2517 2518 0
2327 2517 -2519 0
2327 -2517 2519 0
-2327 2517 2519 0
-2327 -2517 -2519 0
2516 2518 -2520 0
2516 -2518 2520 0
-2516 2518 2520 0
-2516 -2518 -2520 0
5 48 -2521 0
5 -48 -2521 0
-5 48 -2521 0
-5 -48 2521 0
2338 2521 -2522 0
2338 -2521 -2522 0
-2338 2521 -2522 0
-2338 -2521 2522 0
2338 2521 -2523 0
2338 -2521 2523 0
-2338 2521 2523 0
-2338 -2521 -2523 0
2333 2523 -2524 0
2333 -2523 -2524 0
-2333 2523 -2524 0
-2333 -2523 2524 0
2333 2523 -2525 0
2333 -2523 2525 0
-2333 2523 2525 0
-2333 -2523 -2525 0
2522 2524 -2526 0
2522 -2524 2526 0
-2522 2524 2526 0
-2522 -2524 -2526 0
6 48 -2527 0
6 -48 -2527 0
-6 48 -2527 0
-6 -48 2527 0
2344 2527 -2528 0
2344 -2527 -2528 0
-2344 2527 -2528 0
-2344 -2527 2528 0
2344 2527 -2529 0
2344 -2527 2529 0
-2344 2527 2529 0
-2344 -2527 -2529 0
2339 2529 -2530 0
2339 -2529 -2530 0
-2339 2529 -2530 0
-2339 -2529 2530 0
2339 2529 -2531 0
2339 -2529 2531 0
-2339 2529 2531 0
-2339 -2529 -2531 0
2528 2530 -2532 0
2528 -2530 2532 0
-2528 2530 2532 0
-2528 -2530 -2532 0
7 48 -2533 0
7 -48 -2533 0
-7 48 -2533 0
-7 -48 2533 0
2350 2533 -2534 0
2350 -2533 -2534 0
-2350 2533 -2534 0
-2350 -2533 2534 0
2350 2533 -2535 0
2350 -2533 2535 0
-2350 2533 2535 0
-2350 -2533 -2535 0
2345 2535 -2536 0
2345 -2535 -2536 0
-2345 2535 -2536 0
-2345 -2535 2536 0
2345 2535 -2537 0
2345 -2535 2537 0
-2345 2535 2537 0
-2345 -2535 -2537 0
2534 2536 -2538 0
2534 -2536 2538 0
-2534 2536 2538 0
-2534 -2536 -2538 0
8 48 -2539 0
8 -48 -2539 0
-8 48 -2539 0
-8 -48 2539 0
2356 2539 -2540 0
2356 -2539 -2540 0
-2356 2539 -2540 0
-2356 -2539 2540 0
2356 2539 -2541 0
2356 -2539 2541 0
-2356 2539 2541 0
-2356 -2539 -2541 0
2351 2541 -2542 0
2351 -2541 -2542 0
-2351 2541 -2542 0
-2351 -2541 2542 0
2351 2541 -2543 0
2351 -2541 2543 0
-2351 2541 2543 0
-2351 -2541 -2543 0
2540 2542 -2544 0
2540 -2542 2544 0
-2540 2542 2544 0
-2540 -2542 -2544 0
9 48 -2545 0
9 -48 -2545 0
-9 48 -2545 0
-9 -48 2545 0
2362 2545 -2546 0
2362 -2545 -2546 0
-2362 2545 -2546 0
-2362 -2545 2546 0
2362 2545 -2547 0
2362 -2545 2547 0
-2362 2545 2547 0
-2362 -2545 -2547 0
2357 2547 -2548 0
2357 -2547 -2548 0
-2357 2547 -2548 0
-2357 -2547 2548 0
2357 2547 -2549 0
2357 -2547 2549 0
-2357 2547 2549 0
-2357 -2547 -2549 0
2546 2548 -2550 0
2546 -2548 2550 0
-2546 2548 2550 0
-2546 -2548 -2550 0
10 48 -2551 0
10 -48 -2551 0
-10 48 -2551 0
-10 -48 2551 0
2368 2551 -2552 0
2368 -2551 -2552 0
-2368 2551 -2552 0
-2368 -2551 2552 0
2368 2551 -2553 0
2368 -2551 2553 0
-2368 2551 2553 0
-2368 -2551 -2553 0
2363 2553 -2554 0
2363 -2553 -2554 0
-2363 2553 -2554 0
-2363 -2553 2554 0
2363 2553 -2555 0
2363 -2553 2555 0
-2363 2553 2555 0
-2363 -2553 -2555 0
2552 2554 -2556 0
2552 -2554 2556 0
-2552 2554 2556 0
-2552 -2554 -2556 0
11 48 -2557 0
11 -48 -2557 0
-11 48 -2557 0
-11 -48 2557 0
2374 2557 -2558 0
2374 -2557 -2558 0
-2374 2557 -2558 0
-2374 -2557 2558 0
2374 2557 -2559 0
2374 -2557 2559 0
-2374 2557 2559 0
-2374 -2557 -2559 0
2369 2559 -2560 0
2369 -2559 -2560 0
-2369 2559 -2560 0
-2369 -2559 2560 0
2369 2559 -2561 0
2369 -2559 2561 0
-2369 2559 2561 0
-2369 -2559 -2561 0
2558 2560 -2562 0
2558 -2560 2562 0
-2558 2560 2562 0
-2558 -2560 -2562 0
12 48 -2563 0
12 -48 -2563 0
-12 48 -2563 0
-12 -48 2563 0
2380 2563 -2564 0
2380 -2563 -2564 0
-2380 2563 -2564 0
-2380 -2563 2564 0
2380 2563 -2565 0
2380 -2563 2565 0
-2380 2563 2565 0
-2380 -2563 -2565 0
2375 2565 -2566 0
2375 -2565 -2566 0
-2375 2565 -2566 0
-2375 -2565 2566 0
2375 2565 -2567 0
2375 -2565 2567 0
-2375 2565 2567 0
-2375 -2565 -2567 0
2564 2566 -2568 0
2564 -2566 2568 0
-2564 2566 2568 0
-2564 -2566 -2568 0
13 48 -2569 0
13 -48 -2569 0
-13 48 -2569 0
-13 -48 2569 0
2386 2569 -2570 0
2386 -2569 -2570 0
-2386 2569 -2570 0
-2386 -2569 2570 0
2386 2569 -2571 0
2386 -2569 2571 0
-2386 2569 2571 0
-2386 -2569 -2571 0
2381 2571 -2572 0
2381 -2571 -2572 0
-2381 2571 -2572 0
-2381 -2571 2572 0
2381 2571 -2573 0
2381 -2571 2573 0
-2381 2571 2573 0
-2381 -2571 -2573 0
2570 2572 -2574 0
2570 -2572 2574 0
-2570 2572 2574 0
-2570 -2572 -2574 0
14 48 -2575 0
14 -48 -2575 0
-14 48 -2575 0
-14 -48 2575 0
2392 2575 -2576 0
2392 -2575 -2576 0
-2392 2575 -2576 0
-2392 -2575 2576 0
2392 2575 -2577 0
2392 -2575 2577 0
-2392 2575 2577 0
-2392 -2575 -2577 0
2387 2577 -2578 0
2387 -2577 -2578 0
-2387 2577 -2578 0
-2387 -2577 2578 0
2387 2577 -2579 0
2387 -2577 2579 0
-2387 2577 2579 0
-2387 -2577 -2579 0
2576 2578 -2580 0
2576 -2578 2580 0
-2576 2578 2580 0
-2576 -2578 -2580 0
15 48 -2581 0
15 -48 -2581 0
-15 48 -2581 0
-15 -48 2581 0
2398 2581 -2582 0
2398 -2581 -2582 0
-2398 2581 -2582 0
-2398 -2581 2582 0
2398 2581 -2583 0
2398 -2581 2583 0
-2398 2581 2583 0
-2398 -2581 -2583 0
2393 2583 -2584 0
2393 -2583 -2584 0
-2393 2583 -2584 0
-2393 -2583 2584 0
2393 2583 -2585 0
2393 -2583 2585 0
-2393 2583 2585 0
-2393 -2583 -2585 0
2582 2584 -2586 0
2582 -2584 2586 0
-2582 2584 2586 0
-2582 -2584 -2586 0
16 48 -2587 0
16 -48 -2587 0
-16 48 -2587 0
-16 -48 2587 0
2404 2587 -2588 0
2404 -2587 -2588 0
-2404 2587 -2588 0
-2404 -2587 2588 0
2404 2587 -2589 0
2404 -2587 2589 0
-2404 2587 2589 0
-2404 -2587 -2589 0
2399 2589 -2590 0
2399 -2589 -2590 0
-2399 2589 -2590 0
-2399 -2589 2590 0
2399 2589 -2591 0
2399 -2589 2591 0
-2399 2589 2591 0
-2399 -2589 -2591 0
2588 2590 -2592 0
2588 -2590 2592 0
-2588 2590 2592 0
-2588 -2590 -2592 0
17 48 -2593 0
17 -48 -2593 0
-17 48 -2593 0
-17 -48 2593 0
2410 2593 -2594 0
2410 -2593 -2594 0
-2410 2593 -2594 0
-2410 -2593 2594 0
2410 2593 -2595 0
2410 -2593 2595 0
-2410 2593 2595 0
-2410 -2593 -2595 0
2405 2595 -2596 0
2405 -2595 -2596 0
-2405 2595 -2596 0
-2405 -2595 2596 0
2405 2595 -2597 0
2405 -2595 2597 0
-2405 2595 2597 0
-2405 -2595 -2597 0
2594 2596 -2598 0
2594 -2596 2598 0
-2594 2596 2598 0
-2594 -2596 -2598 0
18 48 -2599 0
18 -48 -2599 0
-18 48 -2599 0
-18 -48 2599 0
2416 2599 -2600 0
2416 -2599 -2600 0
-2416 2599 -2600 0
-2416 -2599 2600 0
2416 2599 -2601 0
2416 -2599 2601 0
-2416 2599 2601 0
-2416 -2599 -2601 0
2411 2601 -2602 0
2411 -2601 -2602 0
-2411 2601 -2602 0
-2411 -2601 2602 0
2411 2601 -2603 0
2411 -2601 2603 0
-2411 2601 2603 0
-2411 -2601 -2603 0
2600 2602 -2604 0
2600 -2602 2604 0
-2600 2602 2604 0
-2600 -2602 -2604 0
19 48 -2605 0
19 -48 -2605 0
-19 48 -2605 0
-19 -48 2605 0
2422 2605 -2606 0
2422 -2605 -2606 0
-2422 2605 -2606 0
-2422 -2605 2606 0
2422 2605 -2607 0
2422 -2605 2607 0
-2422 2605 2607 0
-2422 -2605 -2607 0
2417 2607 -2608 0
2417 -2607 -2608 0
-2417 2607 -2608 0
-2417 -2607 2608 0
2417 2607 -2609 0
2417 -2607 2609 0
-2417 2607 2609 0
-2417 -2607 -2609 0
2606 2608 -2610 0
2606 -2608 2610 0
-2606 2608 2610 0
-2606 -2608 -2610 0
20 48 -2611 0
20 -48 -2611 0
-20 48 -2611 0
-20 -48 2611 0
2428 2611 -2612 0
2428 -2611 -2612 0
-2428 2611 -2612 0
-2428 -2611 2612 0
2428 2611 -2613 0
2428 -2611 2613 0
-2428 2611 2613 0
-2428 -2611 -2613 0
2423 2613 -2614 0
2423 -2613 -2614 0
-2423 2613 -2614 0
-2423 -2613 2614 0
2423 2613 -2615 0
2423 -2613 2615 0
-2423 2613 2615 0
-2423 -2613 -2615 0
2612 2614 -2616 0
2612 -2614 2616 0
-2612 2614 2616 0
-2612 -2614 -2616 0
21 48 -2617 0
21 -48 -2617 0
-21 48 -2617 0
-21 -48 2617 0
2434 2617 -2618 0
2434 -2617 -2618 0
-2434 2617 -2618 0
-2434 -2617 2618 0
2434 2617 -2619 0
2434 -2617 2619 0
-2434 2617 2619 0
-2434 -2617 -2619 0
2429 2619 -2620 0
2429 -2619 -2620 0
-2429 2619 -2620 0
-2429 -2619 2620 0
2429 2619 -2621 0
2429 -2619 2621 0
-2429 2619 2621 0
-2429 -2619 -2621 0
2618 2620 -2622 0
2618 -2620 2622 0
-2618 2620 2622 0
-2618 -2620 -2622 0
22 48 -2623 0
22 -48 -2623 0
-22 48 -2623 0
-22 -48 2623 0
2440 2623 -2624 0
2440 -2623 -2624 0
-2440 2623 -2624 0
-2440 -2623 2624 0
2440 2623 -2625 0
2440 -2623 2625 0
-2440 2623 2625 0
-2440 -2623 -2625 0
2435 2625 -2626 0
2435 -2625 -2626 0
-2435 2625 -2626 0
-2435 -2625 2626 0
2435 2625 -2627 0
2435 -2625 2627 0
-2435 2625 2627 0
-2435 -2625 -2627 0
2624 2626 -2628 0
2624 -2626 2628 0
-2624 2626 2628 0
-2624 -2626 -2628 0
23 48 -2629 0
23 -48 -2629 0
-23 48 -2629 0
-23 -48 2629 0
2446 2629 -2630 0
2446 -2629 -2630 0
-2446 2629 -2630 0
-2446 -2629 2630 0
2446 2629 -2631 0
2446 -2629 2631 0
-2446 2629 2631 0
-2446 -2629 -2631 0
2441 2631 -2632 0
2441 -2631 -2632 0
-2441 2631 -2632 0
-2441 -2631 2632 0
2441 2631 -2633 0
2441 -2631 2633 0
-2441 2631 2633 0
-2441 -2631 -2633 0
2630 2632 -2634 0
2630 -2632 2634 0
-2630 2632 2634 0
-2630 -2632 -2634 0
24 48 -2635 0
24 -48 -2635 0
-24 48 -2635 0
-24 -48 2635 0
2452 2635 -2636 0
2452 -2635 -2636 0
-2452 2635 -2636 0
-2452 -2635 2636 0
2452 2635 -2637 0
2452 -2635 2637 0
-2452 2635 2637 0
-2452 -2635 -2637 0
2447 2637 -2638 0
2447 -2637 -2638 0
-2447 2637 -2638 0
-2447 -2637 2638 0
2447 2637 -2639 0
2447 -2637 2639 0
-2447 2637 2639 0
-2447 -2637 -2639 0
2636 2638 -2640 0
2636 -2638 2640 0
-2636 2638 2640 0
-2636 -2638 -2640 0
25 48 -2641 0
25 -48 -2641 0
-25 48 -2641 0
-25 -48 2641 0
2458 2641 -2642 0
2458 -2641 -2642 0
-2458 2641 -2642 0
-2458 -2641 2642 0
2458 2641 -2643 0
2458 -2641 2643 0
-2458 2641 2643 0
-2458 -2641 -2643 0
2453 2643 -2644 0
2453 -2643 -2644 0
-2453 2643 -2644 0
-2453 -2643 2644 0
2453 2643 -2645 0
2453 -2643 2645 0
-2453 2643 2645 0
-2453 -2643 -2645 0
2642 2644 -2646 0
2642 -2644 2646 0
-2642 2644 2646 0
-2642 -2644 -2646 0
26 48 -2647 0
26 -48 -2647 0
-26 48 -2647 0
-26 -48 2647 0
2464 2647 -2648 0
2464 -2647 -2648 0
-2464 2647 -2648 0
-2464 -2647 2648 0
2464 2647 -2649 0
2464 -2647 2649 0
-2464 2647 2649 0
-2464 -2647 -2649 0
2459 2649 -2650 0
2459 -2649 -2650 0
-2459 2649 -2650 0
-2459 -2649 2650 0
2459 2649 -2651 0
2459 -2649 2651 0
-2459 2649 2651 0
-2459 -2649 -2651 0
2648 2650 -2652 0
2648 -2650 2652 0
-2648 2650 2652 0
-2648 -2650 -2652 0
27 48 -2653 0
27 -48 -2653 0
-27 48 -2653 0
-27 -48 2653 0
2470 2653 -2654 0
2470 -2653 -2654 0
-2470 2653 -2654 0
-2470 -2653 2654 0
2470 2653 -2655 0
2470 -2653 2655 0
-2470 2653 2655 0
-2470 -2653 -2655 0
2465 2655 -2656 0
2465 -2655 -2656 0
-2465 2655 -2656 0
-2465 -2655 2656 0
2465 2655 -2657 0
2465 -2655 2657 0
-2465 2655 2657 0
-2465 -2655 -2657 0
2654 2656 -2658 0
2654 -2656 2658 0
-2654 2656 2658 0
-2654 -2656 -2658 0
28 48 -2659 0
28 -48 -2659 0
-28 48 -2659 0
-28 -48 2659 0
2476 2659 -2660 0
2476 -2659 -2660 0
-2476 2659 -2660 0
-2476 -2659 2660 0
2476 2659 -2661 0
2476 -2659 2661 0
-2476 2659 2661 0
-2476 -2659 -2661 0
2471 2661 -2662 0
2471 -2661 -2662 0
-2471 2661 -2662 0
-2471 -2661 2662 0
2471 2661 -2663 0
2471 -2661 2663 0
-2471 2661 2663 0
-2471 -2661 -2663 0
2660 2662 -2664 0
2660 -2662 2664 0
-2660 2662 2664 0
-2660 -2662 -2664 0
29 48 -2665 0
29 -48 -2665 0
-29 48 -2665 0
-29 -48 2665 0
2482 2665 -2666 0
2482 -2665 -2666 0
-2482 2665 -2666 0
-2482 -2665 2666 0
2482 2665 -2667 0
2482 -2665 2667 0
-2482 2665 2667 0
-2482 -2665 -2667 0
2477 2667 -2668 0
2477 -2667 -2668 0
-2477 2667 -2668 0
-2477 -2667 2668 0
2477 2667 -2669 0
2477 -2667 2669 0
-2477 2667 2669 0
-2477 -2667 -2669 0
2666 2668 -2670 0
2666 -2668 2670 0
-2666 2668 2670 0
-2666 -2668 -2670 0
30 48 -2671 0
30 -48 -2671 0
-30 48 -2671 0
-30 -48 2671 0
2488 2671 -2672 0
2488 -2671 -2672 0
-2488 2671 -2672 0
-2488 -2671 2672 0
2488 2671 -2673 0
2488 -2671 2673 0
-2488 2671 2673 0
-2488 -2671 -2673 0
2483 2673 -2674 0
2483 -2673 -2674 0
-2483 2673 -2674 0
-2483 -2673 2674 0
2483 2673 -2675 0
2483 -2673 2675 0
-2483 2673 2675 0
-2483 -2673 -2675 0
2672 2674 -2676 0
2672 -2674 2676 0
-2672 2674 2676 0
-2672 -2674 -2676 0
31 48 -2677 0
31 -48 -2677 0
-31 48 -2677 0
-31 -48 2677 0
2494 2677 -2678 0
2494 -2677 -2678 0
-2494 2677 -2678 0
-2494 -2677 2678 0
2494 2677 -2679 0
2494 -2677 2679 0
-2494 2677 2679 0
-2494 -2677 -2679 0
2489 2679 -2680 0
2489 -2679 -2680 0
-2489 2679 -2680 0
-2489 -2679 2680 0
2489 2679 -2681 0
2489 -2679 2681 0
-2489 2679 2681 0
-2489 -2679 -2681 0
2678 2680 -2682 0
2678 -2680 2682 0
-2678 2680 2682 0
-2678 -2680 -2682 0
32 48 -2683 0
32 -48 -2683 0
-32 48 -2683 0
-32 -48 2683 0
2496 2683 -2684 0
2496 -2683 -2684 0
-2496 2683 -2684 0
-2496 -2683 2684 0
2496 2683 -2685 0
2496 -2683 2685 0
-2496 2683 2685 0
-2496 -2683 -2685 0
2495 2685 -2686 0
2495 -2685 -2686 0
-2495 2685 -2686 0
-2495 -2685 2686 0
2495 2685 -2687 0
2495 -2685 2687 0
-2495 2685 2687 0
-2495 -2685 -2687 0
2684 2686 -2688 0
2684 -2686 2688 0
-2684 2686 2688 0
-2684 -2686 -2688 0
33 48 -2689 0
33 -48 -2689 0
-33 48 -2689 0
-33 -48 2689 0
1 49 -2690 0
1 -49 -2690 0
-1 49 -2690 0
-1 -49 2690 0
2507 2690 -2691 0
2507 -2690 -2691 0
-2507 2690 -2691 0
-2507 -2690 2691 0
2507 2690 -2692 0
2507 -2690 2692 0
-2507 2690 2692 0
-2507 -2690 -2692 0
2502 2692 -2693 0
2502 -2692 -2693 0
-2502 2692 -2693 0
-2502 -2692 2693 0
2502 2692 -2694 0
2502 -2692 2694 0
-2502 2692 2694 0
-2502 -2692 -2694 0
2691 2693 -2695 0
2691 -2693 2695 0
-2691 2693 2695 0
-2691 -2693 -2695 0
2 49 -2696 0
2 -49 -2696 0
-2 49 -2696 0
-2 -49 2696 0
2513 2696 -2697 0
2513 -2696 -2697 0
-2513 2696 -2697 0
-2513 -2696 2697 0
2513 2696 -2698 0
2513 -2696 2698 0
-2513 2696 2698 0
-2513 -2696 -2698 0
2508 2698 -2699 0
2508 -2698 -2699 0
-2508 2698 -2699 0
-2508 -2698 2699 0
2508 2698 -2700 0
2508 -2698 2700 0
-2508 2698 2700 0
-2508 -2698 -2700 0
2697 2699 -2701 0
2697 -2699 2701 0
-2697 2699 2701 0
-2697 -2699 -2701 0
3 49 -2702 0
3 -49 -2702 0
-3 49 -2702 0
-3 -49 2702 0
2519 2702 -2703 0
2519 -2702 -2703 0
-2519 2702 -2703 0
-2519 -2702 2703 0
2519 2702 -2704 0
2519 -2702 2704 0
-2519 2702 2704 0
-2519 -2702 -2704 0
2514 2704 -2705 0
2514 -2704 -2705 0
-2514 2704 -2705 0
-2514 -2704 2705 0
2514 2704 -2706 0
2514 -2704 2706 0
-2514 2704 2706 0
-2514 -2704 -2706 0
2703 2705 -2707 0
2703 -2705 2707 0
-2703 2705 2707 0
-2703 -2705 -2707 0
4 49 -2708 0
4 -49 -2708 0
-4 49 -2708 0
-4 -49 2708 0
2525 2708 -2709 0
2525 -2708 -2709 0
-2525 2708 -2709 0
-2525 -2708 2709 0
2525 2708 -2710 0
2525 -2708 2710 0
-2525 2708 2710 0
-2525 -2708 -2710 0
2520 2710 -2711 0
2520 -2710 -2711 0
-2520 2710 -2711 0
-2520 -2710 2711 0
2520 2710 -2712 0
2520 -2710 2712 0
-2520 2710 2712 0
-2520 -2710 -2712 0
2709 2711 -2713 0
2709 -2711 2713 0
-2709 2711 2713 0
-2709 -2711 -2713 0
5 49 -2714 0
5 -49 -2714 0
-5 49 -2714 0
-5 -49 2714 0
2531 2714 -2715 0
2531 -2714 -2715 0
-2531 2714 -2715 0
-2531 -2714 2715 0
2531 2714 -2716 0
2531 -2714 2716 0
-2531 2714 2716 0
-2531 -2714 -2716 0
2526 2716 -2717 0
2526 -2716 -2717 0
-2526 2716 -2717 0
-2526 -2716 2717 0
2526 2716 -2718 0
2526 -2716 2718 0
-2526 2716 2718 0
-2526 -2716 -2718 0
2715 2717 -2719 0
2715 -2717 2719 0
-2715 2717 2719 0
-2715 -2717 -2719 0
6 49 -2720 0
6 -49 -2720 0
-6 49 -2720 0
-6 -49 2720 0
2537 2720 -2721 0
2537 -2720 -2721 0
-2537 2720 -2721 0
-2537 -2720 2721 0
2537 2720 -2722 0
2537 -2720 2722 0
-2537 2720 2722 0
-2537 -2720 -2722 0
2532 2722 -2723 0
2532 -2722 -2723 0
-2532 2722 -2723 0
-2532 -2722 2723 0
2532 2722 -2724 0
2532 -2722 2724 0
-2532 2722 2724 0
-2532 -2722 -2724 0
2721 2723 -2725 0
2721 -2723 2725 0
-2721 2723 2725 0
-2721 -2723 -2725 0
7 49 -2726 0
7 -49 -2726 0
-7 49 -2726 0
-7 -49 2726 0
2543 2726 -2727 0
2543 -2726 -2727 0
-2543 2726 -2727 0
-2543 -2726 2727 0
2543 2726 -2728 0
2543 -2726 2728 0
-2543 2726 2728 0
-2543 -2726 -2728 0
2538 2728 -2729 0
2538 -2728 -2729 0
-2538 2728 -2729 0
-2538 -2728 2729 0
2538 2728 -2730 0
2538 -2728 2730 0
-2538 2728 2730 0
-2538 -2728 -2730 0
2727 2729 -2731 0
2727 -2729 2731 0
-2727 2729 2731 0
-2727 -2729 -2731 0
8 49 -2732 0
8 -49 -2732 0
-8 49 -2732 0
-8 -49 2732 0
2549 2732 -2733 0
2549 -2732 -2733 0
-2549 2732 -2733 0
-2549 -2732 2733 0
2549 2732 -2734 0
2549 -2732 2734 0
-2549 2732 2734 0
-2549 -2732 -2734 0
2544 2734 -2735 0
2544 -2734 -2735 0
-2544 2734 -2735 0
-2544 -2734 2735 0
2544 2734 -2736 0
2544 -2734 2736 0
-2544 2734 2736 0
-2544 -2734 -2736 0
2733 2735 -2737 0
2733 -2735 2737 0
-2733 2735 2737 0
-2733 -2735 -2737 0
9 49 -2738 0
9 -49 -2738 0
-9 49 -2738 0
-9 -49 2738 0
2555 2738 -2739 0
2555 -2738 -2739 0
-2555 2738 -2739 0
-2555 -2738 2739 0
2555 2738 -2740 0
2555 -2738 2740 0
-2555 2738 2740 0
-2555 -2738 -2740 0
2550 2740 -2741 0
2550 -2740 -2741 0
-2550 2740 -2741 0
-2550 -2740 2741 0
2550 2740 -2742 0
2550 -2740 2742 0
-2550 2740 2742 0
-2550 -2740 -2742 0
2739 2741 -2743 0
2739 -2741 2743 0
-2739 2741 2743 0
-2739 -2741 -2743 0
10 49 -2744 0
10 -49 -2744 0
-10 49 -2744 0
-10 -49 2744 0
2561 2744 -2745 0
2561 -2744 -2745 0
-2561 2744 -2745 0
-2561 -2744 2745 0
2561 2744 -2746 0
2561 -2744 2746 0
-2561 2744 2746 0
-2561 -2744 -2746 0
2556 2746 -2747 0
2556 -2746 -2747 0
-2556 2746 -2747 0
-2556 -2746 2747 0
2556 2746 -2748 0
2556 -2746 2748 0
-2556 2746 2748 0
-2556 -2746 -2748 0
2745 2747 -2749 0
2745 -2747 2749 0
-2745 2747 2749 0
-2745 -2747 -2749 0
11 49 -2750 0
11 -49 -2750 0
-11 49 -2750 0
-11 -49 2750 0
2567 2750 -2751 0
2567 -2750 -2751 0
-2567 2750 -2751 0
-2567 -2750 2751 0
2567 2750 -2752 0
2567 -2750 2752 0
-2567 2750 2752 0
-2567 -2750 -2752 0
2562 2752 -2753 0
2562 -2752 -2753 0
-2562 2752 -2753 0
-2562 -2752 2753 0
2562 2752 -2754 0
2562 -2752 2754 0
-2562 2752 2754 0
-2562 -2752 -2754 0
2751 2753 -2755 0
2751 -2753 2755 0
-2751 2753 2755 0
-2751 -2753 -2755 0
12 49 -2756 0
12 -49 -2756 0
-12 49 -2756 0
-12 -49 2756 0
2573 2756 -2757 0
2573 -2756 -2757 0
-2573 2756 -2757 0
-2573 -2756 2757 0
2573 2756 -2758 0
2573 -2756 2758 0
-2573 2756 2758 0
-2573 -2756 -2758 0
2568 2758 -2759 0
2568 -2758 -2759 0
-2568 2758 -2759 0
-2568 -2758 2759 0
2568 2758 -2760 0
2568 -2758 2760 0
-2568 2758 2760 0
-2568 -2758 -2760 0
2757 2759 -2761 0
2757 -2759 2761 0
-2757 2759 2761 0
-2757 -2759 -2761 0
13 49 -2762 0
13 -49 -2762 0
-13 49 -2762 0
-13 -49 2762 0
2579 2762 -2763 0
2579 -2762 -2763 0
-2579 2762 -2763 0
-2579 -2762 2763 0
2579 2762 -2764 0
2579 -2762 2764 0
-2579 2762 2764 0
-2579 -2762 -2764 0
2574 2764 -2765 0
2574 -2764 -2765 0
-2574 2764 -2765 0
-2574 -2764 2765 0
2574 2764 -2766 0
2574 -2764 2766 0
-2574 2764 2766 0
-2574 -2764 -2766 0
2763 2765 -2767 0
2763 -2765 2767 0
-2763 2765 2767 0
-2763 -2765 -2767 0
14 49 -2768 0
14 -49 -2768 0
-14 49 -2768 0
-14 -49 2768 0
2585 2768 -2769 0
2585 -2768 -2769 0
-2585 2768 -2769 0
-2585 -2768 2769 0
2585 2768 -2770 0
2585 -2768 2770 0
-2585 2768 2770 0
-2585 -2768 -2770 0
2580 2770 -2771 0
2580 -2770 -2771 0
-2580 2770 -2771 0
-2580 -2770 2771 0
2580 2770 -2772 0
2580 -2770 2772 0
-2580 2770 2772 0
-2580 -2770 -2772 0
2769 2771 -2773 0
2769 -2771 2773 0
-2769 2771 2773 0
-2769 -2771 -2773 0
15 49 -2774 0
15 -49 -2774 0
-15 49 -2774 0
-15 -49 2774 0
2591 2774 -2775 0
2591 -2774 -2775 0
-2591 2774 -2775 0
-2591 -2774 2775 0
2591 2774 -2776 0
2591 -2774 2776 0
-2591 2774 2776 0
-2591 -2774 -2776 0
2586 2776 -2777 0
2586 -2776 -2777 0
-2586 2776 -2777 0
-2586 -2776 2777 0
2586 2776 -2778 0
2586 -2776 2778 0
-2586 2776 2778 0
-2586 -2776 -2778 0
2775 2777 -2779 0
2775 -2777 2779 0
-2775 2777 2779 0
-2775 -2777 -2779 0
16 49 -2780 0
16 -49 -2780 0
-16 49 -2780 0
-16 -49 2780 0
2597 2780 -2781 0
2597 -2780 -2781 0
-2597 2780 -2781 0
-2597 -2780 2781 0
2597 2780 -2782 0
2597 -2780 2782 0
-2597 2780 2782 0
-2597 -2780 -2782 0
2592 2782 -2783 0
2592 -2782 -2783 0
-2592 2782 -2783 0
-2592 -2782 2783 0
2592 2782 -2784 0
2592 -2782 2784 0
-2592 2782 2784 0
-2592 -2782 -2784 0
2781 2783 -2785 0
2781 -2783 2785 0
-2781 2783 2785 0
-2781 -2783 -2785 0
17 49 -2786 0
17 -49 -2786 0
-17 49 -2786 0
-17 -49 2786 0
2603 2786 -2787 0
2603 -2786 -2787 0
-2603 2786 -2787 0
-2603 -2786 2787 0
2603 2786 -2788 0
2603 -2786 2788 0
-2603 2786 2788 0
-2603 -2786 -2788 0
2598 2788 -2789 0
2598 -2788 -2789 0
-2598 2788 -2789 0
-2598 -2788 2789 0
2598 2788 -2790 0
2598 -2788 2790 0
-2598 2788 2790 0
-2598 -2788 -2790 0
2787 2789 -2791 0
2787 -2789 2791 0
-2787 2789 2791 0
-2787 -2789 -2791 0
18 49 -2792 0
18 -49 -2792 0
-18 49 -2792 0
-18 -49 2792 0
2609 2792 -2793 0
2609 -2792 -2793 0
-2609 2792 -2793 0
-2609 -2792 2793 0
2609 2792 -2794 0
2609 -2792 2794 0
-2609 2792 2794 0
-2609 -2792 -2794 0
2604 2794 -2795 0
2604 -2794 -2795 0
-2604 2794 -2795 0
-2604 -2794 2795 0
2604 2794 -2796 0
2604 -2794 2796 0
-2604 2794 2796 0
-2604 -2794 -2796 0
2793 2795 -2797 0
2793 -2795 2797 0
-2793 2795 2797 0
-2793 -2795 -2797 0
19 49 -2798 0
19 -49 -2798 0
-19 49 -2798 0
-19 -49 2798 0
2615 2798 -2799 0
2615 -2798 -2799 0
-2615 2798 -2799 0
-2615 -2798 2799 0
2615 2798 -2800 0
2615 -2798 2800 0
-2615 2798 2800 0
-2615 -2798 -2800 0
2610 2800 -2801 0
2610 -2800 -2801 0
-2610 2800 -2801 0
-2610 -2800 2801 0
2610 2800 -2802 0
2610 -2800 2802 0
-2610 2800 2802 0
-2610 -2800 -2802 0
2799 2801 -2803 0
2799 -2801 2803 0
-2799 2801 2803 0
-2799 -2801 -2803 0
20 49 -2804 0
20 -49 -2804 0
-20 49 -2804 0
-20 -49 2804 0
2621 2804 -2805 0
2621 -2804 -2805 0
-2621 2804 -2805 0
-2621 -2804 2805 0
2621 2804 -2806 0
2621 -2804 2806 0
-2621 2804 2806 0
-2621 -2804 -2806 0
2616 2806 -2807 0
2616 -2806 -2807 0
-2616 2806 -2807 0
-2616 -2806 2807 0
2616 2806 -2808 0
2616 -2806 2808 0
-2616 2806 2808 0
-2616 -2806 -2808 0
2805 2807 -2809 0
2805 -2807 2809 0
-2805 2807 2809 0
-2805 -2807 -2809 0
21 49 -2810 0
21 -49 -2810 0
-21 49 -2810 0
-21 -49 2810 0
2627 2810 -2811 0
2627 -2810 -2811 0
-2627 2810 -2811 0
-2627 -2810 2811 0
2627 2810 -2812 0
2627 -2810 2812 0
-2627 2810 2812 0
-2627 -2810 -2812 0
2622 2812 -2813 0
2622 -2812 -2813 0
-2622 2812 -2813 0
-2622 -2812 2813 0
2622 2812 -2814 0
2622 -2812 2814 0
-2622 2812 2814 0
-2622 -2812 -2814 0
2811 2813 -2815 0
2811 -2813 2815 0
-2811 2813 2815 0
-2811 -2813 -2815 0
22 49 -2816 0
22 -49 -2816 0
-22 49 -2816 0
-22 -49 2816 0
2633 2816 -2817 0
2633 -2816 -2817 0
-2633 2816 -2817 0
-2633 -2816 2817 0
2633 2816 -2818 0
2633 -2816 2818 0
-2633 2816 2818 0
-2633 -2816 -2818 0
2628 2818 -2819 0
2628 -2818 -2819 0
-2628 2818 -2819 0
-2628 -2818 2819 0
2628 2818 -2820 0
2628 -2818 2820 0
-2628 2818 2820 0
-2628 -2818 -2820 0
2817 2819 -2821 0
2817 -2819 2821 0
-2817 2819 2821 0
-2817 -2819 -2821 0
23 49 -2822 0
23 -49 -2822 0
-23 49 -2822 0
-23 -49 2822 0
2639 2822 -2823 0
2639 -2822 -2823 0
-2639 2822 -2823 0
-2639 -2822 2823 0
2639 2822 -2824 0
2639 -2822 2824 0
-2639 2822 2824 0
-2639 -2822 -2824 0
2634 2824 -2825 0
2634 -2824 -2825 0
-2634 2824 -2825 0
-2634 -2824 2825 0
2634 2824 -2826 0
2634 -2824 2826 0
-2634 2824 2826 0
-2634 -2824 -2826 0
2823 2825 -2827 0
2823 -2825 2827 0
-2823 2825 2827 0
-2823 -2825 -2827 0
24 49 -2828 0
24 -49 -2828 0
-24 49 -2828 0
-24 -49 2828 0
2645 2828 -2829 0
2645 -2828 -2829 0
-2645 2828 -2829 0
-2645 -2828 2829 0
2645 2828 -2830 0
2645 -2828 2830 0
-2645 2828 2830 0
-2645 -2828 -2830 0
2640 2830 -2831 0
2640 -2830 -2831 0
-2640 2830 -2831 0
-2640 -2830 2831 0
2640 2830 -2832 0
2640 -2830 2832 0
-2640 2830 2832 0
-2640 -2830 -2832 0
2829 2831 -2833 0
2829 -2831 2833 0
-2829 2831 2833 0
-2829 -2831 -2833 0
25 49 -2834 0
25 -49 -2834 0
-25 49 -2834 0
-25 -49 2834 0
2651 2834 -2835 0
2651 -2834 -2835 0
-2651 2834 -2835 0
-2651 -2834 2835 0
2651 2834 -2836 0
2651 -2834 2836 0
-2651 2834 2836 0
-2651 -2834 -2836 0
2646 2836 -2837 0
2646 -2836 -2837 0
-2646 2836 -2837 0
-2646 -2836 2837 0
2646 2836 -2838 0
2646 -2836 2838 0
-2646 2836 2838 0
-2646 -2836 -2838 0
2835 2837 -2839 0
2835 -2837 2839 0
-2835 2837 2839 0
-2835 -2837 -2839 0
26 49 -2840 0
26 -49 -2840 0
-26 49 -2840 0
-26 -49 2840 0
2657 2840 -2841 0
2657 -2840 -2841 0
-2657 2840 -2841 0
-2657 -2840 2841 0
2657 2840 -2842 0
2657 -2840 2842 0
-2657 2840 2842 0
-2657 -2840 -2842 0
2652 2842 -2843 0
2652 -2842 -2843 0
-2652 2842 -2843 0
-2652 -2842 2843 0
2652 2842 -2844 0
2652 -2842 2844 0
-2652 2842 2844 0
-2652 -2842 -2844 0
2841 2843 -2845 0
2841 -2843 2845 0
-2841 2843 2845 0
-2841 -2843 -2845 0
27 49 -2846 0
27 -49 -2846 0
-27 49 -2846 0
-27 -49 2846 0
2663 2846 -2847 0
2663 -2846 -2847 0
-2663 2846 -2847 0
-2663 -2846 2847 0
2663 2846 -2848 0
2663 -2846 2848 0
-2663 2846 2848 0
-2663 -2846 -2848 0
2658 2848 -2849 0
2658 -2848 -2849 0
-2658 2848 -2849 0
-2658 -2848 2849 0
2658 2848 -2850 0
2658 -2848 2850 0
-2658 2848 2850 0
-2658 -2848 -2850 0
2847 2849 -2851 0
2847 -2849 2851 0
-2847 2849 2851 0
-2847 -2849 -2851 0
28 49 -2852 0
28 -49 -2852 0
-28 49 -2852 0
-28 -49 2852 0
2669 2852 -2853 0
2669 -2852 -2853 0
-2669 2852 -2853 0
-2669 -2852 2853 0
2669 2852 -2854 0
2669 -2852 2854 0
-2669 2852 2854 0
-2669 -2852 -2854 0
2664 2854 -2855 0
2664 -2854 -2855 0
-2664 2854 -2855 0
-2664 -2854 2855 0
2664 2854 -2856 0
2664 -2854 2856 0
-2664 2854 2856 0
-2664 -2854 -2856 0
2853 2855 -2857 0
2853 -2855 2857 0
-2853 2855 2857 0
-2853 -2855 -2857 0
29 49 -2858 0
29 -49 -2858 0
-29 49 -2858 0
-29 -49 2858 0
2675 2858 -2859 0
2675 -2858 -2859 0
-2675 2858 -2859 0
-2675 -2858 2859 0
2675 2858 -2860 0
2675 -2858 2860 0
-2675 2858 2860 0
-2675 -2858 -2860 0
2670 2860 -2861 0
2670 -2860 -2861 0
-2670 2860 -2861 0
-2670 -2860 2861 0
2670 2860 -2862 0
2670 -2860 2862 0
-2670 2860 2862 0
-2670 -2860 -2862 0
2859 2861 -2863 0
2859 -2861 2863 0
-2859 2861 2863 0
-2859 -2861 -2863 0
30 49 -2864 0
30 -49 -2864 0
-30 49 -2864 0
-30 -49 2864 0
2681 2864 -2865 0
2681 -2864 -2865 0
-2681 2864 -2865 0
-2681 -2864 2865 0
2681 2864 -2866 0
2681 -2864 2866 0
-2681 2864 2866 0
-2681 -2864 -2866 0
2676 2866 -2867 0
2676 -2866 -2867 0
-2676 2866 -2867 0
-2676 -2866 2867 0
2676 2866 -2868 0
2676 -2866 2868 0
-2676 2866 2868 0
-2676 -2866 -2868 0
2865 2867 -2869 0
2865 -2867 2869 0
-2865 2867 2869 0
-2865 -2867 -2869 0
31 49 -2870 0
31 -49 -2870 0
-31 49 -2870 0
-31 -49 2870 0
2687 2870 -2871 0
2687 -2870 -2871 0
-2687 2870 -2871 0
-2687 -2870 2871 0
2687 2870 -2872 0
2687 -2870 2872 0
-2687 2870 2872 0
-2687 -2870 -2872 0
2682 2872 -2873 0
2682 -2872 -2873 0
-2682 2872 -2873 0
-2682 -2872 2873 0
2682 2872 -2874 0
2682 -2872 2874 0
-2682 2872 2874 0
-2682 -2872 -2874 0
2871 2873 -2875 0
2871 -2873 2875 0
-2871 2873 2875 0
-2871 -2873 -2875 0
32 49 -2876 0
32 -49 -2876 0
-32 49 -2876 0
-32 -49 2876 0
2689 2876 -2877 0
2689 -2876 -2877 0
-2689 2876 -2877 0
-2689 -2876 2877 0
2689 2876 -2878 0
2689 -2876 2878 0
-2689 2876 2878 0
-2689 -2876 -2878 0
2688 2878 -2879 0
2688 -2878 -2879 0
-2688 2878 -2879 0
-2688 -2878 2879 0
2688 2878 -2880 0
2688 -2878 2880 0
-2688 2878 2880 0
-2688 -2878 -2880 0
2877 2879 -2881 0
2877 -2879 2881 0
-2877 2879 2881 0
-2877 -2879 -2881 0
33 49 -2882 0
33 -49 -2882 0
-33 49 -2882 0
-33 -49 2882 0
1 50 -2883 0
1 -50 -2883 0
-1 50 -2883 0
-1 -50 2883 0
2700 2883 -2884 0
2700 -2883 -2884 0
-2700 2883 -2884 0
-2700 -2883 2884 0
2700 2883 -2885 0
2700 -2883 2885 0
-2700 2883 2885 0
-2700 -2883 -2885 0
2695 2885 -2886 0
2695 -2885 -2886 0
-2695 2885 -2886 0
-2695 -2885 2886 0
2695 2885 -2887 0
2695 -2885 2887 0
-2695 2885 2887 0
-2695 -2885 -2887 0
2884 2886 -2888 0
2884 -2886 2888 0
-2884 2886 2888 0
-2884 -2886 -2888 0
2 50 -2889 0
2 -50 -2889 0
-2 50 -2889 0
-2 -50 2889 0
2706 2889 -2890 0
2706 -2889 -2890 0
-2706 2889 -2890 0
-2706 -2889 2890 0
2706 2889 -2891 0
2706 -2889 2891 0
-2706 2889 2891 0
-2706 -2889 -2891 0
2701 2891 -2892 0
2701 -2891 -2892 0
-2701 2891 -2892 0
-2701 -2891 2892 0
2701 2891 -2893 0
2701 -2891 2893 0
-2701 2891 2893 0
-2701 -2891 -2893 0
2890 2892 -2894 0
2890 -2892 2894 0
-2890 2892 2894 0
-2890 -2892 -2894 0
3 50 -2895 0
3 -50 -2895 0
-3 50 -2895 0
-3 -50 2895 0
2712 2895 -2896 0
2712 -2895 -2896 0
-2712 2895 -2896 0
-2712 -2895 2896 0
2712 2895 -2897 0
2712 -2895 2897 0
-2712 2895 2897 0
-2712 -2895 -2897 0
2707 2897 -2898 0
2707 -2897 -2898 0
-2707 2897 -2898 0
-2707 -2897 2898 0
2707 2897 -2899 0
2707 -2897 2899 0
-2707 2897 2899 0
-2707 -2897 -2899 0
2896 2898 -2900 0
2896 -2898 2900 0
-2896 2898 2900 0
-2896 -2898 -2900 0
4 50 -2901 0
4 -50 -2901 0
-4 50 -2901 0
-4 -50 2901 0
2718 2901 -2902 0
2718 -2901 -2902 0
-2718 2901 -2902 0
-2718 -2901 2902 0
2718 2901 -2903 0
2718 -2901 2903 0
-2718 2901 2903 0
-2718 -2901 -2903 0
2713 2903 -2904 0
2713 -2903 -2904 0
-2713 2903 -2904 0
-2713 -2903 2904 0
2713 2903 -2905 0
2713 -2903 2905 0
-2713 2903 2905 0
-2713 -2903 -2905 0
2902 2904 -2906 0
2902 -2904 2906 0
-2902 2904 2906 0
-2902 -2904 -2906 0
5 50 -2907 0
5 -50 -2907 0
-5 50 -2907 0
-5 -50 2907 0
2724 2907 -2908 0
2724 -2907 -2908 0
-2724 2907 -2908 0
-2724 -2907 2908 0
2724 2907 -2909 0
2724 -2907 2909 0
-2724 2907 2909 0
-2724 -2907 -2909 0
2719 2909 -2910 0
2719 -2909 -2910 0
-2719 2909 -2910 0
-2719 -2909 2910 0
2719 2909 -2911 0
2719 -2909 2911 0
-2719 2909 2911 0
-2719 -2909 -2911 0
2908 2910 -2912 0
2908 -2910 2912 0
-2908 2910 2912 0
-2908 -2910 -2912 0
6 50 -2913 0
6 -50 -2913 0
-6 50 -2913 0
-6 -50 2913 0
2730 2913 -2914 0
2730 -2913 -2914 0
-2730 2913 -2914 0
-2730 -2913 2914 0
2730 2913 -2915 0
2730 -2913 2915 0
-2730 2913 2915 0
-2730 -2913 -2915 0
2725 2915 -2916 0
2725 -2915 -2916 0
-2725 2915 -2916 0
-2725 -2915 2916 0
2725 2915 -2917 0
2725 -2915 2917 0
-2725 2915 2917 0
-2725 -2915 -2917 0
2914 2916 -2918 0
2914 -2916 2918 0
-2914 2916 2918 0
-2914 -2916 -2918 0
7 50 -2919 0
7 -50 -2919 0
-7 50 -2919 0
-7 -50 2919 0
2736 2919 -2920 0
2736 -2919 -2920 0
-2736 2919 -2920 0
-2736 -2919 2920 0
2736 2919 -2921 0
2736 -2919 2921 0
-2736 2919 2921 0
-2736 -2919 -2921 0
2731 2921 -2922 0
2731 -2921 -2922 0
-2731 2921 -2922 0
-2731 -2921 2922 0
2731 2921 -2923 0
2731 -2921 2923 0
-2731 2921 2923 0
-2731 -2921 -2923 0
2920 2922 -2924 0
2920 -2922 2924 0
-2920 2922 2924 0
-2920 -2922 -2924 0
8 50 -2925 0
8 -50 -2925 0
-8 50 -2925 0
-8 -50 2925 0
2742 2925 -2926 0
2742 -2925 -2926 0
-2742 2925 -2926 0
-2742 -2925 2926 0
2742 2925 -2927 0
2742 -2925 2927 0
-2742 2925 2927 0
-2742 -2925 -2927 0
2737 2927 -2928 0
2737 -2927 -2928 0
-2737 2927 -2928 0
-2737 -2927 2928 0
2737 2927 -2929 0
2737 -2927 2929 0
-2737 2927 2929 0
-2737 -2927 -2929 0
2926 2928 -2930 0
2926 -2928 2930 0
-2926 2928 2930 0
-2926 -2928 -2930 0
9 50 -2931 0
9 -50 -2931 0
-9 50 -2931 0
-9 -50 2931 0
2748 2931 -2932 0
2748 -2931 -2932 0
-2748 2931 -2932 0
-2748 -2931 2932 0
2748 2931 -2933 0
2748 -2931 2933 0
-2748 2931 2933 0
-2748 -2931 -2933 0
2743 2933 -2934 0
2743 -2933 -2934 0
-2743 2933 -2934 0
-2743 -2933 2934 0
2743 2933 -2935 0
2743 -2933 2935 0
-2743 2933 2935 0
-2743 -2933 -2935 0
2932 2934 -2936 0
2932 -2934 2936 0
-2932 2934 2936 0
-2932 -2934 -2936 0
10 50 -2937 0
10 -50 -2937 0
-10 50 -2937 0
-10 -50 2937 0
2754 2937 -2938 0
2754 -2937 -2938 0
-2754 2937 -2938 0
-2754 -2937 2938 0
2754 2937 -2939 0
2754 -2937 2939 0
-2754 2937 2939 0
-2754 -2937 -2939 0
2749 2939 -2940 0
2749 -2939 -2940 0
-2749 2939 -2940 0
-2749 -2939 2940 0
2749 2939 -2941 0
2749 -2939 2941 0
-2749 2939 2941 0
-2749 -2939 -2941 0
2938 2940 -2942 0
2938 -2940 2942 0
-2938 2940 2942 0
-2938 -2940 -2942 0
11 50 -2943 0
11 -50 -2943 0
-11 50 -2943 0
-11 -50 2943 0
2760 2943 -2944 0
2760 -2943 -2944 0
-2760 2943 -2944 0
-2760 -2943 2944 0
2760 2943 -2945 0
2760 -2943 2945 0
-2760 2943 2945 0
-2760 -2943 -2945 0
2755 2945 -2946 0
2755 -2945 -2946 0
-2755 2945 -2946 0
-2755 -2945 2946 0
2755 2945 -2947 0
2755 -2945 2947 0
-2755 2945 2947 0
-2755 -2945 -2947 0
2944 2946 -2948 0
2944 -2946 2948 0
-2944 2946 2948 0
-2944 -2946 -2948 0
12 50 -2949 0
12 -50 -2949 0
-12 50 -2949 0
-12 -50 2949 0
2766 2949 -2950 0
2766 -2949 -2950 0
-2766 2949 -2950 0
-2766 -2949 2950 0
2766 2949 -2951 0
2766 -2949 2951 0
-2766 2949 2951 0
-2766 -2949 -2951 0
2761 2951 -2952 0
2761 -2951 -2952 0
-2761 2951 -2952 0
-2761 -2951 2952 0
2761 2951 -2953 0
2761 -2951 2953 0
-2761 2951 2953 0
-2761 -2951 -2953 0
2950 2952 -2954 0
2950 -2952 2954 0
-2950 2952 2954 0
-2950 -2952 -2954 0
13 50 -2955 0
13 -50 -2955 0
-13 50 -2955 0
-13 -50 2955 0
2772 2955 -2956 0
2772 -2955 -2956 0
-2772 2955 -2956 0
-2772 -2955 2956 0
2772 2955 -2957 0
2772 -2955 2957 0
-2772 2955 2957 0
-2772 -2955 -2957 0
2767 2957 -2958 0
2767 -2957 -2958 0
-2767 2957 -2958 0
-2767 -2957 2958 0
2767 2957 -2959 0
2767 -2957 2959 0
-2767 2957 2959 0
-2767 -2957 -2959 0
2956 2958 -2960 0
2956 -2958 2960 0
-2956 2958 2960 0
-2956 -2958 -2960 0
14 50 -2961 0
14 -50 -2961 0
-14 50 -2961 0
-14 -50 2961 0
2778 2961 -2962 0
2778 -2961 -2962 0
-2778 2961 -2962 0
-2778 -2961 2962 0
2778 2961 -2963 0
2778 -2961 2963 0
-2778 2961 2963 0
-2778 -2961 -2963 0
2773 2963 -2964 0
2773 -2963 -2964 0
-2773 2963 -2964 0
-2773 -2963 2964 0
2773 2963 -2965 0
2773 -2963 2965 0
-2773 2963 2965 0
-2773 -2963 -2965 0
2962 2964 -2966 0
2962 -2964 2966 0
-2962 2964 2966 0
-2962 -2964 -2966 0
15 50 -2967 0
15 -50 -2967 0
-15 50 -2967 0
-15 -50 2967 0
2784 2967 -2968 0
2784 -2967 -2968 0
-2784 2967 -2968 0
-2784 -2967 2968 0
2784 2967 -2969 0
2784 -2967 2969 0
-2784 2967 2969 0
-2784 -2967 -2969 0
2779 2969 -2970 0
2779 -2969 -2970 0
-2779 2969 -2970 0
-2779 -2969 2970 0
2779 2969 -2971 0
2779 -2969 2971 0
-2779 2969 2971 0
-2779 -2969 -2971 0
2968 2970 -2972 0
2968 -2970 2972 0
-2968 2970 2972 0
-2968 -2970 -2972 0
16 50 -2973 0
16 -50 -2973 0
-16 50 -2973 0
-16 -50 2973 0
2790 2973 -2974 0
2790 -2973 -2974 0
-2790 2973 -2974 0
-2790 -2973 2974 0
2790 2973 -2975 0
2790 -2973 2975 0
-2790 2973 2975 0
-2790 -2973 -2975 0
2785 2975 -2976 0
2785 -2975 -2976 0
-2785 2975 -2976 0
-2785 -2975 2976 0
2785 2975 -2977 0
2785 -2975 2977 0
-2785 2975 2977 0
-2785 -2975 -2977 0
2974 2976 -2978 0
2974 -2976 2978 0
-2974 2976 2978 0
-2974 -2976 -2978 0
17 50 -2979 0
17 -50 -2979 0
-17 50 -2979 0
-17 -50 2979 0
2796 2979 -2980 0
2796 -2979 -2980 0
-2796 2979 -2980 0
-2796 -2979 2980 0
2796 2979 -2981 0
2796 -2979 2981 0
-2796 2979 2981 0
-2796 -2979 -2981 0
2791 2981 -2982 0
2791 -2981 -2982 0
-2791 2981 -2982 0
-2791 -2981 2982 0
2791 2981 -2983 0
2791 -2981 2983 0
-2791 2981 2983 0
-2791 -2981 -2983 0
2980 2982 -2984 0
2980 -2982 2984 0
-2980 2982 2984 0
-2980 -2982 -2984 0
18 50 -2985 0
18 -50 -2985 0
-18 50 -2985 0
-18 -50 2985 0
2802 2985 -2986 0
2802 -2985 -2986 0
-2802 2985 -2986 0
-2802 -2985 2986 0
2802 2985 -2987 0
2802 -2985 2987 0
-2802 2985 2987 0
-2802 -2985 -2987 0
2797 2987 -2988 0
2797 -2987 -2988 0
-2797 2987 -2988 0
-2797 -2987 2988 0
2797 2987 -2989 0
2797 -2987 2989 0
-2797 2987 2989 0
-2797 -2987 -2989 0
2986 2988 -2990 0
2986 -2988 2990 0
-2986 2988 2990 0
-2986 -2988 -2990 0
19 50 -2991 0
19 -50 -2991 0
-19 50 -2991 0
-19 -50 2991 0
2808 2991 -2992 0
2808 -2991 -2992 0
-2808 2991 -2992 0
-2808 -2991 2992 0
2808 2991 -2993 0
2808 -2991 2993 0
-2808 2991 2993 0
-2808 -2991 -2993 0
2803 2993 -2994 0
2803 -2993 -2994 0
-2803 2993 -2994 0
-2803 -2993 2994 0
2803 2993 -2995 0
2803 -2993 2995 0
-2803 2993 2995 0
-2803 -2993 -2995 0
2992 2994 -2996 0
2992 -2994 2996 0
-2992 2994 2996 0
-2992 -2994 -2996 0
20 50 -2997 0
20 -50 -2997 0
-20 50 -2997 0
-20 -50 2997 0
2814 2997 -2998 0
2814 -2997 -2998 0
-2814 2997 -2998 0
-2814 -2997 2998 0
2814 2997 -2999 0
2814 -2997 2999 0
-2814 2997 2999 0
-2814 -2997 -2999 0
2809 2999 -3000 0
2809 -2999 -3000 0
-2809 2999 -3000 0
-2809 -2999 3000 0
2809 2999 -3001 0
2809 -2999 3001 0
-2809 2999 3001 0
-2809 -2999 -3001 0
2998 3000 -3002 0
2998 -3000 3002 0
-2998 3000 3002 0
-2998 -3000 -3002 0
21 50 -3003 0
21 -50 -3003 0
-21 50 -3003 0
-21 -50 3003 0
2820 3003 -3004 0
2820 -3003 -3004 0
-2820 3003 -3004 0
-2820 -3003 3004 0
2820 3003 -3005 0
2820 -3003 3005 0
-2820 3003 3005 0
-2820 -3003 -3005 0
2815 3005 -3006 0
2815 -3005 -3006 0
-2815 3005 -3006 0
-2815 -3005 3006 0
2815 3005 -3007 0
2815 -3005 3007 0
-2815 3005 3007 0
-2815 -3005 -3007 0
3004 3006 -3008 0
3004 -3006 3008 0
-3004 3006 3008 0
-3004 -3006 -3008 0
22 50 -3009 0
22 -50 -3009 0
-22 50 -3009 0
-22 -50 3009 0
2826 3009 -3010 0
2826 -3009 -3010 0
-2826 3009 -3010 0
-2826 -3009 3010 0
2826 3009 -3011 0
2826 -3009 3011 0
-2826 3009 3011 0
-2826 -3009 -3011 0
2821 3011 -3012 0
2821 -3011 -3012 0
-2821 3011 -3012 0
-2821 -3011 3012 0
2821 3011 -3013 0
2821 -3011 3013 0
-2821 3011 3013 0
-2821 -3011 -3013 0
3010 3012 -3014 0
3010 -3012 3014 0
-3010 3012 3014 0
-3010 -3012 -3014 0
23 50 -3015 0
23 -50 -3015 0
-23 50 -3015 0
-23 -50 3015 0
2832 3015 -3016 0
2832 -3015 -3016 0
-2832 3015 -3016 0
-2832 -3015 3016 0
2832 3015 -3017 0
2832 -3015 3017 0
-2832 3015 3017 0
-2832 -3015 -3017 0
2827 3017 -3018 0
2827 -3017 -3018 0
-2827 3017 -3018 0
-2827 -3017 3018 0
2827 3017 -3019 0
2827 -3017 3019 0
-2827 3017 3019 0
-2827 -3017 -3019 0
3016 3018 -3020 0
3016 -3018 3020 0
-3016 3018 3020 0
-3016 -3018 -3020 0
24 50 -3021 0
24 -50 -3021 0
-24 50 -3021 0
-24 -50 3021 0
2838 3021 -3022 0
2838 -3021 -3022 0
-2838 3021 -3022 0
-2838 -3021 3022 0
2838 3021 -3023 0
2838 -3021 3023 0
-2838 3021 3023 0
-2838 -3021 -3023 0
2833 3023 -3024 0
2833 -3023 -3024 0
-2833 3023 -3024 0
-2833 -3023 3024 0
2833 3023 -3025 0
2833 -3023 3025 0
-2833 3023 3025 0
-2833 -3023 -3025 0
3022 3024 -3026 0
3022 -3024 3026 0
-3022 3024 3026 0
-3022 -3024 -3026 0
25 50 -3027 0
25 -50 -3027 0
-25 50 -3027 0
-25 -50 3027 0
2844 3027 -3028 0
2844 -3027 -3028 0
-2844 3027 -3028 0
-2844 -3027 3028 0
2844 3027 -3029 0
2844 -3027 3029 0
-2844 3027 3029 0
-2844 -3027 -3029 0
2839 3029 -3030 0
2839 -3029 -3030 0
-2839 3029 -3030 0
-2839 -3029 3030 0
2839 3029 -3031 0
2839 -3029 3031 0
-2839 3029 3031 0
-2839 -3029 -3031 0
3028 3030 -3032 0
3028 -3030 3032 0
-3028 3030 3032 0
-3028 -3030 -3032 0
26 50 -3033 0
26 -50 -3033 0
-26 50 -3033 0
-26 -50 3033 0
2850 3033 -3034 0
2850 -3033 -3034 0
-2850 3033 -3034 0
-2850 -3033 3034 0
2850 3033 -3035 0
2850 -3033 3035 0
-2850 3033 3035 0
-2850 -3033 -3035 0
2845 3035 -3036 0
2845 -3035 -3036 0
-2845 3035 -3036 0
-2845 -3035 3036 0
2845 3035 -3037 0
2845 -3035 3037 0
-2845 3035 3037 0
-2845 -3035 -3037 0
3034 3036 -3038 0
3034 -3036 3038 0
-3034 3036 3038 0
-3034 -3036 -3038 0
27 50 -3039 0
27 -50 -3039 0
-27 50 -3039 0
-27 -50 3039 0
2856 3039 -3040 0
2856 -3039 -3040 0
-2856 3039 -3040 0
-2856 -3039 3040 0
2856 3039 -3041 0
2856 -3039 3041 0
-2856 3039 3041 0
-2856 -3039 -3041 0
2851 3041 -3042 0
2851 -3041 -3042 0
-2851 3041 -3042 0
-2851 -3041 3042 0
2851 3041 -3043 0
2851 -3041 3043 0
-2851 3041 3043 0
-2851 -3041 -3043 0
3040 3042 -3044 0
3040 -3042 3044 0
-3040 3042 3044 0
-3040 -3042 -3044 0
28 50 -3045 0
28 -50 -3045 0
-28 50 -3045 0
-28 -50 3045 0
2862 3045 -3046 0
2862 -3045 -3046 0
-2862 3045 -3046 0
-2862 -3045 3046 0
2862 3045 -3047 0
2862 -3045 3047 0
-2862 3045 3047 0
-2862 -3045 -3047 0
2857 3047 -3048 0
2857 -3047 -3048 0
-2857 3047 -3048 0
-2857 -3047 3048 0
2857 3047 -3049 0
2857 -3047 3049 0
-2857 3047 3049 0
-2857 -3047 -3049 0
3046 3048 -3050 0
3046 -3048 3050 0
-3046 3048 3050 0
-3046 -3048 -3050 0
29 50 -3051 0
29 -50 -3051 0
-29 50 -3051 0
-29 -50 3051 0
2868 3051 -3052 0
2868 -3051 -3052 0
-2868 3051 -3052 0
-2868 -3051 3052 0
2868 3051 -3053 0
2868 -3051 3053 0
-2868 3051 3053 0
-2868 -3051 -3053 0
2863 3053 -3054 0
2863 -3053 -3054 0
-2863 3053 -3054 0
-2863 -3053 3054 0
2863 3053 -3055 0
2863 -3053 3055 0
-2863 3053 3055 0
-2863 -3053 -3055 0
3052 3054 -3056 0
3052 -3054 3056 0
-3052 3054 3056 0
-3052 -3054 -3056 0
30 50 -3057 0
30 -50 -3057 0
-30 50 -3057 0
-30 -50 3057 0
2874 3057 -3058 0
2874 -3057 -3058 0
-2874 3057 -3058 0
-2874 -3057 3058 0
2874 3057 -3059 0
2874 -3057 3059 0
-2874 3057 3059 0
-2874 -3057 -3059 0
2869 3059 -3060 0
2869 -3059 -3060 0
-2869 3059 -3060 0
-2869 -3059 3060 0
2869 3059 -3061 0
2869 -3059 3061 0
-2869 3059 3061 0
-2869 -3059 -3061 0
3058 3060 -3062 0
3058 -3060 3062 0
-3058 3060 3062 0
-3058 -3060 -3062 0
31 50 -3063 0
31 -50 -3063 0
-31 50 -3063 0
-31 -50 3063 0
2880 3063 -3064 0
2880 -3063 -3064 0
-2880 3063 -3064 0
-2880 -3063 3064 0
2880 3063 -3065 0
2880 -3063 3065 0
-2880 3063 3065 0
-2880 -3063 -3065 0
2875 3065 -3066 0
2875 -3065 -3066 0
-2875 3065 -3066 0
-2875 -3065 3066 0
2875 3065 -3067 0
2875 -3065 3067 0
-2875 3065 3067 0
-2875 -3065 -3067 0
3064 3066 -3068 0
3064 -3066 3068 0
-3064 3066 3068 0
-3064 -3066 -3068 0
32 50 -3069 0
32 -50 -3069 0
-32 50 -3069 0
-32 -50 3069 0
2882 3069 -3070 0
2882 -3069 -3070 0
-2882 3069 -3070 0
-2882 -3069 3070 0
2882 3069 -3071 0
2882 -3069 3071 0
-2882 3069 3071 0
-2882 -3069 -3071 0
2881 3071 -3072 0
2881 -3071 -3072 0
-2881 3071 -3072 0
-2881 -3071 3072 0
2881 3071 -3073 0
2881 -3071 3073 0
-2881 3071 3073 0
-2881 -3071 -3073 0
3070 3072 -3074 0
3070 -3072 3074 0
-3070 3072 3074 0
-3070 -3072 -3074 0
33 50 -3075 0
33 -50 -3075 0
-33 50 -3075 0
-33 -50 3075 0
2888 2893 -3076 0
2888 -2893 -3076 0
-2888 2893 -3076 0
-2888 -2893 3076 0
2888 2893 -3077 0
2888 -2893 3077 0
-2888 2893 3077 0
-2888 -2893 -3077 0
2894 2899 -3078 0
2894 -2899 -3078 0
-2894 2899 -3078 0
-2894 -2899 3078 0
2894 2899 -3079 0
2894 -2899 3079 0
-2894 2899 3079 0
-2894 -2899 -3079 0
3076 3079 -3080 0
3076 -3079 -3080 0
-3076 3079 -3080 0
-3076 -3079 3080 0
3076 3079 -3081 0
3076 -3079 3081 0
-3076 3079 3081 0
-3076 -3079 -3081 0
3078 3080 -3082 0
3078 -3080 3082 0
-3078 3080 3082 0
-3078 -3080 -3082 0
2900 2905 -3083 0
2900 -2905 -3083 0
-2900 2905 -3083 0
-2900 -2905 3083 0
2900 2905 -3084 0
2900 -2905 3084 0
-2900 2905 3084 0
-2900 -2905 -3084 0
3082 3084 -3085 0
3082 -3084 -3085 0
-3082 3084 -3085 0
-3082 -3084 3085 0
3082 3084 -3086 0
3082 -3084 3086 0
-3082 3084 3086 0
-3082 -3084 -3086 0
3083 3085 -3087 0
3083 -3085 3087 0
-3083 3085 3087 0
-3083 -3085 -3087 0
2906 2911 -3088 0
2906 -2911 -3088 0
-2906 2911 -3088 0
-2906 -2911 3088 0
2906 2911 -3089 0
2906 -2911 3089 0
-2906 2911 3089 0
-2906 -2911 -3089 0
3087 3089 -3090 0
3087 -3089 -3090 0
-3087 3089 -3090 0
-3087 -3089 3090 0
3087 3089 -3091 0
3087 -3089 3091 0
-3087 3089 3091 0
-3087 -3089 -3091 0
3088 3090 -3092 0
3088 -3090 3092 0
-3088 3090 3092 0
-3088 -3090 -3092 0
2912 2917 -3093 0
2912 -2917 -3093 0
-2912 2917 -3093 0
-2912 -2917 3093 0
2912 2917 -3094 0
2912 -2917 3094 0
-2912 2917 3094 0
-2912 -2917 -3094 0
3092 3094 -3095 0
3092 -3094 -3095 0
-3092 3094 -3095 0
-3092 -3094 3095 0
3092 3094 -3096 0
3092 -3094 3096 0
-3092 3094 3096 0
-3092 -3094 -3096 0
3093 3095 -3097 0
3093 -3095 3097 0
-3093 3095 3097 0
-3093 -3095 -3097 0
2918 2923 -3098 0
2918 -2923 -3098 0
-2918 2923 -3098 0
-2918 -2923 3098 0
2918 2923 -3099 0
2918 -2923 3099 0
-2918 2923 3099 0
-2918 -2923 -3099 0
3097 3099 -3100 0
3097 -3099 -3100 0
-3097 3099 -3100 0
-3097 -3099 3100 0
3097 3099 -3101 0
3097 -3099 3101 0
-3097 3099 3101 0
-3097 -3099 -3101 0
3098 3100 -3102 0
3098 -3100 3102 0
-3098 3100 3102 0
-3098 -3100 -3102 0
2924 2929 -3103 0
2924 -2929 -3103 0
-2924 2929 -3103 0
-2924 -2929 3103 0
2924 2929 -3104 0
2924 -2929 3104 0
-2924 2929 3104 0
-2924 -2929 -3104 0
3102 3104 -3105 0
3102 -3104 -3105 0
-3102 3104 -3105 0
-3102 -3104 3105 0
3102 3104 -3106 0
3102 -3104 3106 0
-3102 3104 3106 0
-3102 -3104 -3106 0
3103 3105 -3107 0
3103 -3105 3107 0
-3103 3105 3107 0
-3103 -3105 -3107 0
2930 2935 -3108 0
2930 -2935 -3108 0
-2930 2935 -3108 0
-2930 -2935 3108 0
2930 2935 -3109 0
2930 -2935 3109 0
-2930 2935 3109 0
-2930 -2935 -3109 0
3107 3109 -3110 0
3107 -3109 -3110 0
-3107 3109 -3110 0
-3107 -3109 3110 0
3107 3109 -3111 0
3107 -3109 3111 0
-3107 3109 3111 0
-3107 -3109 -3111 0
3108 3110 -3112 0
3108 -3110 3112 0
-3108 3110 3112 0
-3108 -3110 -3112 0
2936 2941 -3113 0
2936 -2941 -3113 0
-2936 2941 -3113 0
-2936 -2941 3113 0
2936 2941 -3114 0
2936 -2941 3114 0
-2936 2941 3114 0
-2936 -2941 -3114 0
3112 3114 -3115 0
3112 -3114 -3115 0
-3112 3114 -3115 0
-3112 -3114 3115 0
3112 3114 -3116 0
3112 -3114 3116 0
-3112 3114 3116 0
-3112 -3114 -3116 0
3113 3115 -3117 0
3113 -3115 3117 0
-3113 3115 3117 0
-3113 -3115 -3117 0
2942 2947 -3118 0
2942 -2947 -3118 0
-2942 2947 -3118 0
-2942 -2947 3118 0
2942 2947 -3119 0
2942 -2947 3119 0
-2942 2947 3119 0
-2942 -2947 -3119 0
3117 3119 -3120 0
3117 -3119 -3120 0
-3117 3119 -3120 0
-3117 -3119 3120 0
3117 3119 -3121 0
3117 -3119 3121 0
-3117 3119 3121 0
-3117 -3119 -3121 0
3118 3120 -3122 0
3118 -3120 3122 0
-3118 3120 3122 0
-3118 -3120 -3122 0
2948 2953 -3123 0
2948 -2953 -3123 0
-2948 2953 -3123 0
-2948 -2953 3123 0
2948 2953 -3124 0
2948 -2953 3124 0
-2948 2953 3124 0
-2948 -2953 -3124 0
3122 3124 -3125 0
3122 -3124 -3125 0
-3122 3124 -3125 0
-3122 -3124 3125 0
3122 3124 -3126 0
3122 -3124 3126 0
-3122 3124 3126 0
-3122 -3124 -3126 0
3123 3125 -3127 0
3123 -3125 3127 0
-3123 3125 3127 0
-3123 -3125 -3127 0
2954 2959 -3128 0
2954 -2959 -3128 0
-2954 2959 -3128 0
-2954 -2959 3128 0
2954 2959 -3129 0
2954 -2959 3129 0
-2954 2959 3129 0
-2954 -2959 -3129 0
3127 3129 -3130 0
3127 -3129 -3130 0
-3127 3129 -3130 0
-3127 -3129 3130 0
3127 3129 -3131 0
3127 -3129 3131 0
-3127 3129 3131 0
-3127 -3129 -3131 0
3128 3130 -3132 0
3128 -3130 3132 0
-3128 3130 3132 0
-3128 -3130 -3132 0
2960 2965 -3133 0
2960 -2965 -3133 0
-2960 2965 -3133 0
-2960 -2965 3133 0
2960 2965 -3134 0
2960 -2965 3134 0
-2960 2965 3134 0
-2960 -2965 -3134 0
3132 3134 -3135 0
3132 -3134 -3135 0
-3132 3134 -3135 0
-3132 -3134 3135 0
3132 3134 -3136 0
3132 -3134 3136 0
-3132 3134 3136 0
-3132 -3134 -3136 0
3133 3135 -3137 0
3133 -3135 3137 0
-3133 3135 3137 0
-3133 -3135 -3137 0
2966 2971 -3138 0
2966 -2971 -3138 0
-2966 2971 -3138 0
-2966 -2971 3138 0
2966 2971 -3139 0
2966 -2971 3139 0
-2966 2971 3139 0
-2966 -2971 -3139 0
3137 3139 -3140 0
3137 -3139 -3140 0
-3137 3139 -3140 0
-3137 -3139 3140 0
3137 3139 -3141 0
3137 -3139 3141 0
-3137 3139 3141 0
-3137 -3139 -3141 0
3138 3140 -3142 0
3138 -3140 3142 0
-3138 3140 3142 0
-3138 -3140 -3142 0
2972 2977 -3143 0
2972 -2977 -3143 0
-2972 2977 -3143 0
-2972 -2977 3143 0
2972 2977 -3144 0
2972 -2977 3144 0
-2972 2977 3144 0
-2972 -2977 -3144 0
3142 3144 -3145 0
3142 -3144 -3145 0
-3142 3144 -3145 0
-3142 -3144 3145 0
3142 3144 -3146 0
3142 -3144 3146 0
-3142 3144 3146 0
-3142 -3144 -3146 0
3143 3145 -3147 0
3143 -3145 3147 0
-3143 3145 3147 0
-3143 -3145 -3147 0
2978 2983 -3148 0
2978 -2983 -3148 0
-2978 2983 -3148 0
-2978 -2983 3148 0
2978 2983 -3149 0
2978 -2983 3149 0
-2978 2983 3149 0
-2978 -2983 -3149 0
3147 3149 -3150 0
3147 -3149 -3150 0
-3147 3149 -3150 0
-3147 -3149 3150 0
3147 3149 -3151 0
3147 -3149 3151 0
-3147 3149 3151 0
-3147 -3149 -3151 0
3148 3150 -3152 0
3148 -3150 3152 0
-3148 3150 3152 0
-3148 -3150 -3152 0
2984 2989 -3153 0
2984 -2989 -3153 0
-2984 2989 -3153 0
-2984 -2989 3153 0
2984 2989 -3154 0
2984 -2989 3154 0
-2984 2989 3154 0
-2984 -2989 -3154 0
3152 3154 -3155 0
3152 -3154 -3155 0
-3152 3154 -3155 0
-3152 -3154 3155 0
3152 3154 -3156 0
3152 -3154 3156 0
-3152 3154 3156 0
-3152 -3154 -3156 0
3153 3155 -3157 0
3153 -3155 3157 0
-3153 3155 3157 0
-3153 -3155 -3157 0
2990 2995 -3158 0
2990 -2995 -3158 0
-2990 2995 -3158 0
-2990 -2995 3158 0
2990 2995 -3159 0
2990 -2995 3159 0
-2990 2995 3159 0
-2990 -2995 -3159 0
3157 3159 -3160 0
3157 -3159 -3160 0
-3157 3159 -3160 0
-3157 -3159 3160 0
3157 3159 -3161 0
3157 -3159 3161 0
-3157 3159 3161 0
-3157 -3159 -3161 0
3158 3160 -3162 0
3158 -3160 3162 0
-3158 3160 3162 0
-3158 -3160 -3162 0
2996 3001 -3163 0
2996 -3001 -3163 0
-2996 3001 -3163 0
-2996 -3001 3163 0
2996 3001 -3164 0
2996 -3001 3164 0
-2996 3001 3164 0
-2996 -3001 -3164 0
3162 3164 -3165 0
3162 -3164 -3165 0
-3162 3164 -3165 0
-3162 -3164 3165 0
3162 3164 -3166 0
3162 -3164 3166 0
-3162 3164 3166 0
-3162 -3164 -3166 0
3163 3165 -3167 0
3163 -3165 3167 0
-3163 3165 3167 0
-3163 -3165 -3167 0
3002 3007 -3168 0
3002 -3007 -3168 0
-3002 3007 -3168 0
-3002 -3007 3168 0
3002 3007 -3169 0
3002 -3007 3169 0
-3002 3007 3169 0
-3002 -3007 -3169 0
3167 3169 -3170 0
3167 -3169 -3170 0
-3167 3169 -3170 0
-3167 -3169 3170 0
3167 3169 -3171 0
3167 -3169 3171 0
-3167 3169 3171 0
-3167 -3169 -3171 0
3168 3170 -3172 0
3168 -3170 3172 0
-3168 3170 3172 0
-3168 -3170 -3172 0
3008 3013 -3173 0
3008 -3013 -3173 0
-3008 3013 -3173 0
-3008 -3013 3173 0
3008 3013 -3174 0
3008 -3013 3174 0
-3008 3013 3174 0
-3008 -3013 -3174 0
3172 3174 -3175 0
3172 -3174 -3175 0
-3172 3174 -3175 0
-3172 -3174 3175 0
3172 3174 -3176 0
3172 -3174 3176 0
-3172 3174 3176 0
-3172 -3174 -3176 0
3173 3175 -3177 0
3173 -3175 3177 0
-3173 3175 3177 0
-3173 -3175 -3177 0
3014 3019 -3178 0
3014 -3019 -3178 0
-3014 3019 -3178 0
-3014 -3019 3178 0
3014 3019 -3179 0
3014 -3019 3179 0
-3014 3019 3179 0
-3014 -3019 -3179 0
3177 3179 -3180 0
3177 -3179 -3180 0
-3177 3179 -3180 0
-3177 -3179 3180 0
3177 3179 -3181 0
3177 -3179 3181 0
-3177 3179 3181 0
-3177 -3179 -3181 0
3178 3180 -3182 0
3178 -3180 3182 0
-3178 3180 3182 0
-3178 -3180 -3182 0
3020 3025 -3183 0
3020 -3025 -3183 0
-3020 3025 -3183 0
-3020 -3025 3183 0
3020 3025 -3184 0
3020 -3025 3184 0
-3020 3025 3184 0
-3020 -3025 -3184 0
3182 3184 -3185 0
3182 -3184 -3185 0
-3182 3184 -3185 0
-3182 -3184 3185 0
3182 3184 -3186 0
3182 -3184 3186 0
-3182 3184 3186 0
-3182 -3184 -3186 0
3183 3185 -3187 0
3183 -3185 3187 0
-3183 3185 3187 0
-3183 -3185 -3187 0
3026 3031 -3188 0
3026 -3031 -3188 0
-3026 3031 -3188 0
-3026 -3031 3188 0
3026 3031 -3189 0
3026 -3031 3189 0
-3026 3031 3189 0
-3026 -3031 -3189 0
3187 3189 -3190 0
3187 -3189 -3190 0
-3187 3189 -3190 0
-3187 -3189 3190 0
3187 3189 -3191 0
3187 -3189 3191 0
-3187 3189 3191 0
-3187 -3189 -3191 0
3188 3190 -3192 0
3188 -3190 3192 0
-3188 3190 3192 0
-3188 -3190 -3192 0
3032 3037 -3193 0
3032 -3037 -3193 0
-3032 3037 -3193 0
-3032 -3037 3193 0
3032 3037 -3194 0
3032 -3037 3194 0
-3032 3037 3194 0
-3032 -3037 -3194 0
3192 3194 -3195 0
3192 -3194 -3195 0
-3192 3194 -3195 0
-3192 -3194 3195 0
3192 3194 -3196 0
3192 -3194 3196 0
-3192 3194 3196 0
-3192 -3194 -3196 0
3193 3195 -3197 0
3193 -3195 3197 0
-3193 3195 3197 0
-3193 -3195 -3197 0
3038 3043 -3198 0
3038 -3043 -3198 0
-3038 3043 -3198 0
-3038 -3043 3198 0
3038 3043 -3199 0
3038 -3043 3199 0
-3038 3043 3199 0
-3038 -3043 -3199 0
3197 3199 -3200 0
3197 -3199 -3200 0
-3197 3199 -3200 0
-3197 -3199 3200 0
3197 3199 -3201 0
3197 -3199 3201 0
-3197 3199 3201 0
-3197 -3199 -3201 0
3198 3200 -3202 0
3198 -3200 3202 0
-3198 3200 3202 0
-3198 -3200 -3202 0
3044 3049 -3203 0
3044 -3049 -3203 0
-3044 3049 -3203 0
-3044 -3049 3203 0
3044 3049 -3204 0
3044 -3049 3204 0
-3044 3049 3204 0
-3044 -3049 -3204 0
3202 3204 -3205 0
3202 -3204 -3205 0
-3202 3204 -3205 0
-3202 -3204 3205 0
3202 3204 -3206 0
3202 -3204 3206 0
-3202 3204 3206 0
-3202 -3204 -3206 0
3203 3205 -3207 0
3203 -3205 3207 0
-3203 3205 3207 0
-3203 -3205 -3207 0
3050 3055 -3208 0
3050 -3055 -3208 0
-3050 3055 -3208 0
-3050 -3055 3208 0
3050 3055 -3209 0
3050 -3055 3209 0
-3050 3055 3209 0
-3050 -3055 -3209 0
3207 3209 -3210 0
3207 -3209 -3210 0
-3207 3209 -3210 0
-3207 -3209 3210 0
3207 3209 -3211 0
3207 -3209 3211 0
-3207 3209 3211 0
-3207 -3209 -3211 0
3208 3210 -3212 0
3208 -3210 3212 0
-3208 3210 3212 0
-3208 -3210 -3212 0
3056 3061 -3213 0
3056 -3061 -3213 0
-3056 3061 -3213 0
-3056 -3061 3213 0
3056 3061 -3214 0
3056 -3061 3214 0
-3056 3061 3214 0
-3056 -3061 -3214 0
3212 3214 -3215 0
3212 -3214 -3215 0
-3212 3214 -3215 0
-3212 -3214 3215 0
3212 3214 -3216 0
3212 -3214 3216 0
-3212 3214 3216 0
-3212 -3214 -3216 0
3213 3215 -3217 0
3213 -3215 3217 0
-3213 3215 3217 0
-3213 -3215 -3217 0
3062 3067 -3218 0
3062 -3067 -3218 0
-3062 3067 -3218 0
-3062 -3067 3218 0
3062 3067 -3219 0
3062 -3067 3219 0
-3062 3067 3219 0
-3062 -3067 -3219 0
3217 3219 -3220 0
3217 -3219 -3220 0
-3217 3219 -3220 0
-3217 -3219 3220 0
3217 3219 -3221 0
3217 -3219 3221 0
-3217 3219 3221 0
-3217 -3219 -3221 0
3218 3220 -3222 0
3218 -3220 3222 0
-3218 3220 3222 0
-3218 -3220 -3222 0
3068 3073 -3223 0
3068 -3073 -3223 0
-3068 3073 -3223 0
-3068 -3073 3223 0
3068 3073 -3224 0
3068 -3073 3224 0
-3068 3073 3224 0
-3068 -3073 -3224 0
3222 3224 -3225 0
3222 -3224 -3225 0
-3222 3224 -3225 0
-3222 -3224 3225 0
3222 3224 -3226 0
3222 -3224 3226 0
-3222 3224 3226 0
-3222 -3224 -3226 0
3223 3225 -3227 0
3223 -3225 3227 0
-3223 3225 3227 0
-3223 -3225 -3227 0
3074 3075 -3228 0
3074 -3075 -3228 0
-3074 3075 -3228 0
-3074 -3075 3228 0
3074 3075 -3229 0
3074 -3075 3229 0
-3074 3075 3229 0
-3074 -3075 -3229 0
3227 3229 -3230 0
3227 -3229 -3230 0
-3227 3229 -3230 0
-3227 -3229 3230 0
3227 3229 -3231 0
3227 -3229 3231 0
-3227 3229 3231 0
-3227 -3229 -3231 0
3228 3230 -3232 0
3228 -3230 3232 0
-3228 3230 3232 0
-3228 -3230 -3232 0
51 0
-86 0
-185 0
-378 0
571 0
-764 0
-957 0
-1150 0
1343 0
-1536 0
1729 0
1922 0
-2115 0
2308 0
2501 0
-2694 0
-2887 0
-3077 0
-3081 0
-3086 0
3091 0
3096 0
3101 0
3106 0
3111 0
3116 0
-3121 0
-3126 0
3131 0
-3136 0
3141 0
-3146 0
-3151 0
3156 0
-3161 0
-3166 0
-3171 0
-3176 0
-3181 0
-3186 0
-3191 0
-3196 0
-3201 0
-3206 0
-3211 0
-3216 0
-3221 0
-3226 0
-3231 0
-3232 0