c description: Perfect Matching Principle on random 3-regular graph on 320 verices
c generator: CNFgen (0.9.6)
c copyright: (C) 2012-2026 Massimo Lauria <massimo.lauria@uniroma1.it>
c url: https://massimolauria.net/cnfgen
c command line: cnfgen matching gnd 320 3
c
p cnf 480 1280
-1 -2 0
-1 -3 0
-2 -3 0
1 2 3 0
-4 -5 0
-4 -6 0
-5 -6 0
4 5 6 0
-7 -8 0
-7 -9 0
-8 -9 0
7 8 9 0
-10 -11 0
-10 -12 0
-11 -12 0
10 11 12 0
-13 -14 0
-13 -15 0
-14 -15 0
13 14 15 0
-16 -17 0
-16 -18 0
-17 -18 0
16 17 18 0
-19 -20 0
-19 -21 0
-20 -21 0
19 20 21 0
-19 -22 0
-19 -23 0
-22 -23 0
19 22 23 0
-24 -25 0
-24 -26 0
-25 -26 0
24 25 26 0
-27 -28 0
-27 -29 0
-28 -29 0
27 28 29 0
-30 -31 0
-30 -32 0
-31 -32 0
30 31 32 0
-33 -34 0
-33 -35 0
-34 -35 0
33 34 35 0
-36 -37 0
-36 -38 0
-37 -38 0
36 37 38 0
-39 -40 0
-39 -41 0
-40 -41 0
39 40 41 0
-42 -43 0
-42 -44 0
-43 -44 0
42 43 44 0
-45 -46 0
-45 -47 0
-46 -47 0
45 46 47 0
-48 -49 0
-48 -50 0
-49 -50 0
48 49 50 0
-51 -52 0
-51 -53 0
-52 -53 0
51 52 53 0
-42 -54 0
-42 -55 0
-54 -55 0
42 54 55 0
-56 -57 0
-56 -58 0
-57 -58 0
56 57 58 0
-59 -60 0
-59 -61 0
-60 -61 0
59 60 61 0
-62 -63 0
-62 -64 0
-63 -64 0
62 63 64 0
-65 -66 0
-65 -67 0
-66 -67 0
65 66 67 0
-65 -68 0
-65 -69 0
-68 -69 0
65 68 69 0
-66 -70 0
-66 -71 0
-70 -71 0
66 70 71 0
-72 -73 0
-72 -74 0
-73 -74 0
72 73 74 0
-75 -76 0
-75 -77 0
-76 -77 0
75 76 77 0
-78 -79 0
-78 -80 0
-79 -80 0
78 79 80 0
-81 -82 0
-81 -83 0
-82 -83 0
81 82 83 0
-84 -85 0
-84 -86 0
-85 -86 0
84 85 86 0
-87 -88 0
-87 -89 0
-88 -89 0
87 88 89 0
-90 -91 0
-90 -92 0
-91 -92 0
90 91 92 0
-16 -93 0
-16 -94 0
-93 -94 0
16 93 94 0
-87 -95 0
-87 -96 0
-95 -96 0
87 95 96 0
-97 -98 0
-97 -99 0
-98 -99 0
97 98 99 0
-100 -101 0
-100 -102 0
-101 -102 0
100 101 102 0
-103 -104 0
-103 -105 0
-104 -105 0
103 104 105 0
-106 -107 0
-106 -108 0
-107 -108 0
106 107 108 0
-109 -110 0
-109 -111 0
-110 -111 0
109 110 111 0
-112 -113 0
-112 -114 0
-113 -114 0
112 113 114 0
-115 -116 0
-115 -117 0
-116 -117 0
115 116 117 0
-118 -119 0
-118 -120 0
-119 -120 0
118 119 120 0
-121 -122 0
-121 -123 0
-122 -123 0
121 122 123 0
-124 -125 0
-124 -126 0
-125 -126 0
124 125 126 0
-78 -127 0
-78 -128 0
-127 -128 0
78 127 128 0
-129 -130 0
-129 -131 0
-130 -131 0
129 130 131 0
-132 -133 0
-132 -134 0
-133 -134 0
132 133 134 0
-135 -136 0
-135 -137 0
-136 -137 0
135 136 137 0
-48 -138 0
-48 -139 0
-138 -139 0
48 138 139 0
-140 -141 0
-140 -142 0
-141 -142 0
140 141 142 0
-143 -144 0
-143 -145 0
-144 -145 0
143 144 145 0
-20 -146 0
-20 -147 0
-146 -147 0
20 146 147 0
-148 -149 0
-148 -150 0
-149 -150 0
148 149 150 0
-151 -152 0
-151 -153 0
-152 -153 0
151 152 153 0
-154 -155 0
-154 -156 0
-155 -156 0
154 155 156 0
-157 -158 0
-157 -159 0
-158 -159 0
157 158 159 0
-160 -161 0
-160 -162 0
-161 -162 0
160 161 162 0
-33 -163 0
-33 -164 0
-163 -164 0
33 163 164 0
-165 -166 0
-165 -167 0
-166 -167 0
165 166 167 0
-129 -138 0
-129 -168 0
-138 -168 0
129 138 168 0
-169 -170 0
-169 -171 0
-170 -171 0
169 170 171 0
-106 -172 0
-106 -173 0
-172 -173 0
106 172 173 0
-174 -175 0
-174 -176 0
-175 -176 0
174 175 176 0
-177 -178 0
-177 -179 0
-178 -179 0
177 178 179 0
-180 -181 0
-180 -182 0
-181 -182 0
180 181 182 0
-30 -183 0
-30 -184 0
-183 -184 0
30 183 184 0
-185 -186 0
-185 -187 0
-186 -187 0
185 186 187 0
-124 -188 0
-124 -189 0
-188 -189 0
124 188 189 0
-190 -191 0
-190 -192 0
-191 -192 0
190 191 192 0
-193 -194 0
-193 -195 0
-194 -195 0
193 194 195 0
-196 -197 0
-196 -198 0
-197 -198 0
196 197 198 0
-97 -199 0
-97 -200 0
-199 -200 0
97 199 200 0
-51 -201 0
-51 -202 0
-201 -202 0
51 201 202 0
-203 -204 0
-203 -205 0
-204 -205 0
203 204 205 0
-206 -207 0
-206 -208 0
-207 -208 0
206 207 208 0
-209 -210 0
-209 -211 0
-210 -211 0
209 210 211 0
-157 -212 0
-157 -213 0
-212 -213 0
157 212 213 0
-127 -214 0
-127 -215 0
-214 -215 0
127 214 215 0
-100 -216 0
-100 -217 0
-216 -217 0
100 216 217 0
-121 -146 0
-121 -218 0
-146 -218 0
121 146 218 0
-72 -219 0
-72 -220 0
-219 -220 0
72 219 220 0
-31 -221 0
-31 -222 0
-221 -222 0
31 221 222 0
-75 -160 0
-75 -223 0
-160 -223 0
75 160 223 0
-22 -224 0
-22 -225 0
-224 -225 0
22 224 225 0
-161 -209 0
-161 -226 0
-209 -226 0
161 209 226 0
-227 -228 0
-227 -229 0
-228 -229 0
227 228 229 0
-174 -230 0
-174 -231 0
-230 -231 0
174 230 231 0
-130 -232 0
-130 -233 0
-232 -233 0
130 232 233 0
-203 -234 0
-203 -235 0
-234 -235 0
203 234 235 0
-56 -236 0
-56 -237 0
-236 -237 0
56 236 237 0
-107 -132 0
-107 -238 0
-132 -238 0
107 132 238 0
-70 -239 0
-70 -240 0
-239 -240 0
70 239 240 0
-34 -241 0
-34 -242 0
-241 -242 0
34 241 242 0
-243 -244 0
-243 -245 0
-244 -245 0
243 244 245 0
-49 -135 0
-49 -246 0
-135 -246 0
49 135 246 0
-177 -247 0
-177 -248 0
-247 -248 0
177 247 248 0
-249 -250 0
-249 -251 0
-250 -251 0
249 250 251 0
-39 -252 0
-39 -253 0
-252 -253 0
39 252 253 0
-254 -255 0
-254 -256 0
-255 -256 0
254 255 256 0
-257 -258 0
-257 -259 0
-258 -259 0
257 258 259 0
-103 -260 0
-103 -261 0
-260 -261 0
103 260 261 0
-178 -262 0
-178 -263 0
-262 -263 0
178 262 263 0
-264 -265 0
-264 -266 0
-265 -266 0
264 265 266 0
-24 -122 0
-24 -267 0
-122 -267 0
24 122 267 0
-185 -268 0
-185 -269 0
-268 -269 0
185 268 269 0
-216 -270 0
-216 -271 0
-270 -271 0
216 270 271 0
-36 -62 0
-36 -272 0
-62 -272 0
36 62 272 0
-17 -264 0
-17 -273 0
-264 -273 0
17 264 273 0
-112 -274 0
-112 -275 0
-274 -275 0
112 274 275 0
-183 -219 0
-183 -276 0
-219 -276 0
183 219 276 0
-98 -277 0
-98 -278 0
-277 -278 0
98 277 278 0
-133 -262 0
-133 -279 0
-262 -279 0
133 262 279 0
-140 -280 0
-140 -281 0
-280 -281 0
140 280 281 0
-115 -252 0
-115 -282 0
-252 -282 0
115 252 282 0
-7 -45 0
-7 -283 0
-45 -283 0
7 45 283 0
-118 -139 0
-118 -284 0
-139 -284 0
118 139 284 0
-95 -165 0
-95 -285 0
-165 -285 0
95 165 285 0
-286 -287 0
-286 -288 0
-287 -288 0
286 287 288 0
-289 -290 0
-289 -291 0
-290 -291 0
289 290 291 0
-172 -186 0
-172 -292 0
-186 -292 0
172 186 292 0
-236 -293 0
-236 -294 0
-293 -294 0
236 293 294 0
-295 -296 0
-295 -297 0
-296 -297 0
295 296 297 0
-298 -299 0
-298 -300 0
-299 -300 0
298 299 300 0
-76 -301 0
-76 -302 0
-301 -302 0
76 301 302 0
-25 -303 0
-25 -304 0
-303 -304 0
25 303 304 0
-162 -272 0
-162 -305 0
-272 -305 0
162 272 305 0
-116 -306 0
-116 -307 0
-306 -307 0
116 306 307 0
-104 -308 0
-104 -309 0
-308 -309 0
104 308 309 0
-279 -310 0
-279 -311 0
-310 -311 0
279 310 311 0
-254 -312 0
-254 -313 0
-312 -313 0
254 312 313 0
-243 -312 0
-243 -314 0
-312 -314 0
243 312 314 0
-265 -315 0
-265 -316 0
-315 -316 0
265 315 316 0
-93 -306 0
-93 -317 0
-306 -317 0
93 306 317 0
-158 -318 0
-158 -319 0
-318 -319 0
158 318 319 0
-173 -320 0
-173 -321 0
-320 -321 0
173 320 321 0
-148 -322 0
-148 -323 0
-322 -323 0
148 322 323 0
-175 -308 0
-175 -324 0
-308 -324 0
175 308 324 0
-143 -286 0
-143 -325 0
-286 -325 0
143 286 325 0
-326 -327 0
-326 -328 0
-327 -328 0
326 327 328 0
-166 -249 0
-166 -329 0
-249 -329 0
166 249 329 0
-326 -330 0
-326 -331 0
-330 -331 0
326 330 331 0
-227 -332 0
-227 -333 0
-332 -333 0
227 332 333 0
-88 -334 0
-88 -335 0
-334 -335 0
88 334 335 0
-228 -334 0
-228 -336 0
-334 -336 0
228 334 336 0
-117 -154 0
-117 -337 0
-154 -337 0
117 154 337 0
-257 -282 0
-257 -338 0
-282 -338 0
257 282 338 0
-339 -340 0
-339 -341 0
-340 -341 0
339 340 341 0
-159 -230 0
-159 -342 0
-230 -342 0
159 230 342 0
-13 -77 0
-13 -343 0
-77 -343 0
13 77 343 0
-4 -344 0
-4 -345 0
-344 -345 0
4 344 345 0
-109 -232 0
-109 -346 0
-232 -346 0
109 232 346 0
-347 -348 0
-347 -349 0
-348 -349 0
347 348 349 0
-46 -350 0
-46 -351 0
-350 -351 0
46 350 351 0
-196 -352 0
-196 -353 0
-352 -353 0
196 352 353 0
-339 -354 0
-339 -355 0
-354 -355 0
339 354 355 0
-1 -14 0
-1 -90 0
-14 -90 0
1 14 90 0
-119 -356 0
-119 -357 0
-356 -357 0
119 356 357 0
-268 -354 0
-268 -358 0
-354 -358 0
268 354 358 0
-359 -360 0
-359 -361 0
-360 -361 0
359 360 361 0
-332 -362 0
-332 -363 0
-362 -363 0
332 362 363 0
-241 -295 0
-241 -364 0
-295 -364 0
241 295 364 0
-8 -365 0
-8 -366 0
-365 -366 0
8 365 366 0
-212 -303 0
-212 -347 0
-303 -347 0
212 303 347 0
-27 -298 0
-27 -367 0
-298 -367 0
27 298 367 0
-125 -255 0
-125 -368 0
-255 -368 0
125 255 368 0
-359 -369 0
-359 -370 0
-369 -370 0
359 369 370 0
-163 -371 0
-163 -372 0
-371 -372 0
163 371 372 0
-59 -168 0
-59 -356 0
-168 -356 0
59 168 356 0
-126 -250 0
-126 -373 0
-250 -373 0
126 250 373 0
-217 -274 0
-217 -374 0
-274 -374 0
217 274 374 0
-375 -376 0
-375 -377 0
-376 -377 0
375 376 377 0
-2 -233 0
-2 -378 0
-233 -378 0
2 233 378 0
-40 -253 0
-40 -379 0
-253 -379 0
40 253 379 0
-68 -352 0
-68 -380 0
-352 -380 0
68 352 380 0
-381 -382 0
-381 -383 0
-382 -383 0
381 382 383 0
-190 -384 0
-190 -385 0
-384 -385 0
190 384 385 0
-293 -386 0
-293 -387 0
-386 -387 0
293 386 387 0
-69 -73 0
-69 -388 0
-73 -388 0
69 73 388 0
-120 -340 0
-120 -389 0
-340 -389 0
120 340 389 0
-26 -155 0
-26 -390 0
-155 -390 0
26 155 390 0
-285 -336 0
-285 -342 0
-336 -342 0
285 336 342 0
-81 -187 0
-81 -391 0
-187 -391 0
81 187 391 0
-94 -164 0
-94 -234 0
-164 -234 0
94 164 234 0
-270 -324 0
-270 -392 0
-324 -392 0
270 324 392 0
-79 -360 0
-79 -393 0
-360 -393 0
79 360 393 0
-277 -394 0
-277 -395 0
-394 -395 0
277 394 395 0
-188 -396 0
-188 -397 0
-396 -397 0
188 396 397 0
-52 -287 0
-52 -398 0
-287 -398 0
52 287 398 0
-337 -399 0
-337 -400 0
-399 -400 0
337 399 400 0
-191 -260 0
-191 -330 0
-260 -330 0
191 260 330 0
-218 -276 0
-218 -401 0
-276 -401 0
218 276 401 0
-136 -402 0
-136 -403 0
-402 -403 0
136 402 403 0
-57 -329 0
-57 -404 0
-329 -404 0
57 329 404 0
-294 -310 0
-294 -405 0
-310 -405 0
294 310 405 0
-406 -407 0
-406 -408 0
-407 -408 0
406 407 408 0
-71 -409 0
-71 -410 0
-409 -410 0
71 409 410 0
-266 -275 0
-266 -411 0
-275 -411 0
266 275 411 0
-412 -413 0
-412 -414 0
-413 -414 0
412 413 414 0
-108 -134 0
-108 -415 0
-134 -415 0
108 134 415 0
-60 -416 0
-60 -417 0
-416 -417 0
60 416 417 0
-199 -239 0
-199 -418 0
-239 -418 0
199 239 418 0
-214 -374 0
-214 -398 0
-374 -398 0
214 374 398 0
-180 -284 0
-180 -419 0
-284 -419 0
180 284 419 0
-221 -317 0
-221 -420 0
-317 -420 0
221 317 420 0
-201 -223 0
-201 -378 0
-223 -378 0
201 223 378 0
-141 -362 0
-141 -399 0
-362 -399 0
141 362 399 0
-137 -169 0
-137 -333 0
-169 -333 0
137 169 333 0
-37 -320 0
-37 -421 0
-320 -421 0
37 320 421 0
-206 -267 0
-206 -304 0
-267 -304 0
206 267 304 0
-32 -422 0
-32 -423 0
-422 -423 0
32 422 423 0
-63 -144 0
-63 -424 0
-144 -424 0
63 144 424 0
-110 -181 0
-110 -425 0
-181 -425 0
110 181 425 0
-28 -237 0
-28 -426 0
-237 -426 0
28 237 426 0
-156 -427 0
-156 -428 0
-427 -428 0
156 427 428 0
-18 -176 0
-18 -380 0
-176 -380 0
18 176 380 0
-10 -15 0
-10 -307 0
-15 -307 0
10 15 307 0
-23 -53 0
-23 -429 0
-53 -429 0
23 53 429 0
-99 -197 0
-99 -421 0
-197 -421 0
99 197 421 0
-430 -431 0
-430 -432 0
-431 -432 0
430 431 432 0
-179 -433 0
-179 -434 0
-433 -434 0
179 433 434 0
-82 -170 0
-82 -435 0
-170 -435 0
82 170 435 0
-364 -427 0
-364 -436 0
-427 -436 0
364 427 436 0
-296 -371 0
-296 -392 0
-371 -392 0
296 371 392 0
-149 -437 0
-149 -438 0
-437 -438 0
149 437 438 0
-207 -280 0
-207 -439 0
-280 -439 0
207 280 439 0
-344 -440 0
-344 -441 0
-440 -441 0
344 440 441 0
-338 -412 0
-338 -442 0
-412 -442 0
338 412 442 0
-91 -150 0
-91 -443 0
-150 -443 0
91 150 443 0
-210 -426 0
-210 -444 0
-426 -444 0
210 426 444 0
-84 -402 0
-84 -416 0
-402 -416 0
84 402 416 0
-105 -433 0
-105 -445 0
-433 -445 0
105 433 445 0
-83 -222 0
-83 -442 0
-222 -442 0
83 222 442 0
-313 -443 0
-313 -446 0
-443 -446 0
313 443 446 0
-142 -440 0
-142 -447 0
-440 -447 0
142 440 447 0
-101 -256 0
-101 -271 0
-256 -271 0
101 256 271 0
-5 -406 0
-5 -447 0
-406 -447 0
5 406 447 0
-244 -384 0
-244 -448 0
-384 -448 0
244 384 448 0
-89 -258 0
-89 -449 0
-258 -449 0
89 258 449 0
-47 -145 0
-47 -369 0
-145 -369 0
47 145 369 0
-350 -401 0
-350 -430 0
-401 -430 0
350 401 430 0
-147 -198 0
-147 -246 0
-198 -246 0
147 198 246 0
-309 -363 0
-309 -375 0
-363 -375 0
309 363 375 0
-193 -213 0
-193 -434 0
-213 -434 0
193 213 434 0
-113 -301 0
-113 -429 0
-301 -429 0
113 301 429 0
-6 -240 0
-6 -335 0
-240 -335 0
6 240 335 0
-299 -368 0
-299 -450 0
-368 -450 0
299 368 450 0
-451 -452 0
-451 -453 0
-452 -453 0
451 452 453 0
-204 -409 0
-204 -413 0
-409 -413 0
204 409 413 0
-128 -311 0
-128 -341 0
-311 -341 0
128 311 341 0
-370 -417 0
-370 -451 0
-417 -451 0
370 417 451 0
-220 -393 0
-220 -454 0
-393 -454 0
220 393 454 0
-41 -394 0
-41 -403 0
-394 -403 0
41 394 403 0
-92 -455 0
-92 -456 0
-455 -456 0
92 455 456 0
-200 -428 0
-200 -457 0
-428 -457 0
200 428 457 0
-315 -395 0
-315 -452 0
-395 -452 0
315 395 452 0
-11 -151 0
-11 -396 0
-151 -396 0
11 151 396 0
-189 -453 0
-189 -458 0
-453 -458 0
189 453 458 0
-184 -297 0
-184 -385 0
-297 -385 0
184 297 385 0
-259 -376 0
-259 -459 0
-376 -459 0
259 376 459 0
-431 -455 0
-431 -460 0
-455 -460 0
431 455 460 0
-194 -273 0
-194 -365 0
-273 -365 0
194 273 365 0
-111 -318 0
-111 -389 0
-318 -389 0
111 318 389 0
-195 -331 0
-195 -461 0
-331 -461 0
195 331 461 0
-231 -459 0
-231 -462 0
-459 -462 0
231 459 462 0
-224 -327 0
-224 -415 0
-327 -415 0
224 327 415 0
-67 -202 0
-67 -463 0
-202 -463 0
67 202 463 0
-64 -345 0
-64 -464 0
-345 -464 0
64 345 464 0
-461 -465 0
-461 -466 0
-465 -466 0
461 465 466 0
-192 -229 0
-192 -418 0
-229 -418 0
192 229 418 0
-123 -388 0
-123 -445 0
-388 -445 0
123 388 445 0
-211 -381 0
-211 -458 0
-381 -458 0
211 381 458 0
-355 -382 0
-355 -467 0
-382 -467 0
355 382 467 0
-316 -411 0
-316 -467 0
-411 -467 0
316 411 467 0
-289 -410 0
-289 -462 0
-410 -462 0
289 410 462 0
-3 -450 0
-3 -468 0
-450 -468 0
3 450 468 0
-171 -261 0
-171 -437 0
-261 -437 0
171 261 437 0
-74 -366 0
-74 -456 0
-366 -456 0
74 366 456 0
-29 -242 0
-29 -357 0
-242 -357 0
29 242 357 0
-208 -422 0
-208 -469 0
-422 -469 0
208 422 469 0
-85 -292 0
-85 -470 0
-292 -470 0
85 292 470 0
-432 -444 0
-432 -471 0
-444 -471 0
432 444 471 0
-328 -470 0
-328 -472 0
-470 -472 0
328 470 472 0
-12 -226 0
-12 -423 0
-226 -423 0
12 226 423 0
-215 -353 0
-215 -473 0
-353 -473 0
215 353 473 0
-43 -358 0
-43 -386 0
-358 -386 0
43 358 386 0
-9 -35 0
-9 -300 0
-35 -300 0
9 35 300 0
-247 -425 0
-247 -471 0
-425 -471 0
247 425 471 0
-182 -319 0
-182 -348 0
-319 -348 0
182 319 348 0
-205 -248 0
-205 -465 0
-248 -465 0
205 248 465 0
-50 -349 0
-50 -474 0
-349 -474 0
50 349 474 0
-54 -377 0
-54 -435 0
-377 -435 0
54 377 435 0
-225 -383 0
-225 -475 0
-383 -475 0
225 383 475 0
-38 -131 0
-38 -441 0
-131 -441 0
38 131 441 0
-322 -346 0
-322 -397 0
-346 -397 0
322 346 397 0
-323 -420 0
-323 -476 0
-420 -476 0
323 420 476 0
-86 -251 0
-86 -405 0
-251 -405 0
86 251 405 0
-245 -290 0
-245 -424 0
-290 -424 0
245 290 424 0
-343 -448 0
-343 -477 0
-448 -477 0
343 448 477 0
-302 -400 0
-302 -473 0
-400 -473 0
302 400 473 0
-283 -466 0
-283 -476 0
-466 -476 0
283 466 476 0
-96 -291 0
-96 -414 0
-291 -414 0
96 291 414 0
-55 -281 0
-55 -472 0
-281 -472 0
55 281 472 0
-238 -351 0
-238 -379 0
-351 -379 0
238 351 379 0
-167 -436 0
-167 -478 0
-436 -478 0
167 436 478 0
-44 -114 0
-44 -305 0
-114 -305 0
44 114 305 0
-102 -263 0
-102 -477 0
-263 -477 0
102 263 477 0
-321 -390 0
-321 -468 0
-390 -468 0
321 390 468 0
-325 -438 0
-325 -479 0
-438 -479 0
325 438 479 0
-419 -439 0
-419 -463 0
-439 -463 0
419 439 463 0
-235 -475 0
-235 -478 0
-475 -478 0
235 475 478 0
-314 -373 0
-314 -387 0
-373 -387 0
314 373 387 0
-61 -460 0
-61 -474 0
-460 -474 0
61 460 474 0
-152 -449 0
-152 -480 0
-449 -480 0
152 449 480 0
-80 -288 0
-80 -407 0
-288 -407 0
80 288 407 0
-269 -479 0
-269 -480 0
-479 -480 0
269 479 480 0
-21 -278 0
-21 -391 0
-278 -391 0
21 278 391 0
-153 -367 0
-153 -372 0
-367 -372 0
153 367 372 0
-408 -464 0
-408 -469 0
-464 -469 0
408 464 469 0
-58 -404 0
-58 -454 0
-404 -454 0
58 404 454 0
-361 -446 0
-361 -457 0
-446 -457 0
361 446 457 0
