c description: Perfect Matching Principle on random 3-regular graph on 1280 verices
c generator: CNFgen (0.9.6)
c copyright: (C) 2012-2026 Massimo Lauria <massimo.lauria@uniroma1.it>
c url: https://massimolauria.net/cnfgen
c command line: cnfgen matching gnd 1280 3
c
p cnf 1920 5120
-1 -2 0
-1 -3 0
-2 -3 0
1 2 3 0
-4 -5 0
-4 -6 0
-5 -6 0
4 5 6 0
-7 -8 0
-7 -9 0
-8 -9 0
7 8 9 0
-10 -11 0
-10 -12 0
-11 -12 0
10 11 12 0
-13 -14 0
-13 -15 0
-14 -15 0
13 14 15 0
-16 -17 0
-16 -18 0
-17 -18 0
16 17 18 0
-19 -20 0
-19 -21 0
-20 -21 0
19 20 21 0
-22 -23 0
-22 -24 0
-23 -24 0
22 23 24 0
-25 -26 0
-25 -27 0
-26 -27 0
25 26 27 0
-28 -29 0
-28 -30 0
-29 -30 0
28 29 30 0
-31 -32 0
-31 -33 0
-32 -33 0
31 32 33 0
-34 -35 0
-34 -36 0
-35 -36 0
34 35 36 0
-37 -38 0
-37 -39 0
-38 -39 0
37 38 39 0
-40 -41 0
-40 -42 0
-41 -42 0
40 41 42 0
-43 -44 0
-43 -45 0
-44 -45 0
43 44 45 0
-16 -46 0
-16 -47 0
-46 -47 0
16 46 47 0
-48 -49 0
-48 -50 0
-49 -50 0
48 49 50 0
-51 -52 0
-51 -53 0
-52 -53 0
51 52 53 0
-54 -55 0
-54 -56 0
-55 -56 0
54 55 56 0
-57 -58 0
-57 -59 0
-58 -59 0
57 58 59 0
-60 -61 0
-60 -62 0
-61 -62 0
60 61 62 0
-63 -64 0
-63 -65 0
-64 -65 0
63 64 65 0
-66 -67 0
-66 -68 0
-67 -68 0
66 67 68 0
-69 -70 0
-69 -71 0
-70 -71 0
69 70 71 0
-72 -73 0
-72 -74 0
-73 -74 0
72 73 74 0
-75 -76 0
-75 -77 0
-76 -77 0
75 76 77 0
-78 -79 0
-78 -80 0
-79 -80 0
78 79 80 0
-22 -81 0
-22 -82 0
-81 -82 0
22 81 82 0
-83 -84 0
-83 -85 0
-84 -85 0
83 84 85 0
-86 -87 0
-86 -88 0
-87 -88 0
86 87 88 0
-89 -90 0
-89 -91 0
-90 -91 0
89 90 91 0
-92 -93 0
-92 -94 0
-93 -94 0
92 93 94 0
-95 -96 0
-95 -97 0
-96 -97 0
95 96 97 0
-98 -99 0
-98 -100 0
-99 -100 0
98 99 100 0
-101 -102 0
-101 -103 0
-102 -103 0
101 102 103 0
-104 -105 0
-104 -106 0
-105 -106 0
104 105 106 0
-107 -108 0
-107 -109 0
-108 -109 0
107 108 109 0
-110 -111 0
-110 -112 0
-111 -112 0
110 111 112 0
-113 -114 0
-113 -115 0
-114 -115 0
113 114 115 0
-116 -117 0
-116 -118 0
-117 -118 0
116 117 118 0
-119 -120 0
-119 -121 0
-120 -121 0
119 120 121 0
-95 -122 0
-95 -123 0
-122 -123 0
95 122 123 0
-124 -125 0
-124 -126 0
-125 -126 0
124 125 126 0
-127 -128 0
-127 -129 0
-128 -129 0
127 128 129 0
-130 -131 0
-130 -132 0
-131 -132 0
130 131 132 0
-133 -134 0
-133 -135 0
-134 -135 0
133 134 135 0
-136 -137 0
-136 -138 0
-137 -138 0
136 137 138 0
-139 -140 0
-139 -141 0
-140 -141 0
139 140 141 0
-34 -142 0
-34 -143 0
-142 -143 0
34 142 143 0
-144 -145 0
-144 -146 0
-145 -146 0
144 145 146 0
-147 -148 0
-147 -149 0
-148 -149 0
147 148 149 0
-150 -151 0
-150 -152 0
-151 -152 0
150 151 152 0
-153 -154 0
-153 -155 0
-154 -155 0
153 154 155 0
-156 -157 0
-156 -158 0
-157 -158 0
156 157 158 0
-159 -160 0
-159 -161 0
-160 -161 0
159 160 161 0
-162 -163 0
-162 -164 0
-163 -164 0
162 163 164 0
-153 -165 0
-153 -166 0
-165 -166 0
153 165 166 0
-54 -167 0
-54 -168 0
-167 -168 0
54 167 168 0
-169 -170 0
-169 -171 0
-170 -171 0
169 170 171 0
-172 -173 0
-172 -174 0
-173 -174 0
172 173 174 0
-175 -176 0
-175 -177 0
-176 -177 0
175 176 177 0
-178 -179 0
-178 -180 0
-179 -180 0
178 179 180 0
-181 -182 0
-181 -183 0
-182 -183 0
181 182 183 0
-184 -185 0
-184 -186 0
-185 -186 0
184 185 186 0
-75 -187 0
-75 -188 0
-187 -188 0
75 187 188 0
-189 -190 0
-189 -191 0
-190 -191 0
189 190 191 0
-192 -193 0
-192 -194 0
-193 -194 0
192 193 194 0
-178 -195 0
-178 -196 0
-195 -196 0
178 195 196 0
-197 -198 0
-197 -199 0
-198 -199 0
197 198 199 0
-200 -201 0
-200 -202 0
-201 -202 0
200 201 202 0
-203 -204 0
-203 -205 0
-204 -205 0
203 204 205 0
-206 -207 0
-206 -208 0
-207 -208 0
206 207 208 0
-1 -209 0
-1 -210 0
-209 -210 0
1 209 210 0
-211 -212 0
-211 -213 0
-212 -213 0
211 212 213 0
-66 -214 0
-66 -215 0
-214 -215 0
66 214 215 0
-216 -217 0
-216 -218 0
-217 -218 0
216 217 218 0
-219 -220 0
-219 -221 0
-220 -221 0
219 220 221 0
-222 -223 0
-222 -224 0
-223 -224 0
222 223 224 0
-225 -226 0
-225 -227 0
-226 -227 0
225 226 227 0
-228 -229 0
-228 -230 0
-229 -230 0
228 229 230 0
-40 -231 0
-40 -232 0
-231 -232 0
40 231 232 0
-233 -234 0
-233 -235 0
-234 -235 0
233 234 235 0
-236 -237 0
-236 -238 0
-237 -238 0
236 237 238 0
-239 -240 0
-239 -241 0
-240 -241 0
239 240 241 0
-242 -243 0
-242 -244 0
-243 -244 0
242 243 244 0
-245 -246 0
-245 -247 0
-246 -247 0
245 246 247 0
-248 -249 0
-248 -250 0
-249 -250 0
248 249 250 0
-251 -252 0
-251 -253 0
-252 -253 0
251 252 253 0
-254 -255 0
-254 -256 0
-255 -256 0
254 255 256 0
-257 -258 0
-257 -259 0
-258 -259 0
257 258 259 0
-260 -261 0
-260 -262 0
-261 -262 0
260 261 262 0
-233 -263 0
-233 -264 0
-263 -264 0
233 263 264 0
-265 -266 0
-265 -267 0
-266 -267 0
265 266 267 0
-268 -269 0
-268 -270 0
-269 -270 0
268 269 270 0
-83 -271 0
-83 -272 0
-271 -272 0
83 271 272 0
-273 -274 0
-273 -275 0
-274 -275 0
273 274 275 0
-110 -276 0
-110 -277 0
-276 -277 0
110 276 277 0
-278 -279 0
-278 -280 0
-279 -280 0
278 279 280 0
-281 -282 0
-281 -283 0
-282 -283 0
281 282 283 0
-284 -285 0
-284 -286 0
-285 -286 0
284 285 286 0
-287 -288 0
-287 -289 0
-288 -289 0
287 288 289 0
-290 -291 0
-290 -292 0
-291 -292 0
290 291 292 0
-225 -293 0
-225 -294 0
-293 -294 0
225 293 294 0
-295 -296 0
-295 -297 0
-296 -297 0
295 296 297 0
-298 -299 0
-298 -300 0
-299 -300 0
298 299 300 0
-301 -302 0
-301 -303 0
-302 -303 0
301 302 303 0
-304 -305 0
-304 -306 0
-305 -306 0
304 305 306 0
-86 -268 0
-86 -307 0
-268 -307 0
86 268 307 0
-195 -308 0
-195 -309 0
-308 -309 0
195 308 309 0
-310 -311 0
-310 -312 0
-311 -312 0
310 311 312 0
-313 -314 0
-313 -315 0
-314 -315 0
313 314 315 0
-316 -317 0
-316 -318 0
-317 -318 0
316 317 318 0
-319 -320 0
-319 -321 0
-320 -321 0
319 320 321 0
-322 -323 0
-322 -324 0
-323 -324 0
322 323 324 0
-325 -326 0
-325 -327 0
-326 -327 0
325 326 327 0
-43 -328 0
-43 -329 0
-328 -329 0
43 328 329 0
-330 -331 0
-330 -332 0
-331 -332 0
330 331 332 0
-333 -334 0
-333 -335 0
-334 -335 0
333 334 335 0
-336 -337 0
-336 -338 0
-337 -338 0
336 337 338 0
-13 -339 0
-13 -340 0
-339 -340 0
13 339 340 0
-341 -342 0
-341 -343 0
-342 -343 0
341 342 343 0
-344 -345 0
-344 -346 0
-345 -346 0
344 345 346 0
-78 -347 0
-78 -348 0
-347 -348 0
78 347 348 0
-150 -349 0
-150 -350 0
-349 -350 0
150 349 350 0
-351 -352 0
-351 -353 0
-352 -353 0
351 352 353 0
-354 -355 0
-354 -356 0
-355 -356 0
354 355 356 0
-357 -358 0
-357 -359 0
-358 -359 0
357 358 359 0
-360 -361 0
-360 -362 0
-361 -362 0
360 361 362 0
-363 -364 0
-363 -365 0
-364 -365 0
363 364 365 0
-366 -367 0
-366 -368 0
-367 -368 0
366 367 368 0
-369 -370 0
-369 -371 0
-370 -371 0
369 370 371 0
-372 -373 0
-372 -374 0
-373 -374 0
372 373 374 0
-375 -376 0
-375 -377 0
-376 -377 0
375 376 377 0
-378 -379 0
-378 -380 0
-379 -380 0
378 379 380 0
-316 -381 0
-316 -382 0
-381 -382 0
316 381 382 0
-383 -384 0
-383 -385 0
-384 -385 0
383 384 385 0
-98 -386 0
-98 -387 0
-386 -387 0
98 386 387 0
-388 -389 0
-388 -390 0
-389 -390 0
388 389 390 0
-391 -392 0
-391 -393 0
-392 -393 0
391 392 393 0
-394 -395 0
-394 -396 0
-395 -396 0
394 395 396 0
-397 -398 0
-397 -399 0
-398 -399 0
397 398 399 0
-400 -401 0
-400 -402 0
-401 -402 0
400 401 402 0
-403 -404 0
-403 -405 0
-404 -405 0
403 404 405 0
-406 -407 0
-406 -408 0
-407 -408 0
406 407 408 0
-409 -410 0
-409 -411 0
-410 -411 0
409 410 411 0
-412 -413 0
-412 -414 0
-413 -414 0
412 413 414 0
-165 -415 0
-165 -416 0
-415 -416 0
165 415 416 0
-417 -418 0
-417 -419 0
-418 -419 0
417 418 419 0
-420 -421 0
-420 -422 0
-421 -422 0
420 421 422 0
-412 -423 0
-412 -424 0
-423 -424 0
412 423 424 0
-347 -425 0
-347 -426 0
-425 -426 0
347 425 426 0
-427 -428 0
-427 -429 0
-428 -429 0
427 428 429 0
-430 -431 0
-430 -432 0
-431 -432 0
430 431 432 0
-433 -434 0
-433 -435 0
-434 -435 0
433 434 435 0
-436 -437 0
-436 -438 0
-437 -438 0
436 437 438 0
-439 -440 0
-439 -441 0
-440 -441 0
439 440 441 0
-442 -443 0
-442 -444 0
-443 -444 0
442 443 444 0
-41 -445 0
-41 -446 0
-445 -446 0
41 445 446 0
-447 -448 0
-447 -449 0
-448 -449 0
447 448 449 0
-450 -451 0
-450 -452 0
-451 -452 0
450 451 452 0
-228 -453 0
-228 -454 0
-453 -454 0
228 453 454 0
-455 -456 0
-455 -457 0
-456 -457 0
455 456 457 0
-458 -459 0
-458 -460 0
-459 -460 0
458 459 460 0
-461 -462 0
-461 -463 0
-462 -463 0
461 462 463 0
-464 -465 0
-464 -466 0
-465 -466 0
464 465 466 0
-467 -468 0
-467 -469 0
-468 -469 0
467 468 469 0
-470 -471 0
-470 -472 0
-471 -472 0
470 471 472 0
-200 -473 0
-200 -474 0
-473 -474 0
200 473 474 0
-147 -475 0
-147 -476 0
-475 -476 0
147 475 476 0
-477 -478 0
-477 -479 0
-478 -479 0
477 478 479 0
-63 -480 0
-63 -481 0
-480 -481 0
63 480 481 0
-386 -482 0
-386 -483 0
-482 -483 0
386 482 483 0
-484 -485 0
-484 -486 0
-485 -486 0
484 485 486 0
-211 -487 0
-211 -488 0
-487 -488 0
211 487 488 0
-455 -489 0
-455 -490 0
-489 -490 0
455 489 490 0
-48 -491 0
-48 -492 0
-491 -492 0
48 491 492 0
-493 -494 0
-493 -495 0
-494 -495 0
493 494 495 0
-496 -497 0
-496 -498 0
-497 -498 0
496 497 498 0
-499 -500 0
-499 -501 0
-500 -501 0
499 500 501 0
-502 -503 0
-502 -504 0
-503 -504 0
502 503 504 0
-10 -273 0
-10 -505 0
-273 -505 0
10 273 505 0
-506 -507 0
-506 -508 0
-507 -508 0
506 507 508 0
-391 -509 0
-391 -510 0
-509 -510 0
391 509 510 0
-4 -187 0
-4 -511 0
-187 -511 0
4 187 511 0
-139 -512 0
-139 -513 0
-512 -513 0
139 512 513 0
-514 -515 0
-514 -516 0
-515 -516 0
514 515 516 0
-92 -517 0
-92 -518 0
-517 -518 0
92 517 518 0
-366 -519 0
-366 -520 0
-519 -520 0
366 519 520 0
-521 -522 0
-521 -523 0
-522 -523 0
521 522 523 0
-524 -525 0
-524 -526 0
-525 -526 0
524 525 526 0
-527 -528 0
-527 -529 0
-528 -529 0
527 528 529 0
-530 -531 0
-530 -532 0
-531 -532 0
530 531 532 0
-533 -534 0
-533 -535 0
-534 -535 0
533 534 535 0
-514 -536 0
-514 -537 0
-536 -537 0
514 536 537 0
-57 -538 0
-57 -539 0
-538 -539 0
57 538 539 0
-203 -477 0
-203 -540 0
-477 -540 0
203 477 540 0
-541 -542 0
-541 -543 0
-542 -543 0
541 542 543 0
-544 -545 0
-544 -546 0
-545 -546 0
544 545 546 0
-99 -502 0
-99 -547 0
-502 -547 0
99 502 547 0
-172 -548 0
-172 -549 0
-548 -549 0
172 548 549 0
-369 -550 0
-369 -551 0
-550 -551 0
369 550 551 0
-552 -553 0
-552 -554 0
-553 -554 0
552 553 554 0
-555 -556 0
-555 -557 0
-556 -557 0
555 556 557 0
-558 -559 0
-558 -560 0
-559 -560 0
558 559 560 0
-181 -561 0
-181 -562 0
-561 -562 0
181 561 562 0
-269 -563 0
-269 -564 0
-563 -564 0
269 563 564 0
-565 -566 0
-565 -567 0
-566 -567 0
565 566 567 0
-568 -569 0
-568 -570 0
-569 -570 0
568 569 570 0
-420 -571 0
-420 -572 0
-571 -572 0
420 571 572 0
-573 -574 0
-573 -575 0
-574 -575 0
573 574 575 0
-470 -552 0
-470 -576 0
-552 -576 0
470 552 576 0
-301 -577 0
-301 -578 0
-577 -578 0
301 577 578 0
-579 -580 0
-579 -581 0
-580 -581 0
579 580 581 0
-582 -583 0
-582 -584 0
-583 -584 0
582 583 584 0
-239 -585 0
-239 -586 0
-585 -586 0
239 585 586 0
-587 -588 0
-587 -589 0
-588 -589 0
587 588 589 0
-590 -591 0
-590 -592 0
-591 -592 0
590 591 592 0
-593 -594 0
-593 -595 0
-594 -595 0
593 594 595 0
-596 -597 0
-596 -598 0
-597 -598 0
596 597 598 0
-599 -600 0
-599 -601 0
-600 -601 0
599 600 601 0
-602 -603 0
-602 -604 0
-603 -604 0
602 603 604 0
-521 -605 0
-521 -606 0
-605 -606 0
521 605 606 0
-478 -607 0
-478 -608 0
-607 -608 0
478 607 608 0
-101 -522 0
-101 -609 0
-522 -609 0
101 522 609 0
-610 -611 0
-610 -612 0
-611 -612 0
610 611 612 0
-613 -614 0
-613 -615 0
-614 -615 0
613 614 615 0
-616 -617 0
-616 -618 0
-617 -618 0
616 617 618 0
-619 -620 0
-619 -621 0
-620 -621 0
619 620 621 0
-622 -623 0
-622 -624 0
-623 -624 0
622 623 624 0
-625 -626 0
-625 -627 0
-626 -627 0
625 626 627 0
-582 -628 0
-582 -629 0
-628 -629 0
582 628 629 0
-442 -630 0
-442 -631 0
-630 -631 0
442 630 631 0
-632 -633 0
-632 -634 0
-633 -634 0
632 633 634 0
-182 -547 0
-182 -635 0
-547 -635 0
182 547 635 0
-493 -636 0
-493 -637 0
-636 -637 0
493 636 637 0
-484 -638 0
-484 -639 0
-638 -639 0
484 638 639 0
-619 -640 0
-619 -641 0
-640 -641 0
619 640 641 0
-642 -643 0
-642 -644 0
-643 -644 0
642 643 644 0
-645 -646 0
-645 -647 0
-646 -647 0
645 646 647 0
-293 -458 0
-293 -544 0
-458 -544 0
293 458 544 0
-436 -506 0
-436 -648 0
-506 -648 0
436 506 648 0
-124 -649 0
-124 -650 0
-649 -650 0
124 649 650 0
-651 -652 0
-651 -653 0
-652 -653 0
651 652 653 0
-89 -111 0
-89 -654 0
-111 -654 0
89 111 654 0
-655 -656 0
-655 -657 0
-656 -657 0
655 656 657 0
-658 -659 0
-658 -660 0
-659 -660 0
658 659 660 0
-222 -661 0
-222 -662 0
-661 -662 0
222 661 662 0
-663 -664 0
-663 -665 0
-664 -665 0
663 664 665 0
-344 -666 0
-344 -667 0
-666 -667 0
344 666 667 0
-668 -669 0
-668 -670 0
-669 -670 0
668 669 670 0
-671 -672 0
-671 -673 0
-672 -673 0
671 672 673 0
-674 -675 0
-674 -676 0
-675 -676 0
674 675 676 0
-37 -677 0
-37 -678 0
-677 -678 0
37 677 678 0
-136 -679 0
-136 -680 0
-679 -680 0
136 679 680 0
-681 -682 0
-681 -683 0
-682 -683 0
681 682 683 0
-383 -684 0
-383 -685 0
-684 -685 0
383 684 685 0
-686 -687 0
-686 -688 0
-687 -688 0
686 687 688 0
-491 -642 0
-491 -689 0
-642 -689 0
491 642 689 0
-585 -690 0
-585 -691 0
-690 -691 0
585 690 691 0
-487 -692 0
-487 -693 0
-692 -693 0
487 692 693 0
-694 -695 0
-694 -696 0
-695 -696 0
694 695 696 0
-697 -698 0
-697 -699 0
-698 -699 0
697 698 699 0
-159 -700 0
-159 -701 0
-700 -701 0
159 700 701 0
-360 -702 0
-360 -703 0
-702 -703 0
360 702 703 0
-651 -704 0
-651 -705 0
-704 -705 0
651 704 705 0
-706 -707 0
-706 -708 0
-707 -708 0
706 707 708 0
-648 -709 0
-648 -710 0
-709 -710 0
648 709 710 0
-704 -711 0
-704 -712 0
-711 -712 0
704 711 712 0
-577 -713 0
-577 -714 0
-713 -714 0
577 713 714 0
-715 -716 0
-715 -717 0
-716 -717 0
715 716 717 0
-718 -719 0
-718 -720 0
-719 -720 0
718 719 720 0
-721 -722 0
-721 -723 0
-722 -723 0
721 722 723 0
-724 -725 0
-724 -726 0
-725 -726 0
724 725 726 0
-727 -728 0
-727 -729 0
-728 -729 0
727 728 729 0
-730 -731 0
-730 -732 0
-731 -732 0
730 731 732 0
-400 -461 0
-400 -733 0
-461 -733 0
400 461 733 0
-734 -735 0
-734 -736 0
-735 -736 0
734 735 736 0
-737 -738 0
-737 -739 0
-738 -739 0
737 738 739 0
-245 -740 0
-245 -741 0
-740 -741 0
245 740 741 0
-742 -743 0
-742 -744 0
-743 -744 0
742 743 744 0
-745 -746 0
-745 -747 0
-746 -747 0
745 746 747 0
-748 -749 0
-748 -750 0
-749 -750 0
748 749 750 0
-674 -681 0
-674 -751 0
-681 -751 0
674 681 751 0
-616 -737 0
-616 -752 0
-737 -752 0
616 737 752 0
-403 -590 0
-403 -753 0
-590 -753 0
403 590 753 0
-754 -755 0
-754 -756 0
-755 -756 0
754 755 756 0
-757 -758 0
-757 -759 0
-758 -759 0
757 758 759 0
-760 -761 0
-760 -762 0
-761 -762 0
760 761 762 0
-763 -764 0
-763 -765 0
-764 -765 0
763 764 765 0
-766 -767 0
-766 -768 0
-767 -768 0
766 767 768 0
-769 -770 0
-769 -771 0
-770 -771 0
769 770 771 0
-772 -773 0
-772 -774 0
-773 -774 0
772 773 774 0
-775 -776 0
-775 -777 0
-776 -777 0
775 776 777 0
-778 -779 0
-778 -780 0
-779 -780 0
778 779 780 0
-781 -782 0
-781 -783 0
-782 -783 0
781 782 783 0
-784 -785 0
-784 -786 0
-785 -786 0
784 785 786 0
-388 -787 0
-388 -788 0
-787 -788 0
388 787 788 0
-789 -790 0
-789 -791 0
-790 -791 0
789 790 791 0
-784 -792 0
-784 -793 0
-792 -793 0
784 792 793 0
-794 -795 0
-794 -796 0
-795 -796 0
794 795 796 0
-287 -797 0
-287 -798 0
-797 -798 0
287 797 798 0
-799 -800 0
-799 -801 0
-800 -801 0
799 800 801 0
-802 -803 0
-802 -804 0
-803 -804 0
802 803 804 0
-69 -805 0
-69 -806 0
-805 -806 0
69 805 806 0
-772 -807 0
-772 -808 0
-807 -808 0
772 807 808 0
-67 -421 0
-67 -809 0
-421 -809 0
67 421 809 0
-810 -811 0
-810 -812 0
-811 -812 0
810 811 812 0
-64 -813 0
-64 -814 0
-813 -814 0
64 813 814 0
-445 -815 0
-445 -816 0
-815 -816 0
445 815 816 0
-519 -817 0
-519 -818 0
-817 -818 0
519 817 818 0
-819 -820 0
-819 -821 0
-820 -821 0
819 820 821 0
-622 -822 0
-622 -823 0
-822 -823 0
622 822 823 0
-533 -824 0
-533 -825 0
-824 -825 0
533 824 825 0
-826 -827 0
-826 -828 0
-827 -828 0
826 827 828 0
-829 -830 0
-829 -831 0
-830 -831 0
829 830 831 0
-832 -833 0
-832 -834 0
-833 -834 0
832 833 834 0
-835 -836 0
-835 -837 0
-836 -837 0
835 836 837 0
-617 -838 0
-617 -839 0
-838 -839 0
617 838 839 0
-162 -840 0
-162 -841 0
-840 -841 0
162 840 841 0
-93 -842 0
-93 -843 0
-842 -843 0
93 842 843 0
-844 -845 0
-844 -846 0
-845 -846 0
844 845 846 0
-242 -847 0
-242 -848 0
-847 -848 0
242 847 848 0
-849 -850 0
-849 -851 0
-850 -851 0
849 850 851 0
-852 -853 0
-852 -854 0
-853 -854 0
852 853 854 0
-19 -855 0
-19 -856 0
-855 -856 0
19 855 856 0
-857 -858 0
-857 -859 0
-858 -859 0
857 858 859 0
-310 -860 0
-310 -861 0
-860 -861 0
310 860 861 0
-862 -863 0
-862 -864 0
-863 -864 0
862 863 864 0
-602 -865 0
-602 -866 0
-865 -866 0
602 865 866 0
-563 -813 0
-563 -867 0
-813 -867 0
563 813 867 0
-868 -869 0
-868 -870 0
-869 -870 0
868 869 870 0
-871 -872 0
-871 -873 0
-872 -873 0
871 872 873 0
-802 -874 0
-802 -875 0
-874 -875 0
802 874 875 0
-605 -794 0
-605 -876 0
-794 -876 0
605 794 876 0
-877 -878 0
-877 -879 0
-878 -879 0
877 878 879 0
-880 -881 0
-880 -882 0
-881 -882 0
880 881 882 0
-883 -884 0
-883 -885 0
-884 -885 0
883 884 885 0
-541 -886 0
-541 -887 0
-886 -887 0
541 886 887 0
-163 -888 0
-163 -889 0
-888 -889 0
163 888 889 0
-890 -891 0
-890 -892 0
-891 -892 0
890 891 892 0
-433 -578 0
-433 -893 0
-578 -893 0
433 578 893 0
-894 -895 0
-894 -896 0
-895 -896 0
894 895 896 0
-87 -243 0
-87 -897 0
-243 -897 0
87 243 897 0
-855 -898 0
-855 -899 0
-898 -899 0
855 898 899 0
-372 -677 0
-372 -900 0
-677 -900 0
372 677 900 0
-507 -901 0
-507 -902 0
-901 -902 0
507 901 902 0
-447 -903 0
-447 -904 0
-903 -904 0
447 903 904 0
-905 -906 0
-905 -907 0
-906 -907 0
905 906 907 0
-206 -908 0
-206 -909 0
-908 -909 0
206 908 909 0
-910 -911 0
-910 -912 0
-911 -912 0
910 911 912 0
-913 -914 0
-913 -915 0
-914 -915 0
913 914 915 0
-31 -847 0
-31 -916 0
-847 -916 0
31 847 916 0
-207 -721 0
-207 -917 0
-721 -917 0
207 721 917 0
-730 -918 0
-730 -919 0
-918 -919 0
730 918 919 0
-920 -921 0
-920 -922 0
-921 -922 0
920 921 922 0
-923 -924 0
-923 -925 0
-924 -925 0
923 924 925 0
-281 -926 0
-281 -927 0
-926 -927 0
281 926 927 0
-928 -929 0
-928 -930 0
-929 -930 0
928 929 930 0
-931 -932 0
-931 -933 0
-932 -933 0
931 932 933 0
-70 -246 0
-70 -766 0
-246 -766 0
70 246 766 0
-934 -935 0
-934 -936 0
-935 -936 0
934 935 936 0
-536 -937 0
-536 -938 0
-937 -938 0
536 937 938 0
-684 -939 0
-684 -940 0
-939 -940 0
684 939 940 0
-625 -941 0
-625 -942 0
-941 -942 0
625 941 942 0
-308 -943 0
-308 -944 0
-943 -944 0
308 943 944 0
-945 -946 0
-945 -947 0
-946 -947 0
945 946 947 0
-116 -948 0
-116 -949 0
-948 -949 0
116 948 949 0
-425 -950 0
-425 -951 0
-950 -951 0
425 950 951 0
-952 -953 0
-952 -954 0
-953 -954 0
952 953 954 0
-204 -955 0
-204 -956 0
-955 -956 0
204 955 956 0
-107 -957 0
-107 -958 0
-957 -958 0
107 957 958 0
-959 -960 0
-959 -961 0
-960 -961 0
959 960 961 0
-295 -890 0
-295 -962 0
-890 -962 0
295 890 962 0
-282 -724 0
-282 -963 0
-724 -963 0
282 724 963 0
-113 -964 0
-113 -965 0
-964 -965 0
113 964 965 0
-156 -718 0
-156 -966 0
-718 -966 0
156 718 966 0
-587 -967 0
-587 -968 0
-967 -968 0
587 967 968 0
-969 -970 0
-969 -971 0
-970 -971 0
969 970 971 0
-596 -972 0
-596 -973 0
-972 -973 0
596 972 973 0
-763 -974 0
-763 -975 0
-974 -975 0
763 974 975 0
-499 -568 0
-499 -928 0
-568 -928 0
499 568 928 0
-645 -976 0
-645 -977 0
-976 -977 0
645 976 977 0
-597 -978 0
-597 -979 0
-978 -979 0
597 978 979 0
-980 -981 0
-980 -982 0
-981 -982 0
980 981 982 0
-144 -184 0
-144 -983 0
-184 -983 0
144 184 983 0
-984 -985 0
-984 -986 0
-985 -986 0
984 985 986 0
-140 -987 0
-140 -988 0
-987 -988 0
140 987 988 0
-534 -769 0
-534 -989 0
-769 -989 0
534 769 989 0
-14 -668 0
-14 -990 0
-668 -990 0
14 668 990 0
-117 -991 0
-117 -992 0
-991 -992 0
117 991 992 0
-754 -993 0
-754 -994 0
-993 -994 0
754 993 994 0
-995 -996 0
-995 -997 0
-996 -997 0
995 996 997 0
-838 -898 0
-838 -998 0
-898 -998 0
838 898 998 0
-537 -903 0
-537 -999 0
-903 -999 0
537 903 999 0
-278 -450 0
-278 -1000 0
-450 -1000 0
278 450 1000 0
-119 -579 0
-119 -931 0
-579 -931 0
119 579 931 0
-25 -1001 0
-25 -1002 0
-1001 -1002 0
25 1001 1002 0
-1003 -1004 0
-1003 -1005 0
-1004 -1005 0
1003 1004 1005 0
-114 -422 0
-114 -1006 0
-422 -1006 0
114 422 1006 0
-803 -871 0
-803 -1007 0
-871 -1007 0
803 871 1007 0
-505 -527 0
-505 -1008 0
-527 -1008 0
505 527 1008 0
-319 -558 0
-319 -1009 0
-558 -1009 0
319 558 1009 0
-44 -1010 0
-44 -1011 0
-1010 -1011 0
44 1010 1011 0
-404 -542 0
-404 -1012 0
-542 -1012 0
404 542 1012 0
-920 -1013 0
-920 -1014 0
-1013 -1014 0
920 1013 1014 0
-1015 -1016 0
-1015 -1017 0
-1016 -1017 0
1015 1016 1017 0
-430 -1018 0
-430 -1019 0
-1018 -1019 0
430 1018 1019 0
-1020 -1021 0
-1020 -1022 0
-1021 -1022 0
1020 1021 1022 0
-79 -1023 0
-79 -1024 0
-1023 -1024 0
79 1023 1024 0
-1025 -1026 0
-1025 -1027 0
-1026 -1027 0
1025 1026 1027 0
-328 -1028 0
-328 -1029 0
-1028 -1029 0
328 1028 1029 0
-832 -1030 0
-832 -1031 0
-1030 -1031 0
832 1030 1031 0
-201 -1032 0
-201 -1033 0
-1032 -1033 0
201 1032 1033 0
-598 -1034 0
-598 -1035 0
-1034 -1035 0
598 1034 1035 0
-745 -1036 0
-745 -1037 0
-1036 -1037 0
745 1036 1037 0
-1038 -1039 0
-1038 -1040 0
-1039 -1040 0
1038 1039 1040 0
-1041 -1042 0
-1041 -1043 0
-1042 -1043 0
1041 1042 1043 0
-1044 -1045 0
-1044 -1046 0
-1045 -1046 0
1044 1045 1046 0
-1047 -1048 0
-1047 -1049 0
-1048 -1049 0
1047 1048 1049 0
-751 -1050 0
-751 -1051 0
-1050 -1051 0
751 1050 1051 0
-1052 -1053 0
-1052 -1054 0
-1053 -1054 0
1052 1053 1054 0
-439 -1055 0
-439 -1056 0
-1055 -1056 0
439 1055 1056 0
-38 -1057 0
-38 -1058 0
-1057 -1058 0
38 1057 1058 0
-580 -719 0
-580 -1059 0
-719 -1059 0
580 719 1059 0
-969 -1060 0
-969 -1061 0
-1060 -1061 0
969 1060 1061 0
-226 -564 0
-226 -989 0
-564 -989 0
226 564 989 0
-561 -819 0
-561 -1034 0
-819 -1034 0
561 819 1034 0
-620 -833 0
-620 -1062 0
-833 -1062 0
620 833 1062 0
-302 -984 0
-302 -1063 0
-984 -1063 0
302 984 1063 0
-706 -789 0
-706 -1064 0
-789 -1064 0
706 789 1064 0
-1065 -1066 0
-1065 -1067 0
-1066 -1067 0
1065 1066 1067 0
-826 -1068 0
-826 -1069 0
-1068 -1069 0
826 1068 1069 0
-690 -1070 0
-690 -1071 0
-1070 -1071 0
690 1070 1071 0
-1072 -1073 0
-1072 -1074 0
-1073 -1074 0
1072 1073 1074 0
-950 -1075 0
-950 -1076 0
-1075 -1076 0
950 1075 1076 0
-1077 -1078 0
-1077 -1079 0
-1078 -1079 0
1077 1078 1079 0
-313 -1080 0
-313 -1081 0
-1080 -1081 0
313 1080 1081 0
-797 -1082 0
-797 -1083 0
-1082 -1083 0
797 1082 1083 0
-1084 -1085 0
-1084 -1086 0
-1085 -1086 0
1084 1085 1086 0
-381 -1055 0
-381 -1087 0
-1055 -1087 0
381 1055 1087 0
-702 -1088 0
-702 -1089 0
-1088 -1089 0
702 1088 1089 0
-1090 -1091 0
-1090 -1092 0
-1091 -1092 0
1090 1091 1092 0
-917 -1093 0
-917 -1094 0
-1093 -1094 0
917 1093 1094 0
-1095 -1096 0
-1095 -1097 0
-1096 -1097 0
1095 1096 1097 0
-770 -1098 0
-770 -1099 0
-1098 -1099 0
770 1098 1099 0
-475 -722 0
-475 -1100 0
-722 -1100 0
475 722 1100 0
-934 -1101 0
-934 -1102 0
-1101 -1102 0
934 1101 1102 0
-715 -1103 0
-715 -1104 0
-1103 -1104 0
715 1103 1104 0
-1105 -1106 0
-1105 -1107 0
-1106 -1107 0
1105 1106 1107 0
-972 -1108 0
-972 -1109 0
-1108 -1109 0
972 1108 1109 0
-219 -1110 0
-219 -1111 0
-1110 -1111 0
219 1110 1111 0
-392 -1112 0
-392 -1113 0
-1112 -1113 0
392 1112 1113 0
-548 -1114 0
-548 -1115 0
-1114 -1115 0
548 1114 1115 0
-32 -482 0
-32 -1116 0
-482 -1116 0
32 482 1116 0
-148 -1101 0
-148 -1117 0
-1101 -1117 0
148 1101 1117 0
-1118 -1119 0
-1118 -1120 0
-1119 -1120 0
1118 1119 1120 0
-1121 -1122 0
-1121 -1123 0
-1122 -1123 0
1121 1122 1123 0
-88 -1124 0
-88 -1125 0
-1124 -1125 0
88 1124 1125 0
-952 -1126 0
-952 -1127 0
-1126 -1127 0
952 1126 1127 0
-437 -1128 0
-437 -1129 0
-1128 -1129 0
437 1128 1129 0
-1130 -1131 0
-1130 -1132 0
-1131 -1132 0
1130 1131 1132 0
-880 -894 0
-880 -1133 0
-894 -1133 0
880 894 1133 0
-666 -1134 0
-666 -1135 0
-1134 -1135 0
666 1134 1135 0
-185 -1013 0
-185 -1136 0
-1013 -1136 0
185 1013 1136 0
-378 -686 0
-378 -787 0
-686 -787 0
378 686 787 0
-937 -1137 0
-937 -1138 0
-1137 -1138 0
937 1137 1138 0
-26 -251 0
-26 -1139 0
-251 -1139 0
26 251 1139 0
-384 -401 0
-384 -967 0
-401 -967 0
384 401 967 0
-1140 -1141 0
-1140 -1142 0
-1141 -1142 0
1140 1141 1142 0
-1143 -1144 0
-1143 -1145 0
-1144 -1145 0
1143 1144 1145 0
-515 -1146 0
-515 -1147 0
-1146 -1147 0
515 1146 1147 0
-1084 -1148 0
-1084 -1149 0
-1148 -1149 0
1084 1148 1149 0
-687 -1150 0
-687 -1151 0
-1150 -1151 0
687 1150 1151 0
-524 -980 0
-524 -1152 0
-980 -1152 0
524 980 1152 0
-711 -1153 0
-711 -1154 0
-1153 -1154 0
711 1153 1154 0
-122 -555 0
-122 -1155 0
-555 -1155 0
122 555 1155 0
-179 -1156 0
-179 -1157 0
-1156 -1157 0
179 1156 1157 0
-874 -1158 0
-874 -1159 0
-1158 -1159 0
874 1158 1159 0
-1038 -1160 0
-1038 -1161 0
-1160 -1161 0
1038 1160 1161 0
-1121 -1162 0
-1121 -1163 0
-1162 -1163 0
1121 1162 1163 0
-1164 -1165 0
-1164 -1166 0
-1165 -1166 0
1164 1165 1166 0
-810 -1167 0
-810 -1168 0
-1167 -1168 0
810 1167 1168 0
-367 -489 0
-367 -913 0
-489 -913 0
367 489 913 0
-438 -1090 0
-438 -1169 0
-1090 -1169 0
438 1090 1169 0
-610 -910 0
-610 -1170 0
-910 -1170 0
610 910 1170 0
-317 -423 0
-317 -1171 0
-423 -1171 0
317 423 1171 0
-1172 -1173 0
-1172 -1174 0
-1173 -1174 0
1172 1173 1174 0
-375 -1175 0
-375 -1176 0
-1175 -1176 0
375 1175 1176 0
-1177 -1178 0
-1177 -1179 0
-1178 -1179 0
1177 1178 1179 0
-840 -1180 0
-840 -1181 0
-1180 -1181 0
840 1180 1181 0
-517 -1182 0
-517 -1183 0
-1182 -1183 0
517 1182 1183 0
-164 -1184 0
-164 -1185 0
-1184 -1185 0
164 1184 1185 0
-80 -753 0
-80 -778 0
-753 -778 0
80 753 778 0
-376 -987 0
-376 -1186 0
-987 -1186 0
376 987 1186 0
-127 -694 0
-127 -1187 0
-694 -1187 0
127 694 1187 0
-68 -712 0
-68 -1188 0
-712 -1188 0
68 712 1188 0
-133 -248 0
-133 -1189 0
-248 -1189 0
133 248 1189 0
-368 -1015 0
-368 -1190 0
-1015 -1190 0
368 1015 1190 0
-1191 -1192 0
-1191 -1193 0
-1192 -1193 0
1191 1192 1193 0
-76 -1194 0
-76 -1195 0
-1194 -1195 0
76 1194 1195 0
-511 -733 0
-511 -1196 0
-733 -1196 0
511 733 1196 0
-254 -1190 0
-254 -1197 0
-1190 -1197 0
254 1190 1197 0
-322 -1198 0
-322 -1199 0
-1198 -1199 0
322 1198 1199 0
-618 -734 0
-618 -1184 0
-734 -1184 0
618 734 1184 0
-1200 -1201 0
-1200 -1202 0
-1201 -1202 0
1200 1201 1202 0
-1203 -1204 0
-1203 -1205 0
-1204 -1205 0
1203 1204 1205 0
-1206 -1207 0
-1206 -1208 0
-1207 -1208 0
1206 1207 1208 0
-276 -1209 0
-276 -1210 0
-1209 -1210 0
276 1209 1210 0
-1211 -1212 0
-1211 -1213 0
-1212 -1213 0
1211 1212 1213 0
-1214 -1215 0
-1214 -1216 0
-1215 -1216 0
1214 1215 1216 0
-692 -764 0
-692 -1217 0
-764 -1217 0
692 764 1217 0
-835 -1218 0
-835 -1219 0
-1218 -1219 0
835 1218 1219 0
-220 -1220 0
-220 -1221 0
-1220 -1221 0
220 1220 1221 0
-938 -1222 0
-938 -1223 0
-1222 -1223 0
938 1222 1223 0
-693 -1224 0
-693 -1225 0
-1224 -1225 0
693 1224 1225 0
-1226 -1227 0
-1226 -1228 0
-1227 -1228 0
1226 1227 1228 0
-525 -1229 0
-525 -1230 0
-1229 -1230 0
525 1229 1230 0
-462 -1020 0
-462 -1231 0
-1020 -1231 0
462 1020 1231 0
-1232 -1233 0
-1232 -1234 0
-1233 -1234 0
1232 1233 1234 0
-636 -1235 0
-636 -1236 0
-1235 -1236 0
636 1235 1236 0
-303 -935 0
-303 -1237 0
-935 -1237 0
303 935 1237 0
-1021 -1238 0
-1021 -1239 0
-1238 -1239 0
1021 1238 1239 0
-214 -1240 0
-214 -1241 0
-1240 -1241 0
214 1240 1241 0
-771 -1242 0
-771 -1243 0
-1242 -1243 0
771 1242 1243 0
-209 -709 0
-209 -1244 0
-709 -1244 0
209 709 1244 0
-330 -1245 0
-330 -1246 0
-1245 -1246 0
330 1245 1246 0
-1247 -1248 0
-1247 -1249 0
-1248 -1249 0
1247 1248 1249 0
-263 -1250 0
-263 -1251 0
-1250 -1251 0
263 1250 1251 0
-1252 -1253 0
-1252 -1254 0
-1253 -1254 0
1252 1253 1254 0
-1255 -1256 0
-1255 -1257 0
-1256 -1257 0
1255 1256 1257 0
-576 -1114 0
-576 -1258 0
-1114 -1258 0
576 1114 1258 0
-658 -945 0
-658 -1259 0
-945 -1259 0
658 945 1259 0
-1260 -1261 0
-1260 -1262 0
-1261 -1262 0
1260 1261 1262 0
-1263 -1264 0
-1263 -1265 0
-1264 -1265 0
1263 1264 1265 0
-815 -993 0
-815 -1266 0
-993 -1266 0
815 993 1266 0
-603 -1226 0
-603 -1267 0
-1226 -1267 0
603 1226 1267 0
-255 -1128 0
-255 -1268 0
-1128 -1268 0
255 1128 1268 0
-649 -1269 0
-649 -1270 0
-1269 -1270 0
649 1269 1270 0
-1180 -1271 0
-1180 -1272 0
-1271 -1272 0
1180 1271 1272 0
-1129 -1273 0
-1129 -1274 0
-1273 -1274 0
1129 1273 1274 0
-562 -1275 0
-562 -1276 0
-1275 -1276 0
562 1275 1276 0
-943 -1277 0
-943 -1278 0
-1277 -1278 0
943 1277 1278 0
-916 -1279 0
-916 -1280 0
-1279 -1280 0
916 1279 1280 0
-565 -1281 0
-565 -1282 0
-1281 -1282 0
565 1281 1282 0
-946 -1283 0
-946 -1284 0
-1283 -1284 0
946 1283 1284 0
-427 -836 0
-427 -1252 0
-836 -1252 0
427 836 1252 0
-697 -1285 0
-697 -1286 0
-1285 -1286 0
697 1285 1286 0
-46 -1077 0
-46 -1287 0
-1077 -1287 0
46 1077 1287 0
-509 -1288 0
-509 -1289 0
-1288 -1289 0
509 1288 1289 0
-1044 -1288 0
-1044 -1290 0
-1288 -1290 0
1044 1288 1290 0
-35 -1291 0
-35 -1292 0
-1291 -1292 0
35 1291 1292 0
-1052 -1293 0
-1052 -1294 0
-1293 -1294 0
1052 1293 1294 0
-1203 -1232 0
-1203 -1295 0
-1232 -1295 0
1203 1232 1295 0
-1045 -1296 0
-1045 -1297 0
-1296 -1297 0
1045 1296 1297 0
-538 -1152 0
-538 -1298 0
-1152 -1298 0
538 1152 1298 0
-788 -1299 0
-788 -1300 0
-1299 -1300 0
788 1299 1300 0
-650 -1301 0
-650 -1302 0
-1301 -1302 0
650 1301 1302 0
-862 -1231 0
-862 -1303 0
-1231 -1303 0
862 1231 1303 0
-157 -1304 0
-157 -1305 0
-1304 -1305 0
157 1304 1305 0
-1306 -1307 0
-1306 -1308 0
-1307 -1308 0
1306 1307 1308 0
-223 -1301 0
-223 -1309 0
-1301 -1309 0
223 1301 1309 0
-1310 -1311 0
-1310 -1312 0
-1311 -1312 0
1310 1311 1312 0
-926 -1313 0
-926 -1314 0
-1313 -1314 0
926 1313 1314 0
-781 -1315 0
-781 -1316 0
-1315 -1316 0
781 1315 1316 0
-379 -1240 0
-379 -1317 0
-1240 -1317 0
379 1240 1317 0
-817 -1318 0
-817 -1319 0
-1318 -1319 0
817 1318 1319 0
-7 -1320 0
-7 -1321 0
-1320 -1321 0
7 1320 1321 0
-829 -1237 0
-829 -1322 0
-1237 -1322 0
829 1237 1322 0
-773 -1323 0
-773 -1324 0
-1323 -1324 0
773 1323 1324 0
-775 -932 0
-775 -1325 0
-932 -1325 0
775 932 1325 0
-779 -1326 0
-779 -1327 0
-1326 -1327 0
779 1326 1327 0
-142 -189 0
-142 -1328 0
-189 -1328 0
142 189 1328 0
-1329 -1330 0
-1329 -1331 0
-1330 -1331 0
1329 1330 1331 0
-1332 -1333 0
-1332 -1334 0
-1333 -1334 0
1332 1333 1334 0
-104 -1335 0
-104 -1336 0
-1335 -1336 0
104 1335 1336 0
-1337 -1338 0
-1337 -1339 0
-1338 -1339 0
1337 1338 1339 0
-279 -1340 0
-279 -1341 0
-1340 -1341 0
279 1340 1341 0
-918 -1342 0
-918 -1343 0
-1342 -1343 0
918 1342 1343 0
-792 -1344 0
-792 -1345 0
-1344 -1345 0
792 1344 1345 0
-1115 -1346 0
-1115 -1347 0
-1346 -1347 0
1115 1346 1347 0
-1095 -1167 0
-1095 -1348 0
-1167 -1348 0
1095 1167 1348 0
-698 -811 0
-698 -1349 0
-811 -1349 0
698 811 1349 0
-363 -1350 0
-363 -1351 0
-1350 -1351 0
363 1350 1351 0
-417 -1299 0
-417 -1352 0
-1299 -1352 0
417 1299 1352 0
-1353 -1354 0
-1353 -1355 0
-1354 -1355 0
1353 1354 1355 0
-713 -1093 0
-713 -1356 0
-1093 -1356 0
713 1093 1356 0
-397 -593 0
-397 -822 0
-593 -822 0
397 593 822 0
-1112 -1357 0
-1112 -1358 0
-1357 -1358 0
1112 1357 1358 0
-868 -1233 0
-868 -1359 0
-1233 -1359 0
868 1233 1359 0
-1360 -1361 0
-1360 -1362 0
-1361 -1362 0
1360 1361 1362 0
-1189 -1271 0
-1189 -1363 0
-1271 -1363 0
1189 1271 1363 0
-1357 -1364 0
-1357 -1365 0
-1364 -1365 0
1357 1364 1365 0
-28 -1057 0
-28 -1366 0
-1057 -1366 0
28 1057 1366 0
-500 -1367 0
-500 -1368 0
-1367 -1368 0
500 1367 1368 0
-453 -581 0
-453 -1369 0
-581 -1369 0
453 581 1369 0
-483 -804 0
-483 -1370 0
-804 -1370 0
483 804 1370 0
-94 -1218 0
-94 -1346 0
-1218 -1346 0
94 1218 1346 0
-1371 -1372 0
-1371 -1373 0
-1372 -1373 0
1371 1372 1373 0
-320 -1245 0
-320 -1374 0
-1245 -1374 0
320 1245 1374 0
-727 -1375 0
-727 -1376 0
-1375 -1376 0
727 1375 1376 0
-1377 -1378 0
-1377 -1379 0
-1378 -1379 0
1377 1378 1379 0
-1380 -1381 0
-1380 -1382 0
-1381 -1382 0
1380 1381 1382 0
-27 -236 0
-27 -1383 0
-236 -1383 0
27 236 1383 0
-102 -1065 0
-102 -1380 0
-1065 -1380 0
102 1065 1380 0
-1384 -1385 0
-1384 -1386 0
-1385 -1386 0
1384 1385 1386 0
-240 -856 0
-240 -1387 0
-856 -1387 0
240 856 1387 0
-1300 -1388 0
-1300 -1389 0
-1388 -1389 0
1300 1388 1389 0
-351 -1016 0
-351 -1390 0
-1016 -1390 0
351 1016 1390 0
-1384 -1391 0
-1384 -1392 0
-1391 -1392 0
1384 1391 1392 0
-682 -1191 0
-682 -1393 0
-1191 -1393 0
682 1191 1393 0
-1105 -1394 0
-1105 -1395 0
-1394 -1395 0
1105 1394 1395 0
-1396 -1397 0
-1396 -1398 0
-1397 -1398 0
1396 1397 1398 0
-863 -1285 0
-863 -1399 0
-1285 -1399 0
863 1285 1399 0
-1400 -1401 0
-1400 -1402 0
-1401 -1402 0
1400 1401 1402 0
-613 -877 0
-613 -1403 0
-877 -1403 0
613 877 1403 0
-296 -1404 0
-296 -1405 0
-1404 -1405 0
296 1404 1405 0
-614 -1406 0
-614 -1407 0
-1406 -1407 0
614 1406 1407 0
-599 -1408 0
-599 -1409 0
-1408 -1409 0
599 1408 1409 0
-205 -1410 0
-205 -1411 0
-1410 -1411 0
205 1410 1411 0
-349 -1412 0
-349 -1413 0
-1412 -1413 0
349 1412 1413 0
-1291 -1414 0
-1291 -1415 0
-1414 -1415 0
1291 1414 1415 0
-643 -1416 0
-643 -1417 0
-1416 -1417 0
643 1416 1417 0
-173 -1418 0
-173 -1419 0
-1418 -1419 0
173 1418 1419 0
-260 -1246 0
-260 -1420 0
-1246 -1420 0
260 1246 1420 0
-899 -1003 0
-899 -1421 0
-1003 -1421 0
899 1003 1421 0
-695 -857 0
-695 -1422 0
-857 -1422 0
695 857 1422 0
-51 -1423 0
-51 -1424 0
-1423 -1424 0
51 1423 1424 0
-1377 -1425 0
-1377 -1426 0
-1425 -1426 0
1377 1425 1426 0
-212 -795 0
-212 -1325 0
-795 -1325 0
212 795 1325 0
-1018 -1158 0
-1018 -1247 0
-1158 -1247 0
1018 1158 1247 0
-380 -1427 0
-380 -1428 0
-1427 -1428 0
380 1427 1428 0
-357 -1429 0
-357 -1430 0
-1429 -1430 0
357 1429 1430 0
-49 -1267 0
-49 -1431 0
-1267 -1431 0
49 1267 1431 0
-451 -1367 0
-451 -1432 0
-1367 -1432 0
451 1367 1432 0
-1072 -1433 0
-1072 -1434 0
-1433 -1434 0
1072 1433 1434 0
-1435 -1436 0
-1435 -1437 0
-1436 -1437 0
1435 1436 1437 0
-1028 -1438 0
-1028 -1439 0
-1438 -1439 0
1028 1438 1439 0
-1289 -1440 0
-1289 -1441 0
-1440 -1441 0
1289 1440 1441 0
-785 -1435 0
-785 -1442 0
-1435 -1442 0
785 1435 1442 0
-994 -1200 0
-994 -1244 0
-1200 -1244 0
994 1200 1244 0
-331 -872 0
-331 -1443 0
-872 -1443 0
331 872 1443 0
-304 -1064 0
-304 -1444 0
-1064 -1444 0
304 1064 1444 0
-740 -921 0
-740 -1445 0
-921 -1445 0
740 921 1445 0
-1446 -1447 0
-1446 -1448 0
-1447 -1448 0
1446 1447 1448 0
-1007 -1156 0
-1007 -1229 0
-1156 -1229 0
1007 1156 1229 0
-175 -1427 0
-175 -1449 0
-1427 -1449 0
175 1427 1449 0
-448 -1450 0
-448 -1451 0
-1450 -1451 0
448 1450 1451 0
-1452 -1453 0
-1452 -1454 0
-1453 -1454 0
1452 1453 1454 0
-941 -1455 0
-941 -1456 0
-1455 -1456 0
941 1455 1456 0
-968 -1286 0
-968 -1457 0
-1286 -1457 0
968 1286 1457 0
-125 -635 0
-125 -1458 0
-635 -1458 0
125 635 1458 0
-707 -1298 0
-707 -1459 0
-1298 -1459 0
707 1298 1459 0
-1269 -1273 0
-1269 -1460 0
-1273 -1460 0
1269 1273 1460 0
-339 -1461 0
-339 -1462 0
-1461 -1462 0
339 1461 1462 0
-485 -752 0
-485 -1463 0
-752 -1463 0
485 752 1463 0
-1381 -1464 0
-1381 -1465 0
-1464 -1465 0
1381 1464 1465 0
-860 -1060 0
-860 -1466 0
-1060 -1466 0
860 1060 1466 0
-288 -345 0
-288 -981 0
-345 -981 0
288 345 981 0
-583 -852 0
-583 -1293 0
-852 -1293 0
583 852 1293 0
-141 -1030 0
-141 -1467 0
-1030 -1467 0
141 1030 1467 0
-1468 -1469 0
-1468 -1470 0
-1469 -1470 0
1468 1469 1470 0
-39 -406 0
-39 -1471 0
-406 -1471 0
39 406 1471 0
-886 -1309 0
-886 -1342 0
-1309 -1342 0
886 1309 1342 0
-757 -876 0
-757 -1472 0
-876 -1472 0
757 876 1472 0
-786 -883 0
-786 -1211 0
-883 -1211 0
786 883 1211 0
-169 -844 0
-169 -1473 0
-844 -1473 0
169 844 1473 0
-1474 -1475 0
-1474 -1476 0
-1475 -1476 0
1474 1475 1476 0
-655 -1477 0
-655 -1478 0
-1477 -1478 0
655 1477 1478 0
-496 -539 0
-496 -1479 0
-539 -1479 0
496 539 1479 0
-716 -1480 0
-716 -1481 0
-1480 -1481 0
716 1480 1481 0
-130 -407 0
-130 -1078 0
-407 -1078 0
130 407 1078 0
-1482 -1483 0
-1482 -1484 0
-1483 -1484 0
1482 1483 1484 0
-632 -738 0
-632 -1259 0
-738 -1259 0
632 738 1259 0
-192 -705 0
-192 -1066 0
-705 -1066 0
192 705 1066 0
-17 -503 0
-17 -1485 0
-503 -1485 0
17 503 1485 0
-661 -1486 0
-661 -1487 0
-1486 -1487 0
661 1486 1487 0
-1206 -1468 0
-1206 -1488 0
-1468 -1488 0
1206 1468 1488 0
-1162 -1310 0
-1162 -1489 0
-1310 -1489 0
1162 1310 1489 0
-52 -1490 0
-52 -1491 0
-1490 -1491 0
52 1490 1491 0
-456 -1492 0
-456 -1493 0
-1492 -1493 0
456 1492 1493 0
-318 -875 0
-318 -1494 0
-875 -1494 0
318 875 1494 0
-591 -1495 0
-591 -1496 0
-1495 -1496 0
591 1495 1496 0
-951 -1315 0
-951 -1497 0
-1315 -1497 0
951 1315 1497 0
-47 -1250 0
-47 -1498 0
-1250 -1498 0
47 1250 1498 0
-1155 -1214 0
-1155 -1499 0
-1214 -1499 0
1155 1214 1499 0
-5 -656 0
-5 -1461 0
-656 -1461 0
5 656 1461 0
-65 -370 0
-65 -1242 0
-370 -1242 0
65 370 1242 0
-1187 -1500 0
-1187 -1501 0
-1500 -1501 0
1187 1500 1501 0
-112 -1502 0
-112 -1503 0
-1502 -1503 0
112 1502 1503 0
-1337 -1504 0
-1337 -1505 0
-1504 -1505 0
1337 1504 1505 0
-1506 -1507 0
-1506 -1508 0
-1507 -1508 0
1506 1507 1508 0
-1425 -1509 0
-1425 -1510 0
-1509 -1510 0
1425 1509 1510 0
-336 -1511 0
-336 -1512 0
-1511 -1512 0
336 1511 1512 0
-15 -1513 0
-15 -1514 0
-1513 -1514 0
15 1513 1514 0
-1248 -1352 0
-1248 -1515 0
-1352 -1515 0
1248 1352 1515 0
-473 -1516 0
-473 -1517 0
-1516 -1517 0
473 1516 1517 0
-760 -1311 0
-760 -1518 0
-1311 -1518 0
760 1311 1518 0
-341 -761 0
-341 -1414 0
-761 -1414 0
341 761 1414 0
-588 -1140 0
-588 -1194 0
-1140 -1194 0
588 1140 1194 0
-1172 -1519 0
-1172 -1520 0
-1519 -1520 0
1172 1519 1520 0
-1253 -1521 0
-1253 -1522 0
-1521 -1522 0
1253 1521 1522 0
-210 -807 0
-210 -1098 0
-807 -1098 0
210 807 1098 0
-1169 -1523 0
-1169 -1524 0
-1523 -1524 0
1169 1523 1524 0
-1495 -1525 0
-1495 -1526 0
-1525 -1526 0
1495 1525 1526 0
-1088 -1350 0
-1088 -1527 0
-1350 -1527 0
1088 1350 1527 0
-440 -1022 0
-440 -1528 0
-1022 -1528 0
440 1022 1528 0
-530 -1445 0
-530 -1529 0
-1445 -1529 0
530 1445 1529 0
-492 -600 0
-492 -1530 0
-600 -1530 0
492 600 1530 0
-252 -607 0
-252 -1421 0
-607 -1421 0
252 607 1421 0
-700 -780 0
-700 -1531 0
-780 -1531 0
700 780 1531 0
-55 -1326 0
-55 -1532 0
-1326 -1532 0
55 1326 1532 0
-1281 -1511 0
-1281 -1533 0
-1511 -1533 0
1281 1511 1533 0
-805 -1374 0
-805 -1504 0
-1374 -1504 0
805 1374 1504 0
-216 -1327 0
-216 -1534 0
-1327 -1534 0
216 1327 1534 0
-1001 -1275 0
-1001 -1535 0
-1275 -1535 0
1001 1275 1535 0
-1394 -1536 0
-1394 -1537 0
-1536 -1537 0
1394 1536 1537 0
-1058 -1469 0
-1058 -1538 0
-1469 -1538 0
1058 1469 1538 0
-33 -988 0
-33 -1296 0
-988 -1296 0
33 988 1296 0
-72 -675 0
-72 -1482 0
-675 -1482 0
72 675 1482 0
-394 -1295 0
-394 -1539 0
-1295 -1539 0
394 1295 1539 0
-256 -1540 0
-256 -1541 0
-1540 -1541 0
256 1540 1541 0
-23 -1312 0
-23 -1542 0
-1312 -1542 0
23 1312 1542 0
-845 -1543 0
-845 -1544 0
-1543 -1544 0
845 1543 1544 0
-1490 -1506 0
-1490 -1516 0
-1506 -1516 0
1490 1506 1516 0
-571 -1393 0
-571 -1523 0
-1393 -1523 0
571 1393 1523 0
-1368 -1545 0
-1368 -1546 0
-1545 -1546 0
1368 1545 1546 0
-151 -476 0
-151 -891 0
-476 -891 0
151 476 891 0
-959 -1547 0
-959 -1548 0
-1547 -1548 0
959 1547 1548 0
-1073 -1459 0
-1073 -1549 0
-1459 -1549 0
1073 1459 1549 0
-758 -999 0
-758 -1550 0
-999 -1550 0
758 999 1550 0
-131 -858 0
-131 -1551 0
-858 -1551 0
131 858 1551 0
-914 -991 0
-914 -1053 0
-991 -1053 0
914 991 1053 0
-939 -1552 0
-939 -1553 0
-1552 -1553 0
939 1552 1553 0
-81 -1074 0
-81 -1554 0
-1074 -1554 0
81 1074 1554 0
-953 -1530 0
-953 -1555 0
-1530 -1555 0
953 1530 1555 0
-249 -1556 0
-249 -1557 0
-1556 -1557 0
249 1556 1557 0
-11 -1558 0
-11 -1559 0
-1558 -1559 0
11 1558 1559 0
-688 -1041 0
-688 -1560 0
-1041 -1560 0
688 1041 1560 0
-96 -501 0
-96 -1527 0
-501 -1527 0
96 501 1527 0
-398 -1130 0
-398 -1561 0
-1130 -1561 0
398 1130 1561 0
-145 -373 0
-145 -1562 0
-373 -1562 0
145 373 1562 0
-611 -1563 0
-611 -1564 0
-1563 -1564 0
611 1563 1564 0
-683 -1565 0
-683 -1566 0
-1565 -1566 0
683 1565 1566 0
-589 -1182 0
-589 -1567 0
-1182 -1567 0
589 1182 1567 0
-964 -1568 0
-964 -1569 0
-1568 -1569 0
964 1568 1569 0
-1047 -1371 0
-1047 -1570 0
-1371 -1570 0
1047 1371 1570 0
-966 -1571 0
-966 -1572 0
-1571 -1572 0
966 1571 1572 0
-350 -954 0
-350 -1573 0
-954 -1573 0
350 954 1573 0
-1150 -1563 0
-1150 -1574 0
-1563 -1574 0
1150 1563 1574 0
-865 -1328 0
-865 -1575 0
-1328 -1575 0
865 1328 1575 0
-1050 -1576 0
-1050 -1577 0
-1576 -1577 0
1050 1576 1577 0
-1004 -1491 0
-1004 -1578 0
-1491 -1578 0
1004 1491 1578 0
-1014 -1579 0
-1014 -1580 0
-1579 -1580 0
1014 1579 1580 0
-128 -1581 0
-128 -1582 0
-1581 -1582 0
128 1581 1582 0
-202 -1564 0
-202 -1583 0
-1564 -1583 0
202 1564 1583 0
-1134 -1584 0
-1134 -1585 0
-1584 -1585 0
1134 1584 1585 0
-861 -1316 0
-861 -1586 0
-1316 -1586 0
861 1316 1586 0
-224 -594 0
-224 -1587 0
-594 -1587 0
224 594 1587 0
-480 -569 0
-480 -1519 0
-569 -1519 0
480 569 1519 0
-1588 -1589 0
-1588 -1590 0
-1589 -1590 0
1588 1589 1590 0
-354 -1186 0
-354 -1313 0
-1186 -1313 0
354 1186 1313 0
-1143 -1591 0
-1143 -1592 0
-1591 -1592 0
1143 1591 1592 0
-408 -1593 0
-408 -1594 0
-1593 -1594 0
408 1593 1594 0
-405 -1276 0
-405 -1595 0
-1276 -1595 0
405 1276 1595 0
-796 -1576 0
-796 -1596 0
-1576 -1596 0
796 1576 1596 0
-270 -297 0
-270 -1151 0
-297 -1151 0
270 297 1151 0
-2 -1340 0
-2 -1597 0
-1340 -1597 0
2 1340 1597 0
-1351 -1598 0
-1351 -1599 0
-1598 -1599 0
1351 1598 1599 0
-1552 -1600 0
-1552 -1601 0
-1600 -1601 0
1552 1600 1601 0
-50 -842 0
-50 -1602 0
-842 -1602 0
50 842 1602 0
-1452 -1603 0
-1452 -1604 0
-1603 -1604 0
1452 1603 1604 0
-528 -908 0
-528 -1185 0
-908 -1185 0
528 908 1185 0
-229 -746 0
-229 -1605 0
-746 -1605 0
229 746 1605 0
-978 -1532 0
-978 -1533 0
-1532 -1533 0
978 1532 1533 0
-333 -1085 0
-333 -1606 0
-1085 -1606 0
333 1085 1606 0
-305 -1224 0
-305 -1348 0
-1224 -1348 0
305 1224 1348 0
-1139 -1260 0
-1139 -1607 0
-1260 -1607 0
1139 1260 1607 0
-628 -1039 0
-628 -1608 0
-1039 -1608 0
628 1039 1608 0
-823 -1609 0
-823 -1610 0
-1609 -1610 0
823 1609 1610 0
-604 -944 0
-604 -1611 0
-944 -1611 0
604 944 1611 0
-1243 -1486 0
-1243 -1612 0
-1486 -1612 0
1243 1486 1612 0
-389 -919 0
-389 -1579 0
-919 -1579 0
389 919 1579 0
-630 -1613 0
-630 -1614 0
-1613 -1614 0
630 1613 1614 0
-1528 -1615 0
-1528 -1616 0
-1615 -1616 0
1528 1615 1616 0
-1010 -1255 0
-1010 -1617 0
-1255 -1617 0
1010 1255 1617 0
-1306 -1618 0
-1306 -1619 0
-1618 -1619 0
1306 1618 1619 0
-434 -1620 0
-434 -1621 0
-1620 -1621 0
434 1620 1621 0
-481 -710 0
-481 -1622 0
-710 -1622 0
481 710 1622 0
-1031 -1525 0
-1031 -1623 0
-1525 -1623 0
1031 1525 1623 0
-364 -1141 0
-364 -1404 0
-1141 -1404 0
364 1141 1404 0
-601 -820 0
-601 -1464 0
-820 -1464 0
601 820 1464 0
-1446 -1624 0
-1446 -1625 0
-1624 -1625 0
1446 1624 1625 0
-1406 -1626 0
-1406 -1627 0
-1626 -1627 0
1406 1626 1627 0
-1087 -1513 0
-1087 -1628 0
-1513 -1628 0
1087 1513 1628 0
-431 -531 0
-431 -1629 0
-531 -1629 0
431 531 1629 0
-284 -573 0
-284 -793 0
-573 -793 0
284 573 793 0
-532 -748 0
-532 -1630 0
-748 -1630 0
532 748 1630 0
-667 -1238 0
-667 -1631 0
-1238 -1631 0
667 1238 1631 0
-904 -1035 0
-904 -1096 0
-1035 -1096 0
904 1035 1096 0
-108 -1153 0
-108 -1479 0
-1153 -1479 0
108 1153 1479 0
-1170 -1632 0
-1170 -1633 0
-1632 -1633 0
1170 1632 1633 0
-494 -948 0
-494 -1634 0
-948 -1634 0
494 948 1634 0
-143 -464 0
-143 -1623 0
-464 -1623 0
143 464 1623 0
-1562 -1635 0
-1562 -1636 0
-1635 -1636 0
1562 1635 1636 0
-36 -1227 0
-36 -1637 0
-1227 -1637 0
36 1227 1637 0
-612 -1131 0
-612 -1638 0
-1131 -1638 0
612 1131 1638 0
-1639 -1640 0
-1639 -1641 0
-1640 -1641 0
1639 1640 1641 0
-29 -1106 0
-29 -1642 0
-1106 -1642 0
29 1106 1642 0
-955 -1643 0
-955 -1644 0
-1643 -1644 0
955 1643 1644 0
-983 -1256 0
-983 -1645 0
-1256 -1645 0
983 1256 1645 0
-1270 -1400 0
-1270 -1646 0
-1400 -1646 0
1270 1400 1646 0
-290 -1201 0
-290 -1485 0
-1201 -1485 0
290 1201 1485 0
-637 -735 0
-637 -1040 0
-735 -1040 0
637 735 1040 0
-1023 -1395 0
-1023 -1647 0
-1395 -1647 0
1023 1395 1647 0
-510 -1547 0
-510 -1631 0
-1547 -1631 0
510 1547 1631 0
-382 -441 0
-382 -1648 0
-441 -1648 0
382 441 1648 0
-615 -1207 0
-615 -1649 0
-1207 -1649 0
615 1207 1649 0
-467 -1126 0
-467 -1565 0
-1126 -1565 0
467 1126 1565 0
-321 -1650 0
-321 -1651 0
-1650 -1651 0
321 1650 1651 0
-1283 -1388 0
-1283 -1652 0
-1388 -1652 0
1283 1388 1652 0
-497 -1347 0
-497 -1653 0
-1347 -1653 0
497 1347 1653 0
-1581 -1654 0
-1581 -1655 0
-1654 -1655 0
1581 1654 1655 0
-897 -957 0
-897 -1656 0
-957 -1656 0
897 957 1656 0
-1359 -1657 0
-1359 -1658 0
-1657 -1658 0
1359 1657 1658 0
-134 -848 0
-134 -1323 0
-848 -1323 0
134 848 1323 0
-314 -498 0
-314 -714 0
-498 -714 0
314 498 714 0
-348 -352 0
-348 -1659 0
-352 -1659 0
348 352 1659 0
-1251 -1660 0
-1251 -1661 0
-1660 -1661 0
1251 1660 1661 0
-940 -1443 0
-940 -1662 0
-1443 -1662 0
940 1443 1662 0
-488 -1474 0
-488 -1507 0
-1474 -1507 0
488 1474 1507 0
-1663 -1664 0
-1663 -1665 0
-1664 -1665 0
1663 1664 1665 0
-84 -1192 0
-84 -1666 0
-1192 -1666 0
84 1192 1666 0
-606 -1667 0
-606 -1668 0
-1667 -1668 0
606 1667 1668 0
-901 -1225 0
-901 -1669 0
-1225 -1669 0
901 1225 1669 0
-566 -827 0
-566 -1157 0
-827 -1157 0
566 827 1157 0
-97 -361 0
-97 -1670 0
-361 -1670 0
97 361 1670 0
-662 -1671 0
-662 -1672 0
-1671 -1672 0
662 1671 1672 0
-963 -1673 0
-963 -1674 0
-1673 -1674 0
963 1673 1674 0
-183 -774 0
-183 -1675 0
-774 -1675 0
183 774 1675 0
-149 -409 0
-149 -869 0
-409 -869 0
149 409 869 0
-508 -1676 0
-508 -1677 0
-1676 -1677 0
508 1676 1677 0
-679 -747 0
-679 -1612 0
-747 -1612 0
679 747 1612 0
-623 -1588 0
-623 -1591 0
-1588 -1591 0
623 1588 1591 0
-311 -1202 0
-311 -1618 0
-1202 -1618 0
311 1202 1618 0
-1678 -1679 0
-1678 -1680 0
-1679 -1680 0
1678 1679 1680 0
-640 -867 0
-640 -1681 0
-867 -1681 0
640 867 1681 0
-399 -1682 0
-399 -1683 0
-1682 -1683 0
399 1682 1683 0
-387 -1148 0
-387 -1684 0
-1148 -1684 0
387 1148 1684 0
-60 -1598 0
-60 -1685 0
-1598 -1685 0
60 1598 1685 0
-814 -1198 0
-814 -1686 0
-1198 -1686 0
814 1198 1686 0
-315 -960 0
-315 -1396 0
-960 -1396 0
315 960 1396 0
-609 -1222 0
-609 -1483 0
-1222 -1483 0
609 1222 1483 0
-728 -1463 0
-728 -1687 0
-1463 -1687 0
728 1463 1687 0
-213 -892 0
-213 -1062 0
-892 -1062 0
213 892 1062 0
-1036 -1099 0
-1036 -1688 0
-1099 -1688 0
1036 1099 1688 0
-887 -1689 0
-887 -1690 0
-1689 -1690 0
887 1689 1690 0
-1691 -1692 0
-1691 -1693 0
-1692 -1693 0
1691 1692 1693 0
-1694 -1695 0
-1694 -1696 0
-1695 -1696 0
1694 1695 1696 0
-1103 -1378 0
-1103 -1567 0
-1378 -1567 0
1103 1378 1567 0
-323 -463 0
-323 -1697 0
-463 -1697 0
323 463 1697 0
-100 -1550 0
-100 -1698 0
-1550 -1698 0
100 1550 1698 0
-197 -1054 0
-197 -1678 0
-1054 -1678 0
197 1054 1678 0
-109 -866 0
-109 -1699 0
-866 -1699 0
109 866 1699 0
-1338 -1700 0
-1338 -1701 0
-1700 -1701 0
1338 1700 1701 0
-244 -864 0
-244 -1702 0
-864 -1702 0
244 864 1702 0
-105 -884 0
-105 -1208 0
-884 -1208 0
105 884 1208 0
-888 -1703 0
-888 -1704 0
-1703 -1704 0
888 1703 1704 0
-58 -806 0
-58 -1705 0
-806 -1705 0
58 806 1705 0
-337 -974 0
-337 -1706 0
-974 -1706 0
337 974 1706 0
-395 -895 0
-395 -1122 0
-895 -1122 0
395 895 1122 0
-1548 -1707 0
-1548 -1708 0
-1707 -1708 0
1548 1707 1708 0
-1622 -1709 0
-1622 -1710 0
-1709 -1710 0
1622 1709 1710 0
-166 -1304 0
-166 -1711 0
-1304 -1711 0
166 1304 1711 0
-1197 -1712 0
-1197 -1713 0
-1712 -1713 0
1197 1712 1713 0
-274 -1714 0
-274 -1715 0
-1714 -1715 0
274 1714 1715 0
-1583 -1716 0
-1583 -1717 0
-1716 -1717 0
1583 1716 1717 0
-1433 -1455 0
-1433 -1586 0
-1455 -1586 0
1433 1455 1586 0
-1335 -1497 0
-1335 -1718 0
-1497 -1718 0
1335 1497 1718 0
-1488 -1673 0
-1488 -1691 0
-1673 -1691 0
1488 1673 1691 0
-1117 -1719 0
-1117 -1720 0
-1719 -1720 0
1117 1719 1720 0
-325 -965 0
-325 -1721 0
-965 -1721 0
325 965 1721 0
-326 -1472 0
-326 -1648 0
-1472 -1648 0
326 1472 1648 0
-1674 -1722 0
-1674 -1723 0
-1722 -1723 0
1674 1722 1723 0
-641 -1724 0
-641 -1725 0
-1724 -1725 0
641 1724 1725 0
-265 -298 0
-265 -1726 0
-298 -1726 0
265 298 1726 0
-1440 -1471 0
-1440 -1624 0
-1471 -1624 0
1440 1471 1624 0
-231 -790 0
-231 -1727 0
-790 -1727 0
231 790 1727 0
-241 -893 0
-241 -1142 0
-893 -1142 0
241 893 1142 0
-1082 -1518 0
-1082 -1526 0
-1518 -1526 0
1082 1518 1526 0
-53 -767 0
-53 -1728 0
-767 -1728 0
53 767 1728 0
-73 -237 0
-73 -285 0
-237 -285 0
73 237 285 0
-468 -1729 0
-468 -1730 0
-1729 -1730 0
468 1729 1730 0
-1480 -1731 0
-1480 -1732 0
-1731 -1732 0
1480 1731 1732 0
-190 -1733 0
-190 -1734 0
-1733 -1734 0
190 1733 1734 0
-809 -1735 0
-809 -1736 0
-1735 -1736 0
809 1735 1736 0
-633 -742 0
-633 -1737 0
-742 -1737 0
633 742 1737 0
-798 -1314 0
-798 -1453 0
-1314 -1453 0
798 1314 1453 0
-1083 -1391 0
-1083 -1600 0
-1391 -1600 0
1083 1391 1600 0
-652 -1660 0
-652 -1738 0
-1660 -1738 0
652 1660 1738 0
-24 -106 0
-24 -1727 0
-106 -1727 0
24 106 1727 0
-1303 -1694 0
-1303 -1709 0
-1694 -1709 0
1303 1694 1709 0
-342 -1436 0
-342 -1615 0
-1436 -1615 0
342 1436 1615 0
-271 -1068 0
-271 -1739 0
-1068 -1739 0
271 1068 1739 0
-410 -1418 0
-410 -1740 0
-1418 -1740 0
410 1418 1740 0
-355 -1741 0
-355 -1742 0
-1741 -1742 0
355 1741 1742 0
-1234 -1466 0
-1234 -1743 0
-1466 -1743 0
1234 1466 1743 0
-1442 -1629 0
-1442 -1643 0
-1629 -1643 0
1442 1629 1643 0
-1144 -1744 0
-1144 -1745 0
-1744 -1745 0
1144 1744 1745 0
-970 -1593 0
-970 -1746 0
-1593 -1746 0
970 1593 1746 0
-232 -1625 0
-232 -1653 0
-1625 -1653 0
232 1625 1653 0
-324 -1449 0
-324 -1529 0
-1449 -1529 0
324 1449 1529 0
-1235 -1747 0
-1235 -1748 0
-1747 -1748 0
1235 1747 1748 0
-371 -469 0
-371 -1401 0
-469 -1401 0
371 469 1401 0
-215 -1711 0
-215 -1749 0
-1711 -1749 0
215 1711 1749 0
-841 -1428 0
-841 -1438 0
-1428 -1438 0
841 1428 1438 0
-126 -1204 0
-126 -1353 0
-1204 -1353 0
126 1204 1353 0
-949 -1441 0
-949 -1750 0
-1441 -1750 0
949 1441 1750 0
-736 -1652 0
-736 -1751 0
-1652 -1751 0
736 1652 1751 0
-1135 -1582 0
-1135 -1752 0
-1582 -1752 0
1135 1582 1752 0
-266 -1175 0
-266 -1753 0
-1175 -1753 0
266 1175 1753 0
-782 -1754 0
-782 -1755 0
-1754 -1755 0
782 1754 1755 0
-889 -1372 0
-889 -1756 0
-1372 -1756 0
889 1372 1756 0
-71 -723 0
-71 -1757 0
-723 -1757 0
71 723 1757 0
-1127 -1670 0
-1127 -1758 0
-1670 -1758 0
1127 1670 1758 0
-731 -1540 0
-731 -1759 0
-1540 -1759 0
731 1540 1759 0
-471 -1113 0
-471 -1760 0
-1113 -1760 0
471 1113 1760 0
-1554 -1761 0
-1554 -1762 0
-1761 -1762 0
1554 1761 1762 0
-1220 -1456 0
-1220 -1543 0
-1456 -1543 0
1220 1456 1543 0
-1177 -1763 0
-1177 -1764 0
-1763 -1764 0
1177 1763 1764 0
-1419 -1707 0
-1419 -1716 0
-1707 -1716 0
1419 1707 1716 0
-741 -859 0
-741 -1765 0
-859 -1765 0
741 859 1765 0
-56 -1188 0
-56 -1545 0
-1188 -1545 0
56 1188 1545 0
-1392 -1470 0
-1392 -1766 0
-1470 -1766 0
1392 1470 1766 0
-828 -1712 0
-828 -1767 0
-1712 -1767 0
828 1712 1767 0
-1302 -1307 0
-1302 -1768 0
-1307 -1768 0
1302 1307 1768 0
-973 -1412 0
-973 -1769 0
-1412 -1769 0
973 1412 1769 0
-415 -1770 0
-415 -1771 0
-1770 -1771 0
415 1770 1771 0
-115 -306 0
-115 -1772 0
-306 -1772 0
115 306 1772 0
-1587 -1609 0
-1587 -1773 0
-1609 -1773 0
1587 1609 1773 0
-167 -638 0
-167 -1774 0
-638 -1774 0
167 638 1774 0
-1679 -1735 0
-1679 -1775 0
-1735 -1775 0
1679 1735 1775 0
-559 -799 0
-559 -1228 0
-799 -1228 0
559 799 1228 0
-873 -1017 0
-873 -1657 0
-1017 -1657 0
873 1017 1657 0
-1558 -1616 0
-1558 -1776 0
-1616 -1776 0
1558 1616 1776 0
-540 -1100 0
-540 -1284 0
-1100 -1284 0
540 1100 1284 0
-208 -1079 0
-208 -1777 0
-1079 -1777 0
208 1079 1777 0
-346 -1778 0
-346 -1779 0
-1778 -1779 0
346 1778 1779 0
-234 -1728 0
-234 -1780 0
-1728 -1780 0
234 1728 1780 0
-942 -1698 0
-942 -1781 0
-1698 -1781 0
942 1698 1781 0
-659 -1613 0
-659 -1617 0
-1613 -1617 0
659 1613 1617 0
-1408 -1644 0
-1408 -1782 0
-1644 -1782 0
1408 1644 1782 0
-1360 -1731 0
-1360 -1783 0
-1731 -1783 0
1360 1731 1783 0
-1118 -1145 0
-1118 -1784 0
-1145 -1784 0
1118 1145 1784 0
-217 -1061 0
-217 -1366 0
-1061 -1366 0
217 1061 1366 0
-1196 -1785 0
-1196 -1786 0
-1785 -1786 0
1196 1785 1786 0
-160 -1787 0
-160 -1788 0
-1787 -1788 0
160 1787 1788 0
-1722 -1789 0
-1722 -1790 0
-1789 -1790 0
1722 1789 1790 0
-621 -1791 0
-621 -1792 0
-1791 -1792 0
621 1791 1792 0
-1221 -1541 0
-1221 -1793 0
-1541 -1793 0
1221 1541 1793 0
-413 -660 0
-413 -900 0
-660 -900 0
413 660 900 0
-170 -529 0
-170 -1199 0
-529 -1199 0
170 529 1199 0
-45 -849 0
-45 -1794 0
-849 -1794 0
45 849 1794 0
-171 -1502 0
-171 -1546 0
-1502 -1546 0
171 1502 1546 0
-362 -923 0
-362 -1795 0
-923 -1795 0
362 923 1795 0
-1024 -1341 0
-1024 -1390 0
-1341 -1390 0
1024 1341 1390 0
-132 -1454 0
-132 -1796 0
-1454 -1796 0
132 1454 1796 0
-1258 -1637 0
-1258 -1769 0
-1637 -1769 0
1258 1637 1769 0
-291 -1561 0
-291 -1797 0
-1561 -1797 0
291 1561 1797 0
-74 -663 0
-74 -1798 0
-663 -1798 0
74 663 1798 0
-1070 -1736 0
-1070 -1799 0
-1736 -1799 0
1070 1736 1799 0
-137 -472 0
-137 -1800 0
-472 -1800 0
137 472 1800 0
-824 -1656 0
-824 -1801 0
-1656 -1801 0
824 1656 1801 0
-174 -452 0
-174 -1799 0
-452 -1799 0
174 452 1799 0
-664 -1575 0
-664 -1802 0
-1575 -1802 0
664 1575 1802 0
-329 -1373 0
-329 -1571 0
-1373 -1571 0
329 1373 1571 0
-1517 -1803 0
-1517 -1804 0
-1803 -1804 0
1517 1803 1804 0
-280 -1599 0
-280 -1805 0
-1599 -1805 0
280 1599 1805 0
-834 -1718 0
-834 -1806 0
-1718 -1806 0
834 1718 1806 0
-1802 -1807 0
-1802 -1808 0
-1807 -1808 0
1802 1807 1808 0
-103 -1164 0
-103 -1809 0
-1164 -1809 0
103 1164 1809 0
-411 -924 0
-411 -1810 0
-924 -1810 0
411 924 1810 0
-218 -1025 0
-218 -1721 0
-1025 -1721 0
218 1025 1721 0
-669 -739 0
-669 -1811 0
-739 -1811 0
669 739 1811 0
-634 -676 0
-634 -1812 0
-676 -1812 0
634 676 1812 0
-1178 -1743 0
-1178 -1813 0
-1743 -1813 0
1178 1743 1813 0
-1602 -1614 0
-1602 -1814 0
-1614 -1814 0
1602 1614 1814 0
-332 -885 0
-332 -1761 0
-885 -1761 0
332 885 1761 0
-1447 -1457 0
-1447 -1791 0
-1457 -1791 0
1447 1457 1791 0
-1492 -1787 0
-1492 -1815 0
-1787 -1815 0
1492 1787 1815 0
-118 -1439 0
-118 -1816 0
-1439 -1816 0
118 1439 1816 0
-1382 -1753 0
-1382 -1817 0
-1753 -1817 0
1382 1753 1817 0
-665 -1706 0
-665 -1710 0
-1706 -1710 0
665 1706 1710 0
-1107 -1344 0
-1107 -1818 0
-1344 -1818 0
1107 1344 1818 0
-257 -416 0
-257 -1589 0
-416 -1589 0
257 416 1589 0
-1639 -1650 0
-1639 -1756 0
-1650 -1756 0
1639 1650 1756 0
-1154 -1520 0
-1154 -1819 0
-1520 -1819 0
1154 1520 1819 0
-947 -1477 0
-947 -1687 0
-1477 -1687 0
947 1477 1687 0
-990 -995 0
-990 -1820 0
-995 -1820 0
990 995 1820 0
-1132 -1651 0
-1132 -1794 0
-1651 -1794 0
1132 1651 1794 0
-545 -1019 0
-545 -1754 0
-1019 -1754 0
545 1019 1754 0
-878 -1535 0
-878 -1556 0
-1535 -1556 0
878 1535 1556 0
-474 -1538 0
-474 -1821 0
-1538 -1821 0
474 1538 1821 0
-1733 -1822 0
-1733 -1823 0
-1822 -1823 0
1733 1822 1823 0
-8 -1410 0
-8 -1796 0
-1410 -1796 0
8 1410 1796 0
-1755 -1806 0
-1755 -1824 0
-1806 -1824 0
1755 1806 1824 0
-743 -1168 0
-743 -1663 0
-1168 -1663 0
743 1168 1663 0
-657 -1345 0
-657 -1825 0
-1345 -1825 0
657 1345 1825 0
-520 -1826 0
-520 -1827 0
-1826 -1827 0
520 1826 1827 0
-1478 -1551 0
-1478 -1828 0
-1551 -1828 0
1478 1551 1828 0
-1002 -1703 0
-1002 -1829 0
-1703 -1829 0
1002 1703 1829 0
-881 -1037 0
-881 -1557 0
-1037 -1557 0
881 1037 1557 0
-154 -1780 0
-154 -1830 0
-1780 -1830 0
154 1780 1830 0
-1389 -1610 0
-1389 -1831 0
-1610 -1831 0
1389 1610 1831 0
-1292 -1783 0
-1292 -1832 0
-1783 -1832 0
1292 1783 1832 0
-1006 -1332 0
-1006 -1763 0
-1332 -1763 0
1006 1332 1763 0
-1475 -1580 0
-1475 -1833 0
-1580 -1833 0
1475 1580 1833 0
-812 -1568 0
-812 -1834 0
-1568 -1834 0
812 1568 1834 0
-327 -1317 0
-327 -1835 0
-1317 -1835 0
327 1317 1835 0
-556 -821 0
-556 -1737 0
-821 -1737 0
556 821 1737 0
-90 -570 0
-90 -1836 0
-570 -1836 0
90 570 1836 0
-432 -1719 0
-432 -1767 0
-1719 -1767 0
432 1719 1767 0
-1209 -1503 0
-1209 -1695 0
-1503 -1695 0
1209 1503 1695 0
-574 -905 0
-574 -1837 0
-905 -1837 0
574 905 1837 0
-299 -479 0
-299 -1402 0
-479 -1402 0
299 479 1402 0
-680 -1375 0
-680 -1462 0
-1375 -1462 0
680 1375 1462 0
-720 -1000 0
-720 -1423 0
-1000 -1423 0
720 1000 1423 0
-1212 -1838 0
-1212 -1839 0
-1838 -1839 0
1212 1838 1839 0
-850 -1294 0
-850 -1840 0
-1294 -1840 0
850 1294 1840 0
-414 -1429 0
-414 -1841 0
-1429 -1841 0
414 1429 1841 0
-20 -1785 0
-20 -1842 0
-1785 -1842 0
20 1785 1842 0
-155 -961 0
-155 -1843 0
-961 -1843 0
155 961 1843 0
-1268 -1279 0
-1268 -1789 0
-1279 -1789 0
1268 1279 1789 0
-911 -1680 0
-911 -1692 0
-1680 -1692 0
911 1680 1692 0
-1750 -1840 0
-1750 -1844 0
-1840 -1844 0
1750 1840 1844 0
-1261 -1747 0
-1261 -1782 0
-1747 -1782 0
1261 1747 1782 0
-1308 -1818 0
-1308 -1845 0
-1818 -1845 0
1308 1818 1845 0
-1119 -1515 0
-1119 -1846 0
-1515 -1846 0
1119 1515 1846 0
-755 -1305 0
-755 -1800 0
-1305 -1800 0
755 1305 1800 0
-180 -1635 0
-180 -1847 0
-1635 -1847 0
180 1635 1847 0
-198 -624 0
-198 -1521 0
-624 -1521 0
198 624 1521 0
-1508 -1608 0
-1508 -1738 0
-1608 -1738 0
1508 1608 1738 0
-1133 -1522 0
-1133 -1714 0
-1522 -1714 0
1133 1522 1714 0
-1262 -1566 0
-1262 -1848 0
-1566 -1848 0
1262 1566 1848 0
-161 -725 0
-161 -851 0
-725 -851 0
161 725 851 0
-374 -1481 0
-374 -1849 0
-1481 -1849 0
374 1481 1849 0
-1032 -1173 0
-1032 -1361 0
-1173 -1361 0
1032 1173 1361 0
-557 -1822 0
-557 -1850 0
-1822 -1850 0
557 1822 1850 0
-129 -936 0
-129 -1700 0
-936 -1700 0
129 936 1700 0
-1005 -1739 0
-1005 -1741 0
-1739 -1741 0
1005 1739 1741 0
-1752 -1851 0
-1752 -1852 0
-1851 -1852 0
1752 1851 1852 0
-435 -1349 0
-435 -1667 0
-1349 -1667 0
435 1349 1667 0
-1853 -1854 0
-1853 -1855 0
-1854 -1855 0
1853 1854 1855 0
-454 -783 0
-454 -1723 0
-783 -1723 0
454 783 1723 0
-526 -1416 0
-526 -1473 0
-1416 -1473 0
526 1416 1473 0
-61 -77 0
-61 -1786 0
-77 -1786 0
61 77 1786 0
-221 -670 0
-221 -1856 0
-670 -1856 0
221 670 1856 0
-1290 -1417 0
-1290 -1465 0
-1417 -1465 0
1290 1417 1465 0
-1362 -1857 0
-1362 -1858 0
-1857 -1858 0
1362 1857 1858 0
-915 -1810 0
-915 -1859 0
-1810 -1859 0
915 1810 1859 0
-762 -1230 0
-762 -1860 0
-1230 -1860 0
762 1230 1860 0
-294 -1826 0
-294 -1861 0
-1826 -1861 0
294 1826 1861 0
-1560 -1792 0
-1560 -1807 0
-1792 -1807 0
1560 1792 1807 0
-586 -671 0
-586 -956 0
-671 -956 0
586 671 956 0
-334 -1097 0
-334 -1277 0
-1097 -1277 0
334 1097 1277 0
-465 -1857 0
-465 -1862 0
-1857 -1862 0
465 1857 1862 0
-42 -1102 0
-42 -1699 0
-1102 -1699 0
42 1102 1699 0
-929 -1008 0
-929 -1176 0
-1008 -1176 0
929 1008 1176 0
-1620 -1795 0
-1620 -1863 0
-1795 -1863 0
1620 1795 1863 0
-1080 -1864 0
-1080 -1865 0
-1864 -1865 0
1080 1864 1865 0
-168 -523 0
-168 -1866 0
-523 -1866 0
168 523 1866 0
-250 -1171 0
-250 -1866 0
-1171 -1866 0
250 1171 1866 0
-495 -976 0
-495 -1339 0
-976 -1339 0
495 976 1339 0
-1376 -1559 0
-1376 -1832 0
-1559 -1832 0
1376 1559 1832 0
-553 -1817 0
-553 -1867 0
-1817 -1867 0
553 1817 1867 0
-1137 -1458 0
-1137 -1775 0
-1458 -1775 0
1137 1458 1775 0
-418 -1399 0
-418 -1569 0
-1399 -1569 0
418 1399 1569 0
-356 -1658 0
-356 -1809 0
-1658 -1809 0
356 1658 1809 0
-466 -1803 0
-466 -1868 0
-1803 -1868 0
466 1803 1868 0
-626 -1056 0
-626 -1851 0
-1056 -1851 0
626 1056 1851 0
-543 -1432 0
-543 -1592 0
-1432 -1592 0
543 1432 1592 0
-459 -1195 0
-459 -1827 0
-1195 -1827 0
459 1195 1827 0
-85 -247 0
-85 -744 0
-247 -744 0
85 247 744 0
-1422 -1661 0
-1422 -1869 0
-1661 -1869 0
1422 1661 1869 0
-512 -1179 0
-512 -1590 0
-1179 -1590 0
512 1179 1590 0
-12 -1274 0
-12 -1628 0
-1274 -1628 0
12 1274 1628 0
-560 -830 0
-560 -1424 0
-830 -1424 0
560 830 1424 0
-1329 -1766 0
-1329 -1870 0
-1766 -1870 0
1329 1766 1870 0
-1574 -1744 0
-1574 -1820 0
-1744 -1820 0
1574 1744 1820 0
-1790 -1805 0
-1790 -1824 0
-1805 -1824 0
1790 1805 1824 0
-235 -925 0
-235 -1871 0
-925 -1871 0
235 925 1871 0
-193 -1607 0
-193 -1740 0
-1607 -1740 0
193 1607 1740 0
-1029 -1715 0
-1029 -1742 0
-1715 -1742 0
1029 1715 1742 0
-340 -1788 0
-340 -1860 0
-1788 -1860 0
340 1788 1860 0
-309 -385 0
-309 -846 0
-385 -846 0
309 385 846 0
-1697 -1841 0
-1697 -1872 0
-1841 -1872 0
1697 1841 1872 0
-909 -1768 0
-909 -1853 0
-1768 -1853 0
909 1768 1853 0
-1333 -1356 0
-1333 -1682 0
-1356 -1682 0
1333 1356 1682 0
-843 -1829 0
-843 -1858 0
-1829 -1858 0
843 1829 1858 0
-267 -1063 0
-267 -1124 0
-1063 -1124 0
267 1063 1124 0
-1664 -1671 0
-1664 -1873 0
-1671 -1873 0
1664 1671 1873 0
-146 -1094 0
-146 -1104 0
-1094 -1104 0
146 1094 1104 0
-1874 -1875 0
-1874 -1876 0
-1875 -1876 0
1874 1875 1876 0
-567 -1536 0
-567 -1688 0
-1536 -1688 0
567 1536 1688 0
-985 -1075 0
-985 -1862 0
-1075 -1862 0
985 1075 1862 0
-261 -1012 0
-261 -1776 0
-1012 -1776 0
261 1012 1776 0
-776 -1619 0
-776 -1726 0
-1619 -1726 0
776 1619 1726 0
-1383 -1632 0
-1383 -1877 0
-1632 -1877 0
1383 1632 1877 0
-335 -1729 0
-335 -1861 0
-1729 -1861 0
335 1729 1861 0
-307 -654 0
-307 -1878 0
-654 -1878 0
307 654 1878 0
-1146 -1746 0
-1146 -1760 0
-1746 -1760 0
1146 1746 1760 0
-896 -1856 0
-896 -1879 0
-1856 -1879 0
896 1856 1879 0
-82 -1089 0
-82 -1573 0
-1089 -1573 0
82 1089 1573 0
-982 -1420 0
-982 -1880 0
-1420 -1880 0
982 1420 1880 0
-685 -1215 0
-685 -1881 0
-1215 -1881 0
685 1215 1881 0
-1387 -1749 0
-1387 -1882 0
-1749 -1882 0
1387 1749 1882 0
-1081 -1634 0
-1081 -1825 0
-1634 -1825 0
1081 1634 1825 0
-962 -1633 0
-962 -1665 0
-1633 -1665 0
962 1633 1665 0
-825 -927 0
-825 -1883 0
-927 -1883 0
825 927 1883 0
-188 -513 0
-188 -1509 0
-513 -1509 0
188 513 1509 0
-62 -1765 0
-62 -1884 0
-1765 -1884 0
62 1765 1884 0
-158 -535 0
-158 -1334 0
-535 -1334 0
158 535 1334 0
-1596 -1654 0
-1596 -1885 0
-1654 -1885 0
1596 1654 1885 0
-703 -1821 0
-703 -1859 0
-1821 -1859 0
703 1821 1859 0
-1444 -1886 0
-1444 -1887 0
-1886 -1887 0
1444 1886 1887 0
-1764 -1804 0
-1764 -1888 0
-1804 -1888 0
1764 1804 1888 0
-230 -365 0
-230 -1272 0
-365 -1272 0
230 365 1272 0
-979 -1216 0
-979 -1685 0
-1216 -1685 0
979 1216 1685 0
-1493 -1626 0
-1493 -1683 0
-1626 -1683 0
1493 1626 1683 0
-428 -1549 0
-428 -1605 0
-1549 -1605 0
428 1549 1605 0
-549 -1330 0
-549 -1889 0
-1330 -1889 0
549 1330 1889 0
-1762 -1890 0
-1762 -1891 0
-1890 -1891 0
1762 1890 1891 0
-1734 -1892 0
-1734 -1893 0
-1892 -1893 0
1734 1892 1893 0
-289 -595 0
-289 -1676 0
-595 -1676 0
289 595 1676 0
-1239 -1320 0
-1239 -1603 0
-1320 -1603 0
1239 1320 1603 0
-765 -1263 0
-765 -1894 0
-1263 -1894 0
765 1263 1894 0
-120 -264 0
-120 -853 0
-264 -853 0
120 264 853 0
-653 -1091 0
-653 -1642 0
-1091 -1642 0
653 1091 1642 0
-152 -922 0
-152 -1051 0
-922 -1051 0
152 922 1051 0
-608 -1042 0
-608 -1125 0
-1042 -1125 0
608 1042 1125 0
-429 -1354 0
-429 -1510 0
-1354 -1510 0
429 1354 1510 0
-286 -1621 0
-286 -1816 0
-1621 -1816 0
286 1621 1816 0
-699 -1278 0
-699 -1370 0
-1278 -1370 0
699 1278 1370 0
-906 -1059 0
-906 -1701 0
-1059 -1701 0
906 1059 1701 0
-377 -1280 0
-377 -1630 0
-1280 -1630 0
377 1280 1630 0
-689 -1704 0
-689 -1895 0
-1704 -1895 0
689 1704 1895 0
-870 -1318 0
-870 -1798 0
-1318 -1798 0
870 1318 1798 0
-1241 -1297 0
-1241 -1896 0
-1297 -1896 0
1241 1297 1896 0
-138 -992 0
-138 -1884 0
-992 -1884 0
138 992 1884 0
-800 -1878 0
-800 -1897 0
-1878 -1897 0
800 1878 1897 0
-1321 -1594 0
-1321 -1898 0
-1594 -1898 0
1321 1594 1898 0
-393 -1668 0
-393 -1847 0
-1668 -1847 0
393 1668 1847 0
-486 -749 0
-486 -1899 0
-749 -1899 0
486 749 1899 0
-194 -768 0
-194 -1898 0
-768 -1898 0
194 768 1898 0
-446 -1149 0
-446 -1879 0
-1149 -1879 0
446 1149 1879 0
-672 -1266 0
-672 -1677 0
-1266 -1677 0
672 1266 1677 0
-1026 -1892 0
-1026 -1900 0
-1892 -1900 0
1026 1892 1900 0
-1181 -1358 0
-1181 -1854 0
-1358 -1854 0
1181 1358 1854 0
-390 -1636 0
-390 -1855 0
-1636 -1855 0
390 1636 1855 0
-176 -1160 0
-176 -1369 0
-1160 -1369 0
176 1160 1369 0
-1901 -1902 0
-1901 -1903 0
-1902 -1903 0
1901 1902 1903 0
-3 -504 0
-3 -575 0
-504 -575 0
3 504 575 0
-808 -1165 0
-808 -1904 0
-1165 -1904 0
808 1165 1904 0
-258 -1867 0
-258 -1905 0
-1867 -1905 0
258 1867 1905 0
-1627 -1793 0
-1627 -1872 0
-1793 -1872 0
1627 1793 1872 0
-490 -1906 0
-490 -1907 0
-1906 -1907 0
490 1906 1907 0
-1046 -1324 0
-1046 -1505 0
-1324 -1505 0
1046 1324 1505 0
-958 -1223 0
-958 -1476 0
-1223 -1476 0
958 1223 1476 0
-283 -396 0
-283 -1850 0
-396 -1850 0
283 396 1850 0
-1071 -1336 0
-1071 -1908 0
-1336 -1908 0
1071 1336 1908 0
-717 -998 0
-717 -1675 0
-998 -1675 0
717 998 1675 0
-831 -1757 0
-831 -1895 0
-1757 -1895 0
831 1757 1895 0
-59 -1407 0
-59 -1845 0
-1407 -1845 0
59 1407 1845 0
-338 -1403 0
-338 -1770 0
-1403 -1770 0
338 1403 1770 0
-1257 -1500 0
-1257 -1751 0
-1500 -1751 0
1257 1500 1751 0
-975 -1385 0
-975 -1514 0
-1385 -1514 0
975 1385 1514 0
-678 -1287 0
-678 -1379 0
-1287 -1379 0
678 1287 1379 0
-1331 -1808 0
-1331 -1909 0
-1808 -1909 0
1331 1808 1909 0
-121 -1397 0
-121 -1842 0
-1397 -1842 0
121 1397 1842 0
-750 -1848 0
-750 -1910 0
-1848 -1910 0
750 1848 1910 0
-1086 -1828 0
-1086 -1846 0
-1828 -1846 0
1086 1828 1846 0
-443 -673 0
-443 -1264 0
-673 -1264 0
443 673 1264 0
-186 -1813 0
-186 -1906 0
-1813 -1906 0
186 1813 1906 0
-1431 -1601 0
-1431 -1900 0
-1601 -1900 0
1431 1601 1900 0
-275 -1542 0
-275 -1778 0
-1542 -1778 0
275 1542 1778 0
-358 -1174 0
-358 -1838 0
-1174 -1838 0
358 1174 1838 0
-238 -457 0
-238 -1911 0
-457 -1911 0
238 457 1911 0
-726 -1844 0
-726 -1868 0
-1844 -1868 0
726 1844 1868 0
-21 -554 0
-21 -791 0
-554 -791 0
21 554 791 0
-259 -933 0
-259 -1048 0
-933 -1048 0
259 933 1048 0
-550 -1572 0
-550 -1638 0
-1572 -1638 0
550 1572 1638 0
-1343 -1544 0
-1343 -1640 0
-1544 -1640 0
1343 1544 1640 0
-277 -1484 0
-277 -1772 0
-1484 -1772 0
277 1484 1772 0
-518 -1874 0
-518 -1912 0
-1874 -1912 0
518 1874 1912 0
-1875 -1889 0
-1875 -1913 0
-1889 -1913 0
1875 1889 1913 0
-123 -1577 0
-123 -1724 0
-1577 -1724 0
123 1577 1724 0
-9 -996 0
-9 -1852 0
-996 -1852 0
9 996 1852 0
-854 -912 0
-854 -1672 0
-912 -1672 0
854 912 1672 0
-701 -1584 0
-701 -1681 0
-1584 -1681 0
701 1584 1681 0
-708 -1364 0
-708 -1870 0
-1364 -1870 0
708 1364 1870 0
-837 -997 0
-837 -1531 0
-997 -1531 0
837 997 1531 0
-986 -1489 0
-986 -1869 0
-1489 -1869 0
986 1489 1869 0
-135 -1110 0
-135 -1659 0
-1110 -1659 0
135 1110 1659 0
-1496 -1499 0
-1496 -1899 0
-1499 -1899 0
1496 1499 1899 0
-300 -359 0
-300 -1501 0
-359 -1501 0
300 359 1501 0
-177 -1386 0
-177 -1833 0
-1386 -1833 0
177 1386 1833 0
-1108 -1494 0
-1108 -1819 0
-1494 -1819 0
1108 1494 1819 0
-629 -1883 0
-629 -1914 0
-1883 -1914 0
629 1883 1914 0
-1163 -1450 0
-1163 -1915 0
-1450 -1915 0
1163 1450 1915 0
-839 -879 0
-839 -1830 0
-879 -1830 0
839 879 1830 0
-1067 -1910 0
-1067 -1916 0
-1910 -1916 0
1067 1910 1916 0
-91 -1136 0
-91 -1730 0
-1136 -1730 0
91 1136 1730 0
-191 -1641 0
-191 -1708 0
-1641 -1708 0
191 1641 1708 0
-777 -1702 0
-777 -1911 0
-1702 -1911 0
777 1702 1911 0
-1411 -1415 0
-1411 -1897 0
-1415 -1897 0
1411 1415 1897 0
-1426 -1570 0
-1426 -1917 0
-1570 -1917 0
1426 1570 1917 0
-1595 -1905 0
-1595 -1918 0
-1905 -1918 0
1595 1905 1918 0
-907 -1837 0
-907 -1896 0
-1837 -1896 0
907 1837 1896 0
-1236 -1797 0
-1236 -1835 0
-1797 -1835 0
1236 1797 1835 0
-977 -1913 0
-977 -1916 0
-1913 -1916 0
977 1913 1916 0
-419 -1498 0
-419 -1907 0
-1498 -1907 0
419 1498 1907 0
-1363 -1555 0
-1363 -1779 0
-1555 -1779 0
1363 1555 1779 0
-646 -1773 0
-646 -1919 0
-1773 -1919 0
646 1773 1919 0
-930 -1213 0
-930 -1774 0
-1213 -1774 0
930 1213 1774 0
-546 -1282 0
-546 -1409 0
-1282 -1409 0
546 1282 1409 0
-971 -1027 0
-971 -1319 0
-1027 -1319 0
971 1027 1319 0
-1219 -1355 0
-1219 -1812 0
-1355 -1812 0
1219 1355 1812 0
-1011 -1597 0
-1011 -1662 0
-1597 -1662 0
1011 1597 1662 0
-1448 -1876 0
-1448 -1904 0
-1876 -1904 0
1448 1876 1904 0
-1092 -1689 0
-1092 -1823 0
-1689 -1823 0
1092 1689 1823 0
-516 -756 0
-516 -1890 0
-756 -1890 0
516 756 1890 0
-444 -627 0
-444 -1434 0
-627 -1434 0
444 627 1434 0
-882 -1123 0
-882 -1512 0
-1123 -1512 0
882 1123 1512 0
-424 -1811 0
-424 -1893 0
-1811 -1893 0
424 1811 1893 0
-1109 -1138 0
-1109 -1839 0
-1138 -1839 0
1109 1138 1839 0
-647 -732 0
-647 -1888 0
-732 -1888 0
647 732 1888 0
-592 -1161 0
-592 -1748 0
-1161 -1748 0
592 1161 1748 0
-196 -1183 0
-196 -1534 0
-1183 -1534 0
196 1183 1534 0
-1801 -1877 0
-1801 -1882 0
-1877 -1882 0
1801 1877 1882 0
-1604 -1759 0
-1604 -1781 0
-1759 -1781 0
1604 1759 1781 0
-759 -1539 0
-759 -1745 0
-1539 -1745 0
759 1539 1745 0
-227 -1725 0
-227 -1771 0
-1725 -1771 0
227 1725 1771 0
-1684 -1690 0
-1684 -1732 0
-1690 -1732 0
1684 1690 1732 0
-1009 -1437 0
-1009 -1758 0
-1437 -1758 0
1009 1437 1758 0
-6 -30 0
-6 -1891 0
-30 -1891 0
6 30 1891 0
-1553 -1831 0
-1553 -1843 0
-1831 -1843 0
1553 1831 1843 0
-902 -1254 0
-902 -1655 0
-1254 -1655 0
902 1254 1655 0
-199 -1814 0
-199 -1886 0
-1814 -1886 0
199 1814 1886 0
-644 -1076 0
-644 -1467 0
-1076 -1467 0
644 1076 1467 0
-449 -1537 0
-449 -1585 0
-1537 -1585 0
449 1537 1585 0
-1645 -1649 0
-1645 -1915 0
-1649 -1915 0
1645 1649 1915 0
-1043 -1696 0
-1043 -1918 0
-1696 -1918 0
1043 1696 1918 0
-262 -1116 0
-262 -1834 0
-1116 -1834 0
262 1116 1834 0
-1217 -1864 0
-1217 -1881 0
-1864 -1881 0
1217 1864 1881 0
-584 -1365 0
-584 -1693 0
-1365 -1693 0
584 1365 1693 0
-1166 -1646 0
-1166 -1901 0
-1646 -1901 0
1166 1646 1901 0
-253 -1249 0
-253 -1647 0
-1249 -1647 0
253 1249 1647 0
-18 -426 0
-18 -1120 0
-426 -1120 0
18 426 1120 0
-631 -1902 0
-631 -1920 0
-1902 -1920 0
631 1902 1920 0
-292 -460 0
-292 -1413 0
-460 -1413 0
292 460 1413 0
-353 -551 0
-353 -1909 0
-551 -1909 0
353 551 1909 0
-1049 -1524 0
-1049 -1578 0
-1524 -1578 0
1049 1524 1578 0
-1069 -1836 0
-1069 -1887 0
-1836 -1887 0
1069 1836 1887 0
-1205 -1606 0
-1205 -1880 0
-1606 -1880 0
1205 1606 1880 0
-312 -402 0
-312 -1265 0
-402 -1265 0
312 402 1265 0
-1686 -1705 0
-1686 -1919 0
-1705 -1919 0
1686 1705 1919 0
-639 -1430 0
-639 -1460 0
-1430 -1460 0
639 1430 1460 0
-1193 -1777 0
-1193 -1863 0
-1777 -1863 0
1193 1777 1863 0
-572 -1033 0
-572 -1669 0
-1033 -1669 0
572 1033 1669 0
-696 -1147 0
-696 -1912 0
-1147 -1912 0
696 1147 1912 0
-1451 -1487 0
-1451 -1720 0
-1487 -1720 0
1451 1487 1720 0
-691 -816 0
-691 -1611 0
-816 -1611 0
691 816 1611 0
-1159 -1849 0
-1159 -1871 0
-1849 -1871 0
1159 1849 1871 0
-801 -1713 0
-801 -1894 0
-1713 -1894 0
801 1713 1894 0
-1885 -1903 0
-1885 -1920 0
-1903 -1920 0
1885 1903 1920 0
-272 -729 0
-272 -1111 0
-729 -1111 0
272 729 1111 0
-818 -1322 0
-818 -1815 0
-1322 -1815 0
818 1322 1815 0
-343 -1210 0
-343 -1865 0
-1210 -1865 0
343 1210 1865 0
-1405 -1784 0
-1405 -1908 0
-1784 -1908 0
1405 1784 1908 0
-1398 -1873 0
-1398 -1914 0
-1873 -1914 0
1398 1873 1914 0
-1666 -1717 0
-1666 -1917 0
-1717 -1917 0
1666 1717 1917 0
