c description: Perfect Matching Principle on random 3-regular graph on 160 verices
c generator: CNFgen (0.9.6)
c copyright: (C) 2012-2026 Massimo Lauria <massimo.lauria@uniroma1.it>
c url: https://massimolauria.net/cnfgen
c command line: cnfgen matching gnd 160 3
c
p cnf 240 640
-1 -2 0
-1 -3 0
-2 -3 0
1 2 3 0
-4 -5 0
-4 -6 0
-5 -6 0
4 5 6 0
-1 -7 0
-1 -8 0
-7 -8 0
1 7 8 0
-9 -10 0
-9 -11 0
-10 -11 0
9 10 11 0
-9 -12 0
-9 -13 0
-12 -13 0
9 12 13 0
-14 -15 0
-14 -16 0
-15 -16 0
14 15 16 0
-17 -18 0
-17 -19 0
-18 -19 0
17 18 19 0
-20 -21 0
-20 -22 0
-21 -22 0
20 21 22 0
-23 -24 0
-23 -25 0
-24 -25 0
23 24 25 0
-26 -27 0
-26 -28 0
-27 -28 0
26 27 28 0
-29 -30 0
-29 -31 0
-30 -31 0
29 30 31 0
-32 -33 0
-32 -34 0
-33 -34 0
32 33 34 0
-35 -36 0
-35 -37 0
-36 -37 0
35 36 37 0
-38 -39 0
-38 -40 0
-39 -40 0
38 39 40 0
-41 -42 0
-41 -43 0
-42 -43 0
41 42 43 0
-44 -45 0
-44 -46 0
-45 -46 0
44 45 46 0
-47 -48 0
-47 -49 0
-48 -49 0
47 48 49 0
-4 -50 0
-4 -51 0
-50 -51 0
4 50 51 0
-52 -53 0
-52 -54 0
-53 -54 0
52 53 54 0
-12 -55 0
-12 -56 0
-55 -56 0
12 55 56 0
-57 -58 0
-57 -59 0
-58 -59 0
57 58 59 0
-60 -61 0
-60 -62 0
-61 -62 0
60 61 62 0
-63 -64 0
-63 -65 0
-64 -65 0
63 64 65 0
-66 -67 0
-66 -68 0
-67 -68 0
66 67 68 0
-69 -70 0
-69 -71 0
-70 -71 0
69 70 71 0
-72 -73 0
-72 -74 0
-73 -74 0
72 73 74 0
-44 -75 0
-44 -76 0
-75 -76 0
44 75 76 0
-77 -78 0
-77 -79 0
-78 -79 0
77 78 79 0
-32 -80 0
-32 -81 0
-80 -81 0
32 80 81 0
-82 -83 0
-82 -84 0
-83 -84 0
82 83 84 0
-69 -85 0
-69 -86 0
-85 -86 0
69 85 86 0
-87 -88 0
-87 -89 0
-88 -89 0
87 88 89 0
-70 -90 0
-70 -91 0
-90 -91 0
70 90 91 0
-92 -93 0
-92 -94 0
-93 -94 0
92 93 94 0
-95 -96 0
-95 -97 0
-96 -97 0
95 96 97 0
-41 -98 0
-41 -99 0
-98 -99 0
41 98 99 0
-7 -100 0
-7 -101 0
-100 -101 0
7 100 101 0
-102 -103 0
-102 -104 0
-103 -104 0
102 103 104 0
-80 -105 0
-80 -106 0
-105 -106 0
80 105 106 0
-107 -108 0
-107 -109 0
-108 -109 0
107 108 109 0
-20 -110 0
-20 -111 0
-110 -111 0
20 110 111 0
-57 -112 0
-57 -113 0
-112 -113 0
57 112 113 0
-29 -114 0
-29 -115 0
-114 -115 0
29 114 115 0
-63 -116 0
-63 -117 0
-116 -117 0
63 116 117 0
-87 -118 0
-87 -119 0
-118 -119 0
87 118 119 0
-120 -121 0
-120 -122 0
-121 -122 0
120 121 122 0
-123 -124 0
-123 -125 0
-124 -125 0
123 124 125 0
-75 -126 0
-75 -127 0
-126 -127 0
75 126 127 0
-64 -128 0
-64 -129 0
-128 -129 0
64 128 129 0
-72 -118 0
-72 -130 0
-118 -130 0
72 118 130 0
-42 -126 0
-42 -131 0
-126 -131 0
42 126 131 0
-132 -133 0
-132 -134 0
-133 -134 0
132 133 134 0
-135 -136 0
-135 -137 0
-136 -137 0
135 136 137 0
-105 -107 0
-105 -138 0
-107 -138 0
105 107 138 0
-2 -131 0
-2 -139 0
-131 -139 0
2 131 139 0
-140 -141 0
-140 -142 0
-141 -142 0
140 141 142 0
-77 -143 0
-77 -144 0
-143 -144 0
77 143 144 0
-95 -132 0
-95 -145 0
-132 -145 0
95 132 145 0
-146 -147 0
-146 -148 0
-147 -148 0
146 147 148 0
-92 -102 0
-92 -133 0
-102 -133 0
92 102 133 0
-43 -85 0
-43 -149 0
-85 -149 0
43 85 149 0
-150 -151 0
-150 -152 0
-151 -152 0
150 151 152 0
-10 -88 0
-10 -106 0
-88 -106 0
10 88 106 0
-153 -154 0
-153 -155 0
-154 -155 0
153 154 155 0
-156 -157 0
-156 -158 0
-157 -158 0
156 157 158 0
-116 -159 0
-116 -160 0
-159 -160 0
116 159 160 0
-114 -138 0
-114 -150 0
-138 -150 0
114 138 150 0
-161 -162 0
-161 -163 0
-162 -163 0
161 162 163 0
-156 -164 0
-156 -165 0
-164 -165 0
156 164 165 0
-117 -140 0
-117 -166 0
-140 -166 0
117 140 166 0
-5 -128 0
-5 -167 0
-128 -167 0
5 128 167 0
-35 -168 0
-35 -169 0
-168 -169 0
35 168 169 0
-93 -146 0
-93 -170 0
-146 -170 0
93 146 170 0
-26 -82 0
-26 -171 0
-82 -171 0
26 82 171 0
-55 -172 0
-55 -173 0
-172 -173 0
55 172 173 0
-172 -174 0
-172 -175 0
-174 -175 0
172 174 175 0
-120 -176 0
-120 -177 0
-176 -177 0
120 176 177 0
-178 -179 0
-178 -180 0
-179 -180 0
178 179 180 0
-89 -100 0
-89 -181 0
-100 -181 0
89 100 181 0
-17 -147 0
-17 -182 0
-147 -182 0
17 147 182 0
-27 -183 0
-27 -184 0
-183 -184 0
27 183 184 0
-30 -135 0
-30 -170 0
-135 -170 0
30 135 170 0
-60 -90 0
-60 -185 0
-90 -185 0
60 90 185 0
-8 -129 0
-8 -153 0
-129 -153 0
8 129 153 0
-52 -186 0
-52 -187 0
-186 -187 0
52 186 187 0
-154 -188 0
-154 -189 0
-188 -189 0
154 188 189 0
-190 -191 0
-190 -192 0
-191 -192 0
190 191 192 0
-66 -193 0
-66 -194 0
-193 -194 0
66 193 194 0
-38 -83 0
-38 -195 0
-83 -195 0
38 83 195 0
-3 -161 0
-3 -196 0
-161 -196 0
3 161 196 0
-168 -186 0
-168 -197 0
-186 -197 0
168 186 197 0
-188 -198 0
-188 -199 0
-198 -199 0
188 198 199 0
-73 -134 0
-73 -178 0
-134 -178 0
73 134 178 0
-50 -98 0
-50 -200 0
-98 -200 0
50 98 200 0
-86 -121 0
-86 -201 0
-121 -201 0
86 121 201 0
-143 -202 0
-143 -203 0
-202 -203 0
143 202 203 0
-115 -149 0
-115 -171 0
-149 -171 0
115 149 171 0
-58 -204 0
-58 -205 0
-204 -205 0
58 204 205 0
-84 -190 0
-84 -206 0
-190 -206 0
84 190 206 0
-136 -197 0
-136 -207 0
-197 -207 0
136 197 207 0
-71 -208 0
-71 -209 0
-208 -209 0
71 208 209 0
-39 -61 0
-39 -210 0
-61 -210 0
39 61 210 0
-21 -151 0
-21 -211 0
-151 -211 0
21 151 211 0
-164 -210 0
-164 -212 0
-210 -212 0
164 210 212 0
-22 -195 0
-22 -213 0
-195 -213 0
22 195 213 0
-141 -162 0
-141 -214 0
-162 -214 0
141 162 214 0
-36 -183 0
-36 -215 0
-183 -215 0
36 183 215 0
-67 -216 0
-67 -217 0
-216 -217 0
67 216 217 0
-127 -167 0
-127 -189 0
-167 -189 0
127 167 189 0
-103 -159 0
-103 -174 0
-159 -174 0
103 159 174 0
-187 -196 0
-187 -204 0
-196 -204 0
187 196 204 0
-47 -91 0
-47 -218 0
-91 -218 0
47 91 218 0
-144 -219 0
-144 -220 0
-219 -220 0
144 219 220 0
-13 -216 0
-13 -221 0
-216 -221 0
13 216 221 0
-173 -222 0
-173 -223 0
-222 -223 0
173 222 223 0
-45 -94 0
-45 -224 0
-94 -224 0
45 94 224 0
-148 -163 0
-148 -213 0
-163 -213 0
148 163 213 0
-179 -182 0
-179 -198 0
-182 -198 0
179 182 198 0
-157 -202 0
-157 -225 0
-202 -225 0
157 202 225 0
-104 -180 0
-104 -191 0
-180 -191 0
104 180 191 0
-28 -112 0
-28 -139 0
-112 -139 0
28 112 139 0
-145 -165 0
-145 -226 0
-165 -226 0
145 165 226 0
-56 -123 0
-56 -152 0
-123 -152 0
56 123 152 0
-37 -48 0
-37 -227 0
-48 -227 0
37 48 227 0
-158 -208 0
-158 -228 0
-208 -228 0
158 208 228 0
-217 -222 0
-217 -229 0
-222 -229 0
217 222 229 0
-78 -209 0
-78 -224 0
-209 -224 0
78 209 224 0
-211 -230 0
-211 -231 0
-230 -231 0
211 230 231 0
-18 -110 0
-18 -113 0
-110 -113 0
18 110 113 0
-14 -219 0
-14 -229 0
-219 -229 0
14 219 229 0
-11 -51 0
-11 -227 0
-51 -227 0
11 51 227 0
-15 -122 0
-15 -232 0
-122 -232 0
15 122 232 0
-205 -228 0
-205 -233 0
-228 -233 0
205 228 233 0
-199 -206 0
-199 -234 0
-206 -234 0
199 206 234 0
-169 -235 0
-169 -236 0
-235 -236 0
169 235 236 0
-49 -160 0
-49 -221 0
-160 -221 0
49 160 221 0
-33 -59 0
-33 -212 0
-59 -212 0
33 59 212 0
-166 -233 0
-166 -235 0
-233 -235 0
166 233 235 0
-46 -176 0
-46 -237 0
-176 -237 0
46 176 237 0
-31 -137 0
-31 -234 0
-137 -234 0
31 137 234 0
-108 -130 0
-108 -230 0
-130 -230 0
108 130 230 0
-124 -207 0
-124 -218 0
-207 -218 0
124 207 218 0
-53 -62 0
-53 -238 0
-62 -238 0
53 62 238 0
-74 -181 0
-74 -236 0
-181 -236 0
74 181 236 0
-79 -125 0
-79 -142 0
-125 -142 0
79 125 142 0
-101 -111 0
-101 -155 0
-111 -155 0
101 111 155 0
-34 -68 0
-34 -232 0
-68 -232 0
34 68 232 0
-16 -40 0
-16 -238 0
-40 -238 0
16 40 238 0
-23 -96 0
-23 -239 0
-96 -239 0
23 96 239 0
-19 -24 0
-19 -200 0
-24 -200 0
19 24 200 0
-65 -185 0
-65 -226 0
-185 -226 0
65 185 226 0
-109 -193 0
-109 -240 0
-193 -240 0
109 193 240 0
-119 -201 0
-119 -223 0
-201 -223 0
119 201 223 0
-76 -177 0
-76 -239 0
-177 -239 0
76 177 239 0
-81 -175 0
-81 -194 0
-175 -194 0
81 175 194 0
-25 -203 0
-25 -237 0
-203 -237 0
25 203 237 0
-99 -214 0
-99 -231 0
-214 -231 0
99 214 231 0
-97 -192 0
-97 -220 0
-192 -220 0
97 192 220 0
-215 -225 0
-215 -240 0
-225 -240 0
215 225 240 0
-6 -54 0
-6 -184 0
-54 -184 0
6 54 184 0
