c description: Perfect Matching Principle on random 3-regular graph on 2560 verices
c generator: CNFgen (0.9.6)
c copyright: (C) 2012-2026 Massimo Lauria <massimo.lauria@uniroma1.it>
c url: https://massimolauria.net/cnfgen
c command line: cnfgen matching gnd 2560 3
c
p cnf 3840 10240
-1 -2 0
-1 -3 0
-2 -3 0
1 2 3 0
-4 -5 0
-4 -6 0
-5 -6 0
4 5 6 0
-7 -8 0
-7 -9 0
-8 -9 0
7 8 9 0
-10 -11 0
-10 -12 0
-11 -12 0
10 11 12 0
-13 -14 0
-13 -15 0
-14 -15 0
13 14 15 0
-16 -17 0
-16 -18 0
-17 -18 0
16 17 18 0
-19 -20 0
-19 -21 0
-20 -21 0
19 20 21 0
-22 -23 0
-22 -24 0
-23 -24 0
22 23 24 0
-25 -26 0
-25 -27 0
-26 -27 0
25 26 27 0
-28 -29 0
-28 -30 0
-29 -30 0
28 29 30 0
-31 -32 0
-31 -33 0
-32 -33 0
31 32 33 0
-34 -35 0
-34 -36 0
-35 -36 0
34 35 36 0
-37 -38 0
-37 -39 0
-38 -39 0
37 38 39 0
-40 -41 0
-40 -42 0
-41 -42 0
40 41 42 0
-43 -44 0
-43 -45 0
-44 -45 0
43 44 45 0
-46 -47 0
-46 -48 0
-47 -48 0
46 47 48 0
-49 -50 0
-49 -51 0
-50 -51 0
49 50 51 0
-52 -53 0
-52 -54 0
-53 -54 0
52 53 54 0
-55 -56 0
-55 -57 0
-56 -57 0
55 56 57 0
-58 -59 0
-58 -60 0
-59 -60 0
58 59 60 0
-61 -62 0
-61 -63 0
-62 -63 0
61 62 63 0
-64 -65 0
-64 -66 0
-65 -66 0
64 65 66 0
-67 -68 0
-67 -69 0
-68 -69 0
67 68 69 0
-70 -71 0
-70 -72 0
-71 -72 0
70 71 72 0
-73 -74 0
-73 -75 0
-74 -75 0
73 74 75 0
-76 -77 0
-76 -78 0
-77 -78 0
76 77 78 0
-79 -80 0
-79 -81 0
-80 -81 0
79 80 81 0
-82 -83 0
-82 -84 0
-83 -84 0
82 83 84 0
-85 -86 0
-85 -87 0
-86 -87 0
85 86 87 0
-88 -89 0
-88 -90 0
-89 -90 0
88 89 90 0
-91 -92 0
-91 -93 0
-92 -93 0
91 92 93 0
-94 -95 0
-94 -96 0
-95 -96 0
94 95 96 0
-13 -97 0
-13 -98 0
-97 -98 0
13 97 98 0
-99 -100 0
-99 -101 0
-100 -101 0
99 100 101 0
-102 -103 0
-102 -104 0
-103 -104 0
102 103 104 0
-105 -106 0
-105 -107 0
-106 -107 0
105 106 107 0
-108 -109 0
-108 -110 0
-109 -110 0
108 109 110 0
-111 -112 0
-111 -113 0
-112 -113 0
111 112 113 0
-114 -115 0
-114 -116 0
-115 -116 0
114 115 116 0
-117 -118 0
-117 -119 0
-118 -119 0
117 118 119 0
-120 -121 0
-120 -122 0
-121 -122 0
120 121 122 0
-1 -123 0
-1 -124 0
-123 -124 0
1 123 124 0
-125 -126 0
-125 -127 0
-126 -127 0
125 126 127 0
-128 -129 0
-128 -130 0
-129 -130 0
128 129 130 0
-131 -132 0
-131 -133 0
-132 -133 0
131 132 133 0
-134 -135 0
-134 -136 0
-135 -136 0
134 135 136 0
-137 -138 0
-137 -139 0
-138 -139 0
137 138 139 0
-140 -141 0
-140 -142 0
-141 -142 0
140 141 142 0
-143 -144 0
-143 -145 0
-144 -145 0
143 144 145 0
-146 -147 0
-146 -148 0
-147 -148 0
146 147 148 0
-149 -150 0
-149 -151 0
-150 -151 0
149 150 151 0
-152 -153 0
-152 -154 0
-153 -154 0
152 153 154 0
-155 -156 0
-155 -157 0
-156 -157 0
155 156 157 0
-158 -159 0
-158 -160 0
-159 -160 0
158 159 160 0
-161 -162 0
-161 -163 0
-162 -163 0
161 162 163 0
-164 -165 0
-164 -166 0
-165 -166 0
164 165 166 0
-167 -168 0
-167 -169 0
-168 -169 0
167 168 169 0
-170 -171 0
-170 -172 0
-171 -172 0
170 171 172 0
-173 -174 0
-173 -175 0
-174 -175 0
173 174 175 0
-52 -176 0
-52 -177 0
-176 -177 0
52 176 177 0
-178 -179 0
-178 -180 0
-179 -180 0
178 179 180 0
-181 -182 0
-181 -183 0
-182 -183 0
181 182 183 0
-184 -185 0
-184 -186 0
-185 -186 0
184 185 186 0
-114 -187 0
-114 -188 0
-187 -188 0
114 187 188 0
-189 -190 0
-189 -191 0
-190 -191 0
189 190 191 0
-192 -193 0
-192 -194 0
-193 -194 0
192 193 194 0
-195 -196 0
-195 -197 0
-196 -197 0
195 196 197 0
-198 -199 0
-198 -200 0
-199 -200 0
198 199 200 0
-201 -202 0
-201 -203 0
-202 -203 0
201 202 203 0
-204 -205 0
-204 -206 0
-205 -206 0
204 205 206 0
-207 -208 0
-207 -209 0
-208 -209 0
207 208 209 0
-210 -211 0
-210 -212 0
-211 -212 0
210 211 212 0
-213 -214 0
-213 -215 0
-214 -215 0
213 214 215 0
-216 -217 0
-216 -218 0
-217 -218 0
216 217 218 0
-219 -220 0
-219 -221 0
-220 -221 0
219 220 221 0
-222 -223 0
-222 -224 0
-223 -224 0
222 223 224 0
-225 -226 0
-225 -227 0
-226 -227 0
225 226 227 0
-228 -229 0
-228 -230 0
-229 -230 0
228 229 230 0
-231 -232 0
-231 -233 0
-232 -233 0
231 232 233 0
-234 -235 0
-234 -236 0
-235 -236 0
234 235 236 0
-237 -238 0
-237 -239 0
-238 -239 0
237 238 239 0
-240 -241 0
-240 -242 0
-241 -242 0
240 241 242 0
-243 -244 0
-243 -245 0
-244 -245 0
243 244 245 0
-246 -247 0
-246 -248 0
-247 -248 0
246 247 248 0
-249 -250 0
-249 -251 0
-250 -251 0
249 250 251 0
-252 -253 0
-252 -254 0
-253 -254 0
252 253 254 0
-255 -256 0
-255 -257 0
-256 -257 0
255 256 257 0
-258 -259 0
-258 -260 0
-259 -260 0
258 259 260 0
-261 -262 0
-261 -263 0
-262 -263 0
261 262 263 0
-264 -265 0
-264 -266 0
-265 -266 0
264 265 266 0
-267 -268 0
-267 -269 0
-268 -269 0
267 268 269 0
-270 -271 0
-270 -272 0
-271 -272 0
270 271 272 0
-273 -274 0
-273 -275 0
-274 -275 0
273 274 275 0
-276 -277 0
-276 -278 0
-277 -278 0
276 277 278 0
-279 -280 0
-279 -281 0
-280 -281 0
279 280 281 0
-134 -282 0
-134 -283 0
-282 -283 0
134 282 283 0
-284 -285 0
-284 -286 0
-285 -286 0
284 285 286 0
-287 -288 0
-287 -289 0
-288 -289 0
287 288 289 0
-290 -291 0
-290 -292 0
-291 -292 0
290 291 292 0
-293 -294 0
-293 -295 0
-294 -295 0
293 294 295 0
-296 -297 0
-296 -298 0
-297 -298 0
296 297 298 0
-299 -300 0
-299 -301 0
-300 -301 0
299 300 301 0
-302 -303 0
-302 -304 0
-303 -304 0
302 303 304 0
-53 -120 0
-53 -305 0
-120 -305 0
53 120 305 0
-306 -307 0
-306 -308 0
-307 -308 0
306 307 308 0
-309 -310 0
-309 -311 0
-310 -311 0
309 310 311 0
-312 -313 0
-312 -314 0
-313 -314 0
312 313 314 0
-315 -316 0
-315 -317 0
-316 -317 0
315 316 317 0
-318 -319 0
-318 -320 0
-319 -320 0
318 319 320 0
-296 -321 0
-296 -322 0
-321 -322 0
296 321 322 0
-323 -324 0
-323 -325 0
-324 -325 0
323 324 325 0
-326 -327 0
-326 -328 0
-327 -328 0
326 327 328 0
-329 -330 0
-329 -331 0
-330 -331 0
329 330 331 0
-332 -333 0
-332 -334 0
-333 -334 0
332 333 334 0
-335 -336 0
-335 -337 0
-336 -337 0
335 336 337 0
-338 -339 0
-338 -340 0
-339 -340 0
338 339 340 0
-341 -342 0
-341 -343 0
-342 -343 0
341 342 343 0
-344 -345 0
-344 -346 0
-345 -346 0
344 345 346 0
-102 -347 0
-102 -348 0
-347 -348 0
102 347 348 0
-349 -350 0
-349 -351 0
-350 -351 0
349 350 351 0
-352 -353 0
-352 -354 0
-353 -354 0
352 353 354 0
-355 -356 0
-355 -357 0
-356 -357 0
355 356 357 0
-358 -359 0
-358 -360 0
-359 -360 0
358 359 360 0
-361 -362 0
-361 -363 0
-362 -363 0
361 362 363 0
-364 -365 0
-364 -366 0
-365 -366 0
364 365 366 0
-367 -368 0
-367 -369 0
-368 -369 0
367 368 369 0
-370 -371 0
-370 -372 0
-371 -372 0
370 371 372 0
-373 -374 0
-373 -375 0
-374 -375 0
373 374 375 0
-376 -377 0
-376 -378 0
-377 -378 0
376 377 378 0
-379 -380 0
-379 -381 0
-380 -381 0
379 380 381 0
-382 -383 0
-382 -384 0
-383 -384 0
382 383 384 0
-385 -386 0
-385 -387 0
-386 -387 0
385 386 387 0
-388 -389 0
-388 -390 0
-389 -390 0
388 389 390 0
-391 -392 0
-391 -393 0
-392 -393 0
391 392 393 0
-394 -395 0
-394 -396 0
-395 -396 0
394 395 396 0
-246 -397 0
-246 -398 0
-397 -398 0
246 397 398 0
-399 -400 0
-399 -401 0
-400 -401 0
399 400 401 0
-402 -403 0
-402 -404 0
-403 -404 0
402 403 404 0
-405 -406 0
-405 -407 0
-406 -407 0
405 406 407 0
-143 -408 0
-143 -409 0
-408 -409 0
143 408 409 0
-410 -411 0
-410 -412 0
-411 -412 0
410 411 412 0
-413 -414 0
-413 -415 0
-414 -415 0
413 414 415 0
-416 -417 0
-416 -418 0
-417 -418 0
416 417 418 0
-419 -420 0
-419 -421 0
-420 -421 0
419 420 421 0
-422 -423 0
-422 -424 0
-423 -424 0
422 423 424 0
-252 -425 0
-252 -426 0
-425 -426 0
252 425 426 0
-427 -428 0
-427 -429 0
-428 -429 0
427 428 429 0
-430 -431 0
-430 -432 0
-431 -432 0
430 431 432 0
-433 -434 0
-433 -435 0
-434 -435 0
433 434 435 0
-436 -437 0
-436 -438 0
-437 -438 0
436 437 438 0
-439 -440 0
-439 -441 0
-440 -441 0
439 440 441 0
-442 -443 0
-442 -444 0
-443 -444 0
442 443 444 0
-352 -445 0
-352 -446 0
-445 -446 0
352 445 446 0
-155 -447 0
-155 -448 0
-447 -448 0
155 447 448 0
-449 -450 0
-449 -451 0
-450 -451 0
449 450 451 0
-452 -453 0
-452 -454 0
-453 -454 0
452 453 454 0
-455 -456 0
-455 -457 0
-456 -457 0
455 456 457 0
-458 -459 0
-458 -460 0
-459 -460 0
458 459 460 0
-461 -462 0
-461 -463 0
-462 -463 0
461 462 463 0
-464 -465 0
-464 -466 0
-465 -466 0
464 465 466 0
-267 -467 0
-267 -468 0
-467 -468 0
267 467 468 0
-469 -470 0
-469 -471 0
-470 -471 0
469 470 471 0
-472 -473 0
-472 -474 0
-473 -474 0
472 473 474 0
-475 -476 0
-475 -477 0
-476 -477 0
475 476 477 0
-478 -479 0
-478 -480 0
-479 -480 0
478 479 480 0
-481 -482 0
-481 -483 0
-482 -483 0
481 482 483 0
-394 -484 0
-394 -485 0
-484 -485 0
394 484 485 0
-486 -487 0
-486 -488 0
-487 -488 0
486 487 488 0
-489 -490 0
-489 -491 0
-490 -491 0
489 490 491 0
-492 -493 0
-492 -494 0
-493 -494 0
492 493 494 0
-495 -496 0
-495 -497 0
-496 -497 0
495 496 497 0
-498 -499 0
-498 -500 0
-499 -500 0
498 499 500 0
-501 -502 0
-501 -503 0
-502 -503 0
501 502 503 0
-504 -505 0
-504 -506 0
-505 -506 0
504 505 506 0
-507 -508 0
-507 -509 0
-508 -509 0
507 508 509 0
-510 -511 0
-510 -512 0
-511 -512 0
510 511 512 0
-513 -514 0
-513 -515 0
-514 -515 0
513 514 515 0
-516 -517 0
-516 -518 0
-517 -518 0
516 517 518 0
-519 -520 0
-519 -521 0
-520 -521 0
519 520 521 0
-522 -523 0
-522 -524 0
-523 -524 0
522 523 524 0
-413 -525 0
-413 -526 0
-525 -526 0
413 525 526 0
-527 -528 0
-527 -529 0
-528 -529 0
527 528 529 0
-530 -531 0
-530 -532 0
-531 -532 0
530 531 532 0
-37 -533 0
-37 -534 0
-533 -534 0
37 533 534 0
-535 -536 0
-535 -537 0
-536 -537 0
535 536 537 0
-538 -539 0
-538 -540 0
-539 -540 0
538 539 540 0
-541 -542 0
-541 -543 0
-542 -543 0
541 542 543 0
-544 -545 0
-544 -546 0
-545 -546 0
544 545 546 0
-547 -548 0
-547 -549 0
-548 -549 0
547 548 549 0
-550 -551 0
-550 -552 0
-551 -552 0
550 551 552 0
-553 -554 0
-553 -555 0
-554 -555 0
553 554 555 0
-7 -556 0
-7 -557 0
-556 -557 0
7 556 557 0
-492 -558 0
-492 -559 0
-558 -559 0
492 558 559 0
-249 -560 0
-249 -561 0
-560 -561 0
249 560 561 0
-562 -563 0
-562 -564 0
-563 -564 0
562 563 564 0
-565 -566 0
-565 -567 0
-566 -567 0
565 566 567 0
-458 -568 0
-458 -569 0
-568 -569 0
458 568 569 0
-40 -570 0
-40 -571 0
-570 -571 0
40 570 571 0
-572 -573 0
-572 -574 0
-573 -574 0
572 573 574 0
-575 -576 0
-575 -577 0
-576 -577 0
575 576 577 0
-578 -579 0
-578 -580 0
-579 -580 0
578 579 580 0
-581 -582 0
-581 -583 0
-582 -583 0
581 582 583 0
-553 -584 0
-553 -585 0
-584 -585 0
553 584 585 0
-586 -587 0
-586 -588 0
-587 -588 0
586 587 588 0
-589 -590 0
-589 -591 0
-590 -591 0
589 590 591 0
-592 -593 0
-592 -594 0
-593 -594 0
592 593 594 0
-595 -596 0
-595 -597 0
-596 -597 0
595 596 597 0
-382 -598 0
-382 -599 0
-598 -599 0
382 598 599 0
-600 -601 0
-600 -602 0
-601 -602 0
600 601 602 0
-481 -603 0
-481 -604 0
-603 -604 0
481 603 604 0
-589 -605 0
-589 -606 0
-605 -606 0
589 605 606 0
-607 -608 0
-607 -609 0
-608 -609 0
607 608 609 0
-610 -611 0
-610 -612 0
-611 -612 0
610 611 612 0
-613 -614 0
-613 -615 0
-614 -615 0
613 614 615 0
-616 -617 0
-616 -618 0
-617 -618 0
616 617 618 0
-46 -619 0
-46 -620 0
-619 -620 0
46 619 620 0
-621 -622 0
-621 -623 0
-622 -623 0
621 622 623 0
-344 -624 0
-344 -625 0
-624 -625 0
344 624 625 0
-626 -627 0
-626 -628 0
-627 -628 0
626 627 628 0
-629 -630 0
-629 -631 0
-630 -631 0
629 630 631 0
-632 -633 0
-632 -634 0
-633 -634 0
632 633 634 0
-187 -635 0
-187 -636 0
-635 -636 0
187 635 636 0
-637 -638 0
-637 -639 0
-638 -639 0
637 638 639 0
-640 -641 0
-640 -642 0
-641 -642 0
640 641 642 0
-643 -644 0
-643 -645 0
-644 -645 0
643 644 645 0
-646 -647 0
-646 -648 0
-647 -648 0
646 647 648 0
-649 -650 0
-649 -651 0
-650 -651 0
649 650 651 0
-652 -653 0
-652 -654 0
-653 -654 0
652 653 654 0
-655 -656 0
-655 -657 0
-656 -657 0
655 656 657 0
-658 -659 0
-658 -660 0
-659 -660 0
658 659 660 0
-661 -662 0
-661 -663 0
-662 -663 0
661 662 663 0
-284 -664 0
-284 -665 0
-664 -665 0
284 664 665 0
-144 -666 0
-144 -667 0
-666 -667 0
144 666 667 0
-668 -669 0
-668 -670 0
-669 -670 0
668 669 670 0
-671 -672 0
-671 -673 0
-672 -673 0
671 672 673 0
-674 -675 0
-674 -676 0
-675 -676 0
674 675 676 0
-677 -678 0
-677 -679 0
-678 -679 0
677 678 679 0
-680 -681 0
-680 -682 0
-681 -682 0
680 681 682 0
-61 -683 0
-61 -684 0
-683 -684 0
61 683 684 0
-439 -510 0
-439 -685 0
-510 -685 0
439 510 685 0
-686 -687 0
-686 -688 0
-687 -688 0
686 687 688 0
-125 -689 0
-125 -690 0
-689 -690 0
125 689 690 0
-691 -692 0
-691 -693 0
-692 -693 0
691 692 693 0
-694 -695 0
-694 -696 0
-695 -696 0
694 695 696 0
-41 -643 0
-41 -697 0
-643 -697 0
41 643 697 0
-28 -698 0
-28 -699 0
-698 -699 0
28 698 699 0
-234 -700 0
-234 -701 0
-700 -701 0
234 700 701 0
-562 -702 0
-562 -703 0
-702 -703 0
562 702 703 0
-704 -705 0
-704 -706 0
-705 -706 0
704 705 706 0
-707 -708 0
-707 -709 0
-708 -709 0
707 708 709 0
-710 -711 0
-710 -712 0
-711 -712 0
710 711 712 0
-713 -714 0
-713 -715 0
-714 -715 0
713 714 715 0
-716 -717 0
-716 -718 0
-717 -718 0
716 717 718 0
-719 -720 0
-719 -721 0
-720 -721 0
719 720 721 0
-58 -722 0
-58 -723 0
-722 -723 0
58 722 723 0
-724 -725 0
-724 -726 0
-725 -726 0
724 725 726 0
-547 -727 0
-547 -728 0
-727 -728 0
547 727 728 0
-729 -730 0
-729 -731 0
-730 -731 0
729 730 731 0
-478 -732 0
-478 -733 0
-732 -733 0
478 732 733 0
-734 -735 0
-734 -736 0
-735 -736 0
734 735 736 0
-737 -738 0
-737 -739 0
-738 -739 0
737 738 739 0
-358 -554 0
-358 -740 0
-554 -740 0
358 554 740 0
-741 -742 0
-741 -743 0
-742 -743 0
741 742 743 0
-744 -745 0
-744 -746 0
-745 -746 0
744 745 746 0
-395 -747 0
-395 -748 0
-747 -748 0
395 747 748 0
-237 -495 0
-237 -749 0
-495 -749 0
237 495 749 0
-750 -751 0
-750 -752 0
-751 -752 0
750 751 752 0
-753 -754 0
-753 -755 0
-754 -755 0
753 754 755 0
-756 -757 0
-756 -758 0
-757 -758 0
756 757 758 0
-727 -759 0
-727 -760 0
-759 -760 0
727 759 760 0
-761 -762 0
-761 -763 0
-762 -763 0
761 762 763 0
-764 -765 0
-764 -766 0
-765 -766 0
764 765 766 0
-767 -768 0
-767 -769 0
-768 -769 0
767 768 769 0
-619 -770 0
-619 -771 0
-770 -771 0
619 770 771 0
-772 -773 0
-772 -774 0
-773 -774 0
772 773 774 0
-724 -775 0
-724 -776 0
-775 -776 0
724 775 776 0
-777 -778 0
-777 -779 0
-778 -779 0
777 778 779 0
-780 -781 0
-780 -782 0
-781 -782 0
780 781 782 0
-783 -784 0
-783 -785 0
-784 -785 0
783 784 785 0
-786 -787 0
-786 -788 0
-787 -788 0
786 787 788 0
-498 -789 0
-498 -790 0
-789 -790 0
498 789 790 0
-753 -791 0
-753 -792 0
-791 -792 0
753 791 792 0
-793 -794 0
-793 -795 0
-794 -795 0
793 794 795 0
-796 -797 0
-796 -798 0
-797 -798 0
796 797 798 0
-707 -799 0
-707 -800 0
-799 -800 0
707 799 800 0
-801 -802 0
-801 -803 0
-802 -803 0
801 802 803 0
-804 -805 0
-804 -806 0
-805 -806 0
804 805 806 0
-253 -807 0
-253 -808 0
-807 -808 0
253 807 808 0
-809 -810 0
-809 -811 0
-810 -811 0
809 810 811 0
-812 -813 0
-812 -814 0
-813 -814 0
812 813 814 0
-815 -816 0
-815 -817 0
-816 -817 0
815 816 817 0
-818 -819 0
-818 -820 0
-819 -820 0
818 819 820 0
-821 -822 0
-821 -823 0
-822 -823 0
821 822 823 0
-824 -825 0
-824 -826 0
-825 -826 0
824 825 826 0
-827 -828 0
-827 -829 0
-828 -829 0
827 828 829 0
-830 -831 0
-830 -832 0
-831 -832 0
830 831 832 0
-833 -834 0
-833 -835 0
-834 -835 0
833 834 835 0
-261 -836 0
-261 -837 0
-836 -837 0
261 836 837 0
-516 -838 0
-516 -839 0
-838 -839 0
516 838 839 0
-840 -841 0
-840 -842 0
-841 -842 0
840 841 842 0
-843 -844 0
-843 -845 0
-844 -845 0
843 844 845 0
-846 -847 0
-846 -848 0
-847 -848 0
846 847 848 0
-849 -850 0
-849 -851 0
-850 -851 0
849 850 851 0
-852 -853 0
-852 -854 0
-853 -854 0
852 853 854 0
-855 -856 0
-855 -857 0
-856 -857 0
855 856 857 0
-858 -859 0
-858 -860 0
-859 -860 0
858 859 860 0
-861 -862 0
-861 -863 0
-862 -863 0
861 862 863 0
-864 -865 0
-864 -866 0
-865 -866 0
864 865 866 0
-258 -867 0
-258 -868 0
-867 -868 0
258 867 868 0
-467 -812 0
-467 -869 0
-812 -869 0
467 812 869 0
-870 -871 0
-870 -872 0
-871 -872 0
870 871 872 0
-873 -874 0
-873 -875 0
-874 -875 0
873 874 875 0
-876 -877 0
-876 -878 0
-877 -878 0
876 877 878 0
-879 -880 0
-879 -881 0
-880 -881 0
879 880 881 0
-882 -883 0
-882 -884 0
-883 -884 0
882 883 884 0
-885 -886 0
-885 -887 0
-886 -887 0
885 886 887 0
-427 -888 0
-427 -889 0
-888 -889 0
427 888 889 0
-890 -891 0
-890 -892 0
-891 -892 0
890 891 892 0
-192 -893 0
-192 -894 0
-893 -894 0
192 893 894 0
-895 -896 0
-895 -897 0
-896 -897 0
895 896 897 0
-898 -899 0
-898 -900 0
-899 -900 0
898 899 900 0
-235 -416 0
-235 -901 0
-416 -901 0
235 416 901 0
-902 -903 0
-902 -904 0
-903 -904 0
902 903 904 0
-905 -906 0
-905 -907 0
-906 -907 0
905 906 907 0
-908 -909 0
-908 -910 0
-909 -910 0
908 909 910 0
-911 -912 0
-911 -913 0
-912 -913 0
911 912 913 0
-422 -914 0
-422 -915 0
-914 -915 0
422 914 915 0
-916 -917 0
-916 -918 0
-917 -918 0
916 917 918 0
-747 -919 0
-747 -920 0
-919 -920 0
747 919 920 0
-921 -922 0
-921 -923 0
-922 -923 0
921 922 923 0
-181 -924 0
-181 -925 0
-924 -925 0
181 924 925 0
-908 -926 0
-908 -927 0
-926 -927 0
908 926 927 0
-928 -929 0
-928 -930 0
-929 -930 0
928 929 930 0
-686 -931 0
-686 -932 0
-931 -932 0
686 931 932 0
-933 -934 0
-933 -935 0
-934 -935 0
933 934 935 0
-936 -937 0
-936 -938 0
-937 -938 0
936 937 938 0
-939 -940 0
-939 -941 0
-940 -941 0
939 940 941 0
-942 -943 0
-942 -944 0
-943 -944 0
942 943 944 0
-830 -945 0
-830 -946 0
-945 -946 0
830 945 946 0
-541 -947 0
-541 -948 0
-947 -948 0
541 947 948 0
-949 -950 0
-949 -951 0
-950 -951 0
949 950 951 0
-952 -953 0
-952 -954 0
-953 -954 0
952 953 954 0
-955 -956 0
-955 -957 0
-956 -957 0
955 956 957 0
-885 -958 0
-885 -959 0
-958 -959 0
885 958 959 0
-960 -961 0
-960 -962 0
-961 -962 0
960 961 962 0
-963 -964 0
-963 -965 0
-964 -965 0
963 964 965 0
-921 -966 0
-921 -967 0
-966 -967 0
921 966 967 0
-968 -969 0
-968 -970 0
-969 -970 0
968 969 970 0
-16 -971 0
-16 -972 0
-971 -972 0
16 971 972 0
-973 -974 0
-973 -975 0
-974 -975 0
973 974 975 0
-968 -976 0
-968 -977 0
-976 -977 0
968 976 977 0
-978 -979 0
-978 -980 0
-979 -980 0
978 979 980 0
-981 -982 0
-981 -983 0
-982 -983 0
981 982 983 0
-984 -985 0
-984 -986 0
-985 -986 0
984 985 986 0
-987 -988 0
-987 -989 0
-988 -989 0
987 988 989 0
-990 -991 0
-990 -992 0
-991 -992 0
990 991 992 0
-993 -994 0
-993 -995 0
-994 -995 0
993 994 995 0
-960 -996 0
-960 -997 0
-996 -997 0
960 996 997 0
-998 -999 0
-998 -1000 0
-999 -1000 0
998 999 1000 0
-1001 -1002 0
-1001 -1003 0
-1002 -1003 0
1001 1002 1003 0
-67 -1004 0
-67 -1005 0
-1004 -1005 0
67 1004 1005 0
-836 -1006 0
-836 -1007 0
-1006 -1007 0
836 1006 1007 0
-1008 -1009 0
-1008 -1010 0
-1009 -1010 0
1008 1009 1010 0
-1011 -1012 0
-1011 -1013 0
-1012 -1013 0
1011 1012 1013 0
-958 -1014 0
-958 -1015 0
-1014 -1015 0
958 1014 1015 0
-600 -1016 0
-600 -1017 0
-1016 -1017 0
600 1016 1017 0
-1018 -1019 0
-1018 -1020 0
-1019 -1020 0
1018 1019 1020 0
-1021 -1022 0
-1021 -1023 0
-1022 -1023 0
1021 1022 1023 0
-1024 -1025 0
-1024 -1026 0
-1025 -1026 0
1024 1025 1026 0
-447 -1027 0
-447 -1028 0
-1027 -1028 0
447 1027 1028 0
-1018 -1029 0
-1018 -1030 0
-1029 -1030 0
1018 1029 1030 0
-1031 -1032 0
-1031 -1033 0
-1032 -1033 0
1031 1032 1033 0
-598 -1034 0
-598 -1035 0
-1034 -1035 0
598 1034 1035 0
-1036 -1037 0
-1036 -1038 0
-1037 -1038 0
1036 1037 1038 0
-1039 -1040 0
-1039 -1041 0
-1040 -1041 0
1039 1040 1041 0
-1042 -1043 0
-1042 -1044 0
-1043 -1044 0
1042 1043 1044 0
-1045 -1046 0
-1045 -1047 0
-1046 -1047 0
1045 1046 1047 0
-282 -1048 0
-282 -1049 0
-1048 -1049 0
282 1048 1049 0
-367 -1050 0
-367 -1051 0
-1050 -1051 0
367 1050 1051 0
-1052 -1053 0
-1052 -1054 0
-1053 -1054 0
1052 1053 1054 0
-846 -1055 0
-846 -1056 0
-1055 -1056 0
846 1055 1056 0
-861 -1057 0
-861 -1058 0
-1057 -1058 0
861 1057 1058 0
-840 -1059 0
-840 -1060 0
-1059 -1060 0
840 1059 1060 0
-919 -1061 0
-919 -1062 0
-1061 -1062 0
919 1061 1062 0
-1063 -1064 0
-1063 -1065 0
-1064 -1065 0
1063 1064 1065 0
-1066 -1067 0
-1066 -1068 0
-1067 -1068 0
1066 1067 1068 0
-544 -1069 0
-544 -1070 0
-1069 -1070 0
544 1069 1070 0
-1071 -1072 0
-1071 -1073 0
-1072 -1073 0
1071 1072 1073 0
-1074 -1075 0
-1074 -1076 0
-1075 -1076 0
1074 1075 1076 0
-777 -1077 0
-777 -1078 0
-1077 -1078 0
777 1077 1078 0
-1045 -1079 0
-1045 -1080 0
-1079 -1080 0
1045 1079 1080 0
-1081 -1082 0
-1081 -1083 0
-1082 -1083 0
1081 1082 1083 0
-1084 -1085 0
-1084 -1086 0
-1085 -1086 0
1084 1085 1086 0
-1087 -1088 0
-1087 -1089 0
-1088 -1089 0
1087 1088 1089 0
-1090 -1091 0
-1090 -1092 0
-1091 -1092 0
1090 1091 1092 0
-1093 -1094 0
-1093 -1095 0
-1094 -1095 0
1093 1094 1095 0
-1096 -1097 0
-1096 -1098 0
-1097 -1098 0
1096 1097 1098 0
-1099 -1100 0
-1099 -1101 0
-1100 -1101 0
1099 1100 1101 0
-1102 -1103 0
-1102 -1104 0
-1103 -1104 0
1102 1103 1104 0
-1105 -1106 0
-1105 -1107 0
-1106 -1107 0
1105 1106 1107 0
-345 -1108 0
-345 -1109 0
-1108 -1109 0
345 1108 1109 0
-2 -1110 0
-2 -1111 0
-1110 -1111 0
2 1110 1111 0
-1112 -1113 0
-1112 -1114 0
-1113 -1114 0
1112 1113 1114 0
-1115 -1116 0
-1115 -1117 0
-1116 -1117 0
1115 1116 1117 0
-1118 -1119 0
-1118 -1120 0
-1119 -1120 0
1118 1119 1120 0
-385 -1121 0
-385 -1122 0
-1121 -1122 0
385 1121 1122 0
-1123 -1124 0
-1123 -1125 0
-1124 -1125 0
1123 1124 1125 0
-1126 -1127 0
-1126 -1128 0
-1127 -1128 0
1126 1127 1128 0
-1129 -1130 0
-1129 -1131 0
-1130 -1131 0
1129 1130 1131 0
-1132 -1133 0
-1132 -1134 0
-1133 -1134 0
1132 1133 1134 0
-158 -1135 0
-158 -1136 0
-1135 -1136 0
158 1135 1136 0
-966 -1137 0
-966 -1138 0
-1137 -1138 0
966 1137 1138 0
-1139 -1140 0
-1139 -1141 0
-1140 -1141 0
1139 1140 1141 0
-538 -1011 0
-538 -1142 0
-1011 -1142 0
538 1011 1142 0
-1143 -1144 0
-1143 -1145 0
-1144 -1145 0
1143 1144 1145 0
-1146 -1147 0
-1146 -1148 0
-1147 -1148 0
1146 1147 1148 0
-25 -1149 0
-25 -1150 0
-1149 -1150 0
25 1149 1150 0
-744 -1151 0
-744 -1152 0
-1151 -1152 0
744 1151 1152 0
-1153 -1154 0
-1153 -1155 0
-1154 -1155 0
1153 1154 1155 0
-70 -1156 0
-70 -1157 0
-1156 -1157 0
70 1156 1157 0
-1071 -1158 0
-1071 -1159 0
-1158 -1159 0
1071 1158 1159 0
-1057 -1160 0
-1057 -1161 0
-1160 -1161 0
1057 1160 1161 0
-1162 -1163 0
-1162 -1164 0
-1163 -1164 0
1162 1163 1164 0
-321 -1165 0
-321 -1166 0
-1165 -1166 0
321 1165 1166 0
-1167 -1168 0
-1167 -1169 0
-1168 -1169 0
1167 1168 1169 0
-1139 -1170 0
-1139 -1171 0
-1170 -1171 0
1139 1170 1171 0
-108 -332 0
-108 -1172 0
-332 -1172 0
108 332 1172 0
-1034 -1173 0
-1034 -1174 0
-1173 -1174 0
1034 1173 1174 0
-1031 -1175 0
-1031 -1176 0
-1175 -1176 0
1031 1175 1176 0
-1177 -1178 0
-1177 -1179 0
-1178 -1179 0
1177 1178 1179 0
-649 -1180 0
-649 -1181 0
-1180 -1181 0
649 1180 1181 0
-1182 -1183 0
-1182 -1184 0
-1183 -1184 0
1182 1183 1184 0
-1185 -1186 0
-1185 -1187 0
-1186 -1187 0
1185 1186 1187 0
-1188 -1189 0
-1188 -1190 0
-1189 -1190 0
1188 1189 1190 0
-1191 -1192 0
-1191 -1193 0
-1192 -1193 0
1191 1192 1193 0
-1194 -1195 0
-1194 -1196 0
-1195 -1196 0
1194 1195 1196 0
-1197 -1198 0
-1197 -1199 0
-1198 -1199 0
1197 1198 1199 0
-489 -1081 0
-489 -1200 0
-1081 -1200 0
489 1081 1200 0
-1201 -1202 0
-1201 -1203 0
-1202 -1203 0
1201 1202 1203 0
-1204 -1205 0
-1204 -1206 0
-1205 -1206 0
1204 1205 1206 0
-1059 -1207 0
-1059 -1208 0
-1207 -1208 0
1059 1207 1208 0
-1209 -1210 0
-1209 -1211 0
-1210 -1211 0
1209 1210 1211 0
-1204 -1212 0
-1204 -1213 0
-1212 -1213 0
1204 1212 1213 0
-976 -1048 0
-976 -1214 0
-1048 -1214 0
976 1048 1214 0
-1215 -1216 0
-1215 -1217 0
-1216 -1217 0
1215 1216 1217 0
-326 -1218 0
-326 -1219 0
-1218 -1219 0
326 1218 1219 0
-601 -963 0
-601 -1220 0
-963 -1220 0
601 963 1220 0
-1221 -1222 0
-1221 -1223 0
-1222 -1223 0
1221 1222 1223 0
-82 -1224 0
-82 -1225 0
-1224 -1225 0
82 1224 1225 0
-1180 -1226 0
-1180 -1227 0
-1226 -1227 0
1180 1226 1227 0
-62 -1228 0
-62 -1229 0
-1228 -1229 0
62 1228 1229 0
-376 -1230 0
-376 -1231 0
-1230 -1231 0
376 1230 1231 0
-1232 -1233 0
-1232 -1234 0
-1233 -1234 0
1232 1233 1234 0
-484 -1235 0
-484 -1236 0
-1235 -1236 0
484 1235 1236 0
-1237 -1238 0
-1237 -1239 0
-1238 -1239 0
1237 1238 1239 0
-1240 -1241 0
-1240 -1242 0
-1241 -1242 0
1240 1241 1242 0
-1243 -1244 0
-1243 -1245 0
-1244 -1245 0
1243 1244 1245 0
-1246 -1247 0
-1246 -1248 0
-1247 -1248 0
1246 1247 1248 0
-501 -1249 0
-501 -1250 0
-1249 -1250 0
501 1249 1250 0
-496 -1251 0
-496 -1252 0
-1251 -1252 0
496 1251 1252 0
-243 -895 0
-243 -1060 0
-895 -1060 0
243 895 1060 0
-939 -1253 0
-939 -1254 0
-1253 -1254 0
939 1253 1254 0
-388 -1255 0
-388 -1256 0
-1255 -1256 0
388 1255 1256 0
-1257 -1258 0
-1257 -1259 0
-1258 -1259 0
1257 1258 1259 0
-1260 -1261 0
-1260 -1262 0
-1261 -1262 0
1260 1261 1262 0
-1263 -1264 0
-1263 -1265 0
-1264 -1265 0
1263 1264 1265 0
-1266 -1267 0
-1266 -1268 0
-1267 -1268 0
1266 1267 1268 0
-1269 -1270 0
-1269 -1271 0
-1270 -1271 0
1269 1270 1271 0
-632 -1272 0
-632 -1273 0
-1272 -1273 0
632 1272 1273 0
-83 -1274 0
-83 -1275 0
-1274 -1275 0
83 1274 1275 0
-290 -993 0
-290 -1276 0
-993 -1276 0
290 993 1276 0
-1277 -1278 0
-1277 -1279 0
-1278 -1279 0
1277 1278 1279 0
-327 -1280 0
-327 -1281 0
-1280 -1281 0
327 1280 1281 0
-22 -1282 0
-22 -1283 0
-1282 -1283 0
22 1282 1283 0
-783 -1224 0
-783 -1284 0
-1224 -1284 0
783 1224 1284 0
-499 -1285 0
-499 -1286 0
-1285 -1286 0
499 1285 1286 0
-1287 -1288 0
-1287 -1289 0
-1288 -1289 0
1287 1288 1289 0
-1290 -1291 0
-1290 -1292 0
-1291 -1292 0
1290 1291 1292 0
-586 -1293 0
-586 -1294 0
-1293 -1294 0
586 1293 1294 0
-1295 -1296 0
-1295 -1297 0
-1296 -1297 0
1295 1296 1297 0
-1298 -1299 0
-1298 -1300 0
-1299 -1300 0
1298 1299 1300 0
-1301 -1302 0
-1301 -1303 0
-1302 -1303 0
1301 1302 1303 0
-1105 -1304 0
-1105 -1305 0
-1304 -1305 0
1105 1304 1305 0
-1160 -1306 0
-1160 -1307 0
-1306 -1307 0
1160 1306 1307 0
-497 -1308 0
-497 -1309 0
-1308 -1309 0
497 1308 1309 0
-1310 -1311 0
-1310 -1312 0
-1311 -1312 0
1310 1311 1312 0
-1035 -1087 0
-1035 -1313 0
-1087 -1313 0
1035 1087 1313 0
-333 -1088 0
-333 -1314 0
-1088 -1314 0
333 1088 1314 0
-1315 -1316 0
-1315 -1317 0
-1316 -1317 0
1315 1316 1317 0
-1318 -1319 0
-1318 -1320 0
-1319 -1320 0
1318 1319 1320 0
-1321 -1322 0
-1321 -1323 0
-1322 -1323 0
1321 1322 1323 0
-368 -1324 0
-368 -1325 0
-1324 -1325 0
368 1324 1325 0
-761 -1326 0
-761 -1327 0
-1326 -1327 0
761 1326 1327 0
-886 -1137 0
-886 -1328 0
-1137 -1328 0
886 1137 1328 0
-1329 -1330 0
-1329 -1331 0
-1330 -1331 0
1329 1330 1331 0
-1332 -1333 0
-1332 -1334 0
-1333 -1334 0
1332 1333 1334 0
-1335 -1336 0
-1335 -1337 0
-1336 -1337 0
1335 1336 1337 0
-1338 -1339 0
-1338 -1340 0
-1339 -1340 0
1338 1339 1340 0
-1036 -1341 0
-1036 -1342 0
-1341 -1342 0
1036 1341 1342 0
-364 -780 0
-364 -1343 0
-780 -1343 0
364 780 1343 0
-1344 -1345 0
-1344 -1346 0
-1345 -1346 0
1344 1345 1346 0
-1072 -1347 0
-1072 -1348 0
-1347 -1348 0
1072 1347 1348 0
-984 -1349 0
-984 -1350 0
-1349 -1350 0
984 1349 1350 0
-1308 -1351 0
-1308 -1352 0
-1351 -1352 0
1308 1351 1352 0
-1353 -1354 0
-1353 -1355 0
-1354 -1355 0
1353 1354 1355 0
-55 -1356 0
-55 -1357 0
-1356 -1357 0
55 1356 1357 0
-1358 -1359 0
-1358 -1360 0
-1359 -1360 0
1358 1359 1360 0
-1361 -1362 0
-1361 -1363 0
-1362 -1363 0
1361 1362 1363 0
-1156 -1364 0
-1156 -1365 0
-1364 -1365 0
1156 1364 1365 0
-581 -1366 0
-581 -1367 0
-1366 -1367 0
581 1366 1367 0
-178 -1368 0
-178 -1369 0
-1368 -1369 0
178 1368 1369 0
-879 -1370 0
-879 -1371 0
-1370 -1371 0
879 1370 1371 0
-1372 -1373 0
-1372 -1374 0
-1373 -1374 0
1372 1373 1374 0
-732 -1375 0
-732 -1376 0
-1375 -1376 0
732 1375 1376 0
-843 -1377 0
-843 -1378 0
-1377 -1378 0
843 1377 1378 0
-1379 -1380 0
-1379 -1381 0
-1380 -1381 0
1379 1380 1381 0
-1382 -1383 0
-1382 -1384 0
-1383 -1384 0
1382 1383 1384 0
-184 -1240 0
-184 -1385 0
-1240 -1385 0
184 1240 1385 0
-1386 -1387 0
-1386 -1388 0
-1387 -1388 0
1386 1387 1388 0
-1389 -1390 0
-1389 -1391 0
-1390 -1391 0
1389 1390 1391 0
-603 -1392 0
-603 -1393 0
-1392 -1393 0
603 1392 1393 0
-225 -1394 0
-225 -1395 0
-1394 -1395 0
225 1394 1395 0
-1396 -1397 0
-1396 -1398 0
-1397 -1398 0
1396 1397 1398 0
-1399 -1400 0
-1399 -1401 0
-1400 -1401 0
1399 1400 1401 0
-1338 -1402 0
-1338 -1403 0
-1402 -1403 0
1338 1402 1403 0
-1404 -1405 0
-1404 -1406 0
-1405 -1406 0
1404 1405 1406 0
-167 -1407 0
-167 -1408 0
-1407 -1408 0
167 1407 1408 0
-452 -1409 0
-452 -1410 0
-1409 -1410 0
452 1409 1410 0
-1411 -1412 0
-1411 -1413 0
-1412 -1413 0
1411 1412 1413 0
-1414 -1415 0
-1414 -1416 0
-1415 -1416 0
1414 1415 1416 0
-1417 -1418 0
-1417 -1419 0
-1418 -1419 0
1417 1418 1419 0
-530 -1420 0
-530 -1421 0
-1420 -1421 0
530 1420 1421 0
-402 -734 0
-402 -1422 0
-734 -1422 0
402 734 1422 0
-91 -605 0
-91 -1423 0
-605 -1423 0
91 605 1423 0
-855 -1424 0
-855 -1425 0
-1424 -1425 0
855 1424 1425 0
-1426 -1427 0
-1426 -1428 0
-1427 -1428 0
1426 1427 1428 0
-1429 -1430 0
-1429 -1431 0
-1430 -1431 0
1429 1430 1431 0
-1432 -1433 0
-1432 -1434 0
-1433 -1434 0
1432 1433 1434 0
-1435 -1436 0
-1435 -1437 0
-1436 -1437 0
1435 1436 1437 0
-1438 -1439 0
-1438 -1440 0
-1439 -1440 0
1438 1439 1440 0
-1110 -1441 0
-1110 -1442 0
-1441 -1442 0
1110 1441 1442 0
-1443 -1444 0
-1443 -1445 0
-1444 -1445 0
1443 1444 1445 0
-469 -1446 0
-469 -1447 0
-1446 -1447 0
469 1446 1447 0
-38 -1448 0
-38 -1449 0
-1448 -1449 0
38 1448 1449 0
-1450 -1451 0
-1450 -1452 0
-1451 -1452 0
1450 1451 1452 0
-1453 -1454 0
-1453 -1455 0
-1454 -1455 0
1453 1454 1455 0
-103 -455 0
-103 -1456 0
-455 -1456 0
103 455 1456 0
-1457 -1458 0
-1457 -1459 0
-1458 -1459 0
1457 1458 1459 0
-640 -1460 0
-640 -1461 0
-1460 -1461 0
640 1460 1461 0
-1462 -1463 0
-1462 -1464 0
-1463 -1464 0
1462 1463 1464 0
-1465 -1466 0
-1465 -1467 0
-1466 -1467 0
1465 1466 1467 0
-1468 -1469 0
-1468 -1470 0
-1469 -1470 0
1468 1469 1470 0
-1471 -1472 0
-1471 -1473 0
-1472 -1473 0
1471 1472 1473 0
-111 -1474 0
-111 -1475 0
-1474 -1475 0
111 1474 1475 0
-898 -1266 0
-898 -1476 0
-1266 -1476 0
898 1266 1476 0
-1263 -1477 0
-1263 -1478 0
-1477 -1478 0
1263 1477 1478 0
-1479 -1480 0
-1479 -1481 0
-1480 -1481 0
1479 1480 1481 0
-522 -973 0
-522 -1368 0
-973 -1368 0
522 973 1368 0
-697 -1482 0
-697 -1483 0
-1482 -1483 0
697 1482 1483 0
-1484 -1485 0
-1484 -1486 0
-1485 -1486 0
1484 1485 1486 0
-389 -1077 0
-389 -1487 0
-1077 -1487 0
389 1077 1487 0
-1488 -1489 0
-1488 -1490 0
-1489 -1490 0
1488 1489 1490 0
-309 -1491 0
-309 -1492 0
-1491 -1492 0
309 1491 1492 0
-1493 -1494 0
-1493 -1495 0
-1494 -1495 0
1493 1494 1495 0
-1496 -1497 0
-1496 -1498 0
-1497 -1498 0
1496 1497 1498 0
-1499 -1500 0
-1499 -1501 0
-1500 -1501 0
1499 1500 1501 0
-1502 -1503 0
-1502 -1504 0
-1503 -1504 0
1502 1503 1504 0
-268 -1505 0
-268 -1506 0
-1505 -1506 0
268 1505 1506 0
-1197 -1507 0
-1197 -1508 0
-1507 -1508 0
1197 1507 1508 0
-4 -1509 0
-4 -1510 0
-1509 -1510 0
4 1509 1510 0
-922 -1511 0
-922 -1512 0
-1511 -1512 0
922 1511 1512 0
-159 -1513 0
-159 -1514 0
-1513 -1514 0
159 1513 1514 0
-767 -1468 0
-767 -1515 0
-1468 -1515 0
767 1468 1515 0
-700 -1516 0
-700 -1517 0
-1516 -1517 0
700 1516 1517 0
-1518 -1519 0
-1518 -1520 0
-1519 -1520 0
1518 1519 1520 0
-1407 -1521 0
-1407 -1522 0
-1521 -1522 0
1407 1521 1522 0
-1523 -1524 0
-1523 -1525 0
-1524 -1525 0
1523 1524 1525 0
-1526 -1527 0
-1526 -1528 0
-1527 -1528 0
1526 1527 1528 0
-1529 -1530 0
-1529 -1531 0
-1530 -1531 0
1529 1530 1531 0
-312 -1532 0
-312 -1533 0
-1532 -1533 0
312 1532 1533 0
-1534 -1535 0
-1534 -1536 0
-1535 -1536 0
1534 1535 1536 0
-1537 -1538 0
-1537 -1539 0
-1538 -1539 0
1537 1538 1539 0
-43 -1540 0
-43 -1541 0
-1540 -1541 0
43 1540 1541 0
-1518 -1542 0
-1518 -1543 0
-1542 -1543 0
1518 1542 1543 0
-1544 -1545 0
-1544 -1546 0
-1545 -1546 0
1544 1545 1546 0
-1547 -1548 0
-1547 -1549 0
-1548 -1549 0
1547 1548 1549 0
-1550 -1551 0
-1550 -1552 0
-1551 -1552 0
1550 1551 1552 0
-635 -1553 0
-635 -1554 0
-1553 -1554 0
635 1553 1554 0
-1555 -1556 0
-1555 -1557 0
-1556 -1557 0
1555 1556 1557 0
-1226 -1558 0
-1226 -1559 0
-1558 -1559 0
1226 1558 1559 0
-1435 -1560 0
-1435 -1561 0
-1560 -1561 0
1435 1560 1561 0
-1562 -1563 0
-1562 -1564 0
-1563 -1564 0
1562 1563 1564 0
-1565 -1566 0
-1565 -1567 0
-1566 -1567 0
1565 1566 1567 0
-827 -1568 0
-827 -1569 0
-1568 -1569 0
827 1568 1569 0
-565 -1570 0
-565 -1571 0
-1570 -1571 0
565 1570 1571 0
-1572 -1573 0
-1572 -1574 0
-1573 -1574 0
1572 1573 1574 0
-1253 -1575 0
-1253 -1576 0
-1575 -1576 0
1253 1575 1576 0
-1108 -1577 0
-1108 -1578 0
-1577 -1578 0
1108 1577 1578 0
-1579 -1580 0
-1579 -1581 0
-1580 -1581 0
1579 1580 1581 0
-1582 -1583 0
-1582 -1584 0
-1583 -1584 0
1582 1583 1584 0
-1585 -1586 0
-1585 -1587 0
-1586 -1587 0
1585 1586 1587 0
-1272 -1509 0
-1272 -1588 0
-1509 -1588 0
1272 1509 1588 0
-1589 -1590 0
-1589 -1591 0
-1590 -1591 0
1589 1590 1591 0
-1592 -1593 0
-1592 -1594 0
-1593 -1594 0
1592 1593 1594 0
-1084 -1595 0
-1084 -1596 0
-1595 -1596 0
1084 1595 1596 0
-1167 -1597 0
-1167 -1598 0
-1597 -1598 0
1167 1597 1598 0
-599 -1004 0
-599 -1129 0
-1004 -1129 0
599 1004 1129 0
-793 -1599 0
-793 -1600 0
-1599 -1600 0
793 1599 1600 0
-482 -687 0
-482 -1601 0
-687 -1601 0
482 687 1601 0
-1602 -1603 0
-1602 -1604 0
-1603 -1604 0
1602 1603 1604 0
-449 -1605 0
-449 -1606 0
-1605 -1606 0
449 1605 1606 0
-1607 -1608 0
-1607 -1609 0
-1608 -1609 0
1607 1608 1609 0
-189 -1610 0
-189 -1611 0
-1610 -1611 0
189 1610 1611 0
-1612 -1613 0
-1612 -1614 0
-1613 -1614 0
1612 1613 1614 0
-1465 -1615 0
-1465 -1616 0
-1615 -1616 0
1465 1615 1616 0
-1617 -1618 0
-1617 -1619 0
-1618 -1619 0
1617 1618 1619 0
-1620 -1621 0
-1620 -1622 0
-1621 -1622 0
1620 1621 1622 0
-1111 -1623 0
-1111 -1624 0
-1623 -1624 0
1111 1623 1624 0
-1625 -1626 0
-1625 -1627 0
-1626 -1627 0
1625 1626 1627 0
-725 -1628 0
-725 -1629 0
-1628 -1629 0
725 1628 1629 0
-1073 -1544 0
-1073 -1630 0
-1544 -1630 0
1073 1544 1630 0
-1631 -1632 0
-1631 -1633 0
-1632 -1633 0
1631 1632 1633 0
-373 -987 0
-373 -1634 0
-987 -1634 0
373 987 1634 0
-222 -1370 0
-222 -1635 0
-1370 -1635 0
222 1370 1635 0
-123 -1636 0
-123 -1637 0
-1636 -1637 0
123 1636 1637 0
-1313 -1638 0
-1313 -1639 0
-1638 -1639 0
1313 1638 1639 0
-112 -1640 0
-112 -1641 0
-1640 -1641 0
112 1640 1641 0
-1642 -1643 0
-1642 -1644 0
-1643 -1644 0
1642 1643 1644 0
-1645 -1646 0
-1645 -1647 0
-1646 -1647 0
1645 1646 1647 0
-31 -1599 0
-31 -1648 0
-1599 -1648 0
31 1599 1648 0
-849 -1318 0
-849 -1649 0
-1318 -1649 0
849 1318 1649 0
-1650 -1651 0
-1650 -1652 0
-1651 -1652 0
1650 1651 1652 0
-652 -1653 0
-652 -1654 0
-1653 -1654 0
652 1653 1654 0
-1655 -1656 0
-1655 -1657 0
-1656 -1657 0
1655 1656 1657 0
-1658 -1659 0
-1658 -1660 0
-1659 -1660 0
1658 1659 1660 0
-626 -1661 0
-626 -1662 0
-1661 -1662 0
626 1661 1662 0
-231 -279 0
-231 -1663 0
-279 -1663 0
231 279 1663 0
-1664 -1665 0
-1664 -1666 0
-1665 -1666 0
1664 1665 1666 0
-513 -916 0
-513 -1667 0
-916 -1667 0
513 916 1667 0
-1668 -1669 0
-1668 -1670 0
-1669 -1670 0
1668 1669 1670 0
-1671 -1672 0
-1671 -1673 0
-1672 -1673 0
1671 1672 1673 0
-391 -801 0
-391 -1674 0
-801 -1674 0
391 801 1674 0
-1321 -1675 0
-1321 -1676 0
-1675 -1676 0
1321 1675 1676 0
-1677 -1678 0
-1677 -1679 0
-1678 -1679 0
1677 1678 1679 0
-1680 -1681 0
-1680 -1682 0
-1681 -1682 0
1680 1681 1682 0
-1683 -1684 0
-1683 -1685 0
-1684 -1685 0
1683 1684 1685 0
-1686 -1687 0
-1686 -1688 0
-1687 -1688 0
1686 1687 1688 0
-1689 -1690 0
-1689 -1691 0
-1690 -1691 0
1689 1690 1691 0
-1287 -1692 0
-1287 -1693 0
-1692 -1693 0
1287 1692 1693 0
-1694 -1695 0
-1694 -1696 0
-1695 -1696 0
1694 1695 1696 0
-1697 -1698 0
-1697 -1699 0
-1698 -1699 0
1697 1698 1699 0
-1443 -1700 0
-1443 -1701 0
-1700 -1701 0
1443 1700 1701 0
-490 -1702 0
-490 -1703 0
-1702 -1703 0
490 1702 1703 0
-1585 -1704 0
-1585 -1705 0
-1704 -1705 0
1585 1704 1705 0
-1369 -1706 0
-1369 -1707 0
-1706 -1707 0
1369 1706 1707 0
-1241 -1708 0
-1241 -1709 0
-1708 -1709 0
1241 1708 1709 0
-1710 -1711 0
-1710 -1712 0
-1711 -1712 0
1710 1711 1712 0
-1188 -1713 0
-1188 -1714 0
-1713 -1714 0
1188 1713 1714 0
-1215 -1715 0
-1215 -1716 0
-1715 -1716 0
1215 1715 1716 0
-893 -1710 0
-893 -1717 0
-1710 -1717 0
893 1710 1717 0
-485 -1718 0
-485 -1719 0
-1718 -1719 0
485 1718 1719 0
-1008 -1720 0
-1008 -1721 0
-1720 -1721 0
1008 1720 1721 0
-1722 -1723 0
-1722 -1724 0
-1723 -1724 0
1722 1723 1724 0
-1725 -1726 0
-1725 -1727 0
-1726 -1727 0
1725 1726 1727 0
-1063 -1479 0
-1063 -1728 0
-1479 -1728 0
1063 1479 1728 0
-244 -315 0
-244 -1729 0
-315 -1729 0
244 315 1729 0
-869 -1730 0
-869 -1731 0
-1730 -1731 0
869 1730 1731 0
-1732 -1733 0
-1732 -1734 0
-1733 -1734 0
1732 1733 1734 0
-1277 -1735 0
-1277 -1736 0
-1735 -1736 0
1277 1735 1736 0
-560 -1700 0
-560 -1737 0
-1700 -1737 0
560 1700 1737 0
-1738 -1739 0
-1738 -1740 0
-1739 -1740 0
1738 1739 1740 0
-1741 -1742 0
-1741 -1743 0
-1742 -1743 0
1741 1742 1743 0
-486 -691 0
-486 -1744 0
-691 -1744 0
486 691 1744 0
-1745 -1746 0
-1745 -1747 0
-1746 -1747 0
1745 1746 1747 0
-1182 -1375 0
-1182 -1748 0
-1375 -1748 0
1182 1375 1748 0
-1749 -1750 0
-1749 -1751 0
-1750 -1751 0
1749 1750 1751 0
-1752 -1753 0
-1752 -1754 0
-1753 -1754 0
1752 1753 1754 0
-264 -1499 0
-264 -1755 0
-1499 -1755 0
264 1499 1755 0
-42 -1756 0
-42 -1757 0
-1756 -1757 0
42 1756 1757 0
-1758 -1759 0
-1758 -1760 0
-1759 -1760 0
1758 1759 1760 0
-1761 -1762 0
-1761 -1763 0
-1762 -1763 0
1761 1762 1763 0
-1764 -1765 0
-1764 -1766 0
-1765 -1766 0
1764 1765 1766 0
-671 -1767 0
-671 -1768 0
-1767 -1768 0
671 1767 1768 0
-1769 -1770 0
-1769 -1771 0
-1770 -1771 0
1769 1770 1771 0
-1675 -1772 0
-1675 -1773 0
-1772 -1773 0
1675 1772 1773 0
-1029 -1774 0
-1029 -1775 0
-1774 -1775 0
1029 1774 1775 0
-1519 -1776 0
-1519 -1777 0
-1776 -1777 0
1519 1776 1777 0
-1030 -1778 0
-1030 -1779 0
-1778 -1779 0
1030 1778 1779 0
-1780 -1781 0
-1780 -1782 0
-1781 -1782 0
1780 1781 1782 0
-1132 -1783 0
-1132 -1784 0
-1783 -1784 0
1132 1783 1784 0
-940 -1785 0
-940 -1786 0
-1785 -1786 0
940 1785 1786 0
-198 -698 0
-198 -1702 0
-698 -1702 0
198 698 1702 0
-1787 -1788 0
-1787 -1789 0
-1788 -1789 0
1787 1788 1789 0
-1790 -1791 0
-1790 -1792 0
-1791 -1792 0
1790 1791 1792 0
-1793 -1794 0
-1793 -1795 0
-1794 -1795 0
1793 1794 1795 0
-1796 -1797 0
-1796 -1798 0
-1797 -1798 0
1796 1797 1798 0
-1799 -1800 0
-1799 -1801 0
-1800 -1801 0
1799 1800 1801 0
-1276 -1802 0
-1276 -1803 0
-1802 -1803 0
1276 1802 1803 0
-1482 -1804 0
-1482 -1805 0
-1804 -1805 0
1482 1804 1805 0
-636 -641 0
-636 -1806 0
-641 -1806 0
636 641 1806 0
-1807 -1808 0
-1807 -1809 0
-1808 -1809 0
1807 1808 1809 0
-1810 -1811 0
-1810 -1812 0
-1811 -1812 0
1810 1811 1812 0
-578 -1090 0
-578 -1813 0
-1090 -1813 0
578 1090 1813 0
-109 -1814 0
-109 -1815 0
-1814 -1815 0
109 1814 1815 0
-1816 -1817 0
-1816 -1818 0
-1817 -1818 0
1816 1817 1818 0
-1819 -1820 0
-1819 -1821 0
-1820 -1821 0
1819 1820 1821 0
-548 -1822 0
-548 -1823 0
-1822 -1823 0
548 1822 1823 0
-542 -1824 0
-542 -1825 0
-1824 -1825 0
542 1824 1825 0
-1826 -1827 0
-1826 -1828 0
-1827 -1828 0
1826 1827 1828 0
-624 -1829 0
-624 -1830 0
-1829 -1830 0
624 1829 1830 0
-1831 -1832 0
-1831 -1833 0
-1832 -1833 0
1831 1832 1833 0
-633 -1834 0
-633 -1835 0
-1834 -1835 0
633 1834 1835 0
-1085 -1836 0
-1085 -1837 0
-1836 -1837 0
1085 1836 1837 0
-1838 -1839 0
-1838 -1840 0
-1839 -1840 0
1838 1839 1840 0
-1841 -1842 0
-1841 -1843 0
-1842 -1843 0
1841 1842 1843 0
-1620 -1844 0
-1620 -1845 0
-1844 -1845 0
1620 1844 1845 0
-1846 -1847 0
-1846 -1848 0
-1847 -1848 0
1846 1847 1848 0
-1849 -1850 0
-1849 -1851 0
-1850 -1851 0
1849 1850 1851 0
-1852 -1853 0
-1852 -1854 0
-1853 -1854 0
1852 1853 1854 0
-1758 -1849 0
-1758 -1855 0
-1849 -1855 0
1758 1849 1855 0
-1856 -1857 0
-1856 -1858 0
-1857 -1858 0
1856 1857 1858 0
-26 -1859 0
-26 -1860 0
-1859 -1860 0
26 1859 1860 0
-170 -1861 0
-170 -1862 0
-1861 -1862 0
170 1861 1862 0
-1001 -1863 0
-1001 -1864 0
-1863 -1864 0
1001 1863 1864 0
-305 -1865 0
-305 -1866 0
-1865 -1866 0
305 1865 1866 0
-519 -1867 0
-519 -1868 0
-1867 -1868 0
519 1867 1868 0
-293 -1869 0
-293 -1870 0
-1869 -1870 0
293 1869 1870 0
-1601 -1871 0
-1601 -1872 0
-1871 -1872 0
1601 1871 1872 0
-1856 -1873 0
-1856 -1874 0
-1873 -1874 0
1856 1873 1874 0
-985 -1875 0
-985 -1876 0
-1875 -1876 0
985 1875 1876 0
-949 -1677 0
-949 -1877 0
-1677 -1877 0
949 1677 1877 0
-32 -207 0
-32 -1878 0
-207 -1878 0
32 207 1878 0
-1879 -1880 0
-1879 -1881 0
-1880 -1881 0
1879 1880 1881 0
-146 -1882 0
-146 -1883 0
-1882 -1883 0
146 1882 1883 0
-974 -1884 0
-974 -1885 0
-1884 -1885 0
974 1884 1885 0
-1560 -1683 0
-1560 -1886 0
-1683 -1886 0
1560 1683 1886 0
-1887 -1888 0
-1887 -1889 0
-1888 -1889 0
1887 1888 1889 0
-1890 -1891 0
-1890 -1892 0
-1891 -1892 0
1890 1891 1892 0
-1893 -1894 0
-1893 -1895 0
-1894 -1895 0
1893 1894 1895 0
-1850 -1896 0
-1850 -1897 0
-1896 -1897 0
1850 1896 1897 0
-607 -1898 0
-607 -1899 0
-1898 -1899 0
607 1898 1899 0
-361 -1887 0
-361 -1900 0
-1887 -1900 0
361 1887 1900 0
-1901 -1902 0
-1901 -1903 0
-1902 -1903 0
1901 1902 1903 0
-329 -1904 0
-329 -1905 0
-1904 -1905 0
329 1904 1905 0
-1906 -1907 0
-1906 -1908 0
-1907 -1908 0
1906 1907 1908 0
-1358 -1909 0
-1358 -1910 0
-1909 -1910 0
1358 1909 1910 0
-185 -1911 0
-185 -1912 0
-1911 -1912 0
185 1911 1912 0
-294 -1913 0
-294 -1914 0
-1913 -1914 0
294 1913 1914 0
-1074 -1915 0
-1074 -1916 0
-1915 -1916 0
1074 1915 1916 0
-335 -1568 0
-335 -1917 0
-1568 -1917 0
335 1568 1917 0
-336 -1759 0
-336 -1918 0
-1759 -1918 0
336 1759 1918 0
-262 -472 0
-262 -1919 0
-472 -1919 0
262 472 1919 0
-1920 -1921 0
-1920 -1922 0
-1921 -1922 0
1920 1921 1922 0
-94 -694 0
-94 -1923 0
-694 -1923 0
94 694 1923 0
-1816 -1924 0
-1816 -1925 0
-1924 -1925 0
1816 1924 1925 0
-1926 -1927 0
-1926 -1928 0
-1927 -1928 0
1926 1927 1928 0
-362 -1505 0
-362 -1904 0
-1505 -1904 0
362 1505 1904 0
-1039 -1752 0
-1039 -1929 0
-1752 -1929 0
1039 1752 1929 0
-525 -1930 0
-525 -1931 0
-1930 -1931 0
525 1930 1931 0
-1032 -1932 0
-1032 -1933 0
-1932 -1933 0
1032 1932 1933 0
-729 -1934 0
-729 -1935 0
-1934 -1935 0
729 1934 1935 0
-1168 -1701 0
-1168 -1936 0
-1701 -1936 0
1168 1701 1936 0
-902 -909 0
-902 -1937 0
-909 -1937 0
902 909 1937 0
-1938 -1939 0
-1938 -1940 0
-1939 -1940 0
1938 1939 1940 0
-1058 -1941 0
-1058 -1942 0
-1941 -1942 0
1058 1941 1942 0
-1016 -1943 0
-1016 -1944 0
-1943 -1944 0
1016 1943 1944 0
-1945 -1946 0
-1945 -1947 0
-1946 -1947 0
1945 1946 1947 0
-507 -1126 0
-507 -1948 0
-1126 -1948 0
507 1126 1948 0
-204 -1949 0
-204 -1950 0
-1949 -1950 0
204 1949 1950 0
-161 -945 0
-161 -1951 0
-945 -1951 0
161 945 1951 0
-914 -1715 0
-914 -1952 0
-1715 -1952 0
914 1715 1952 0
-10 -1953 0
-10 -1954 0
-1953 -1954 0
10 1953 1954 0
-1955 -1956 0
-1955 -1957 0
-1956 -1957 0
1955 1956 1957 0
-1958 -1959 0
-1958 -1960 0
-1959 -1960 0
1958 1959 1960 0
-1841 -1961 0
-1841 -1962 0
-1961 -1962 0
1841 1961 1962 0
-1963 -1964 0
-1963 -1965 0
-1964 -1965 0
1963 1964 1965 0
-219 -1966 0
-219 -1967 0
-1966 -1967 0
219 1966 1967 0
-1968 -1969 0
-1968 -1970 0
-1969 -1970 0
1968 1969 1970 0
-556 -1298 0
-556 -1971 0
-1298 -1971 0
556 1298 1971 0
-1232 -1332 0
-1232 -1625 0
-1332 -1625 0
1232 1332 1625 0
-370 -595 0
-370 -1972 0
-595 -1972 0
370 595 1972 0
-796 -1973 0
-796 -1974 0
-1973 -1974 0
796 1973 1974 0
-276 -824 0
-276 -1975 0
-824 -1975 0
276 824 1975 0
-1741 -1769 0
-1741 -1955 0
-1769 -1955 0
1741 1769 1955 0
-1976 -1977 0
-1976 -1978 0
-1977 -1978 0
1976 1977 1978 0
-1979 -1980 0
-1979 -1981 0
-1980 -1981 0
1979 1980 1981 0
-1027 -1697 0
-1027 -1982 0
-1697 -1982 0
1027 1697 1982 0
-423 -1006 0
-423 -1052 0
-1006 -1052 0
423 1006 1052 0
-1983 -1984 0
-1983 -1985 0
-1984 -1985 0
1983 1984 1985 0
-1615 -1986 0
-1615 -1987 0
-1986 -1987 0
1615 1986 1987 0
-1274 -1988 0
-1274 -1989 0
-1988 -1989 0
1274 1988 1989 0
-1990 -1991 0
-1990 -1992 0
-1991 -1992 0
1990 1991 1992 0
-1143 -1993 0
-1143 -1994 0
-1993 -1994 0
1143 1993 1994 0
-1995 -1996 0
-1995 -1997 0
-1996 -1997 0
1995 1996 1997 0
-1998 -1999 0
-1998 -2000 0
-1999 -2000 0
1998 1999 2000 0
-1123 -1605 0
-1123 -2001 0
-1605 -2001 0
1123 1605 2001 0
-1194 -2002 0
-1194 -2003 0
-2002 -2003 0
1194 2002 2003 0
-1748 -2004 0
-1748 -2005 0
-2004 -2005 0
1748 2004 2005 0
-1602 -2006 0
-1602 -2007 0
-2006 -2007 0
1602 2006 2007 0
-655 -1091 0
-655 -2008 0
-1091 -2008 0
655 1091 2008 0
-1886 -2009 0
-1886 -2010 0
-2009 -2010 0
1886 2009 2010 0
-2011 -2012 0
-2011 -2013 0
-2012 -2013 0
2011 2012 2013 0
-1943 -2014 0
-1943 -2015 0
-2014 -2015 0
1943 2014 2015 0
-297 -2016 0
-297 -2017 0
-2016 -2017 0
297 2016 2017 0
-1422 -1684 0
-1422 -2018 0
-1684 -2018 0
1422 1684 2018 0
-2019 -2020 0
-2019 -2021 0
-2020 -2021 0
2019 2020 2021 0
-613 -2022 0
-613 -2023 0
-2022 -2023 0
613 2022 2023 0
-2024 -2025 0
-2024 -2026 0
-2025 -2026 0
2024 2025 2026 0
-2027 -2028 0
-2027 -2029 0
-2028 -2029 0
2027 2028 2029 0
-410 -1162 0
-410 -2030 0
-1162 -2030 0
410 1162 2030 0
-1831 -2031 0
-1831 -2032 0
-2031 -2032 0
1831 2031 2032 0
-1807 -2033 0
-1807 -2034 0
-2033 -2034 0
1807 2033 2034 0
-2035 -2036 0
-2035 -2037 0
-2036 -2037 0
2035 2036 2037 0
-689 -1634 0
-689 -2038 0
-1634 -2038 0
689 1634 2038 0
-1304 -1436 0
-1304 -2039 0
-1436 -2039 0
1304 1436 2039 0
-821 -2040 0
-821 -2041 0
-2040 -2041 0
821 2040 2041 0
-1836 -2042 0
-1836 -2043 0
-2042 -2043 0
1836 2042 2043 0
-1961 -2044 0
-1961 -2045 0
-2044 -2045 0
1961 2044 2045 0
-858 -2046 0
-858 -2047 0
-2046 -2047 0
858 2046 2047 0
-768 -1075 0
-768 -2048 0
-1075 -2048 0
768 1075 2048 0
-978 -2049 0
-978 -2050 0
-2049 -2050 0
978 2049 2050 0
-179 -1290 0
-179 -2051 0
-1290 -2051 0
179 1290 2051 0
-1804 -2052 0
-1804 -2053 0
-2052 -2053 0
1804 2052 2053 0
-1680 -2054 0
-1680 -2055 0
-2054 -2055 0
1680 2054 2055 0
-1936 -2056 0
-1936 -2057 0
-2056 -2057 0
1936 2056 2057 0
-713 -2058 0
-713 -2059 0
-2058 -2059 0
713 2058 2059 0
-841 -1496 0
-841 -2060 0
-1496 -2060 0
841 1496 2060 0
-2061 -2062 0
-2061 -2063 0
-2062 -2063 0
2061 2062 2063 0
-646 -952 0
-646 -2064 0
-952 -2064 0
646 952 2064 0
-1869 -2065 0
-1869 -2066 0
-2065 -2066 0
1869 2065 2066 0
-1014 -2067 0
-1014 -2068 0
-2067 -2068 0
1014 2067 2068 0
-2069 -2070 0
-2069 -2071 0
-2070 -2071 0
2069 2070 2071 0
-2072 -2073 0
-2072 -2074 0
-2073 -2074 0
2072 2073 2074 0
-1484 -2075 0
-1484 -2076 0
-2075 -2076 0
1484 2075 2076 0
-377 -2077 0
-377 -2078 0
-2077 -2078 0
377 2077 2078 0
-201 -1078 0
-201 -2079 0
-1078 -2079 0
201 1078 2079 0
-2016 -2080 0
-2016 -2081 0
-2080 -2081 0
2016 2080 2081 0
-171 -2082 0
-171 -2083 0
-2082 -2083 0
171 2082 2083 0
-804 -2084 0
-804 -2085 0
-2084 -2085 0
804 2084 2085 0
-592 -621 0
-592 -2038 0
-621 -2038 0
592 621 2038 0
-1558 -2086 0
-1558 -2087 0
-2086 -2087 0
1558 2086 2087 0
-1432 -2088 0
-1432 -2089 0
-2088 -2089 0
1432 2088 2089 0
-942 -2090 0
-942 -2091 0
-2090 -2091 0
942 2090 2091 0
-2092 -2093 0
-2092 -2094 0
-2093 -2094 0
2092 2093 2094 0
-1603 -2095 0
-1603 -2096 0
-2095 -2096 0
1603 2095 2096 0
-1799 -2097 0
-1799 -2098 0
-2097 -2098 0
1799 2097 2098 0
-2099 -2100 0
-2099 -2101 0
-2100 -2101 0
2099 2100 2101 0
-2102 -2103 0
-2102 -2104 0
-2103 -2104 0
2102 2103 2104 0
-1417 -1450 0
-1417 -2105 0
-1450 -2105 0
1417 1450 2105 0
-2106 -2107 0
-2106 -2108 0
-2107 -2108 0
2106 2107 2108 0
-355 -2011 0
-355 -2109 0
-2011 -2109 0
355 2011 2109 0
-629 -2110 0
-629 -2111 0
-2110 -2111 0
629 2110 2111 0
-1237 -2112 0
-1237 -2113 0
-2112 -2113 0
1237 2112 2113 0
-1471 -2114 0
-1471 -2115 0
-2114 -2115 0
1471 2114 2115 0
-511 -1462 0
-511 -2116 0
-1462 -2116 0
511 1462 2116 0
-2117 -2118 0
-2117 -2119 0
-2118 -2119 0
2117 2118 2119 0
-924 -1037 0
-924 -2120 0
-1037 -2120 0
924 1037 2120 0
-2121 -2122 0
-2121 -2123 0
-2122 -2123 0
2121 2122 2123 0
-2124 -2125 0
-2124 -2126 0
-2125 -2126 0
2124 2125 2126 0
-1774 -2127 0
-1774 -2128 0
-2127 -2128 0
1774 2127 2128 0
-704 -2129 0
-704 -2130 0
-2129 -2130 0
704 2129 2130 0
-1477 -1832 0
-1477 -2131 0
-1832 -2131 0
1477 1832 2131 0
-2132 -2133 0
-2132 -2134 0
-2133 -2134 0
2132 2133 2134 0
-2035 -2135 0
-2035 -2136 0
-2135 -2136 0
2035 2135 2136 0
-2137 -2138 0
-2137 -2139 0
-2138 -2139 0
2137 2138 2139 0
-2140 -2141 0
-2140 -2142 0
-2141 -2142 0
2140 2141 2142 0
-2143 -2144 0
-2143 -2145 0
-2144 -2145 0
2143 2144 2145 0
-1778 -2146 0
-1778 -2147 0
-2146 -2147 0
1778 2146 2147 0
-2148 -2149 0
-2148 -2150 0
-2149 -2150 0
2148 2149 2150 0
-2151 -2152 0
-2151 -2153 0
-2152 -2153 0
2151 2152 2153 0
-1780 -2154 0
-1780 -2155 0
-2154 -2155 0
1780 2154 2155 0
-2156 -2157 0
-2156 -2158 0
-2157 -2158 0
2156 2157 2158 0
-1572 -2159 0
-1572 -2160 0
-2159 -2160 0
1572 2159 2160 0
-85 -1681 0
-85 -2161 0
-1681 -2161 0
85 1681 2161 0
-337 -2162 0
-337 -2163 0
-2162 -2163 0
337 2162 2163 0
-1076 -1285 0
-1076 -2164 0
-1285 -2164 0
1076 1285 2164 0
-1711 -2165 0
-1711 -2166 0
-2165 -2166 0
1711 2165 2166 0
-1513 -2167 0
-1513 -2168 0
-2167 -2168 0
1513 2167 2168 0
-2072 -2169 0
-2072 -2170 0
-2169 -2170 0
2072 2169 2170 0
-2171 -2172 0
-2171 -2173 0
-2172 -2173 0
2171 2172 2173 0
-815 -1785 0
-815 -2174 0
-1785 -2174 0
815 1785 2174 0
-2175 -2176 0
-2175 -2177 0
-2176 -2177 0
2175 2176 2177 0
-2178 -2179 0
-2178 -2180 0
-2179 -2180 0
2178 2179 2180 0
-2143 -2181 0
-2143 -2182 0
-2181 -2182 0
2143 2181 2182 0
-34 -356 0
-34 -2183 0
-356 -2183 0
34 356 2183 0
-504 -2184 0
-504 -2185 0
-2184 -2185 0
504 2184 2185 0
-1115 -2114 0
-1115 -2186 0
-2114 -2186 0
1115 2114 2186 0
-228 -2187 0
-228 -2188 0
-2187 -2188 0
228 2187 2188 0
-887 -1898 0
-887 -2189 0
-1898 -2189 0
887 1898 2189 0
-1793 -2190 0
-1793 -2191 0
-2190 -2191 0
1793 2190 2191 0
-2192 -2193 0
-2192 -2194 0
-2193 -2194 0
2192 2193 2194 0
-2195 -2196 0
-2195 -2197 0
-2196 -2197 0
2195 2196 2197 0
-1086 -1589 0
-1086 -2198 0
-1589 -2198 0
1086 1589 2198 0
-1359 -1448 0
-1359 -2199 0
-1448 -2199 0
1359 1448 2199 0
-2200 -2201 0
-2200 -2202 0
-2201 -2202 0
2200 2201 2202 0
-63 -1865 0
-63 -2203 0
-1865 -2203 0
63 1865 2203 0
-1319 -2204 0
-1319 -2205 0
-2204 -2205 0
1319 2204 2205 0
-2206 -2207 0
-2206 -2208 0
-2207 -2208 0
2206 2207 2208 0
-35 -254 0
-35 -764 0
-254 -764 0
35 254 764 0
-608 -1351 0
-608 -2209 0
-1351 -2209 0
608 1351 2209 0
-2210 -2211 0
-2210 -2212 0
-2211 -2212 0
2210 2211 2212 0
-822 -2213 0
-822 -2214 0
-2213 -2214 0
822 2213 2214 0
-473 -2165 0
-473 -2215 0
-2165 -2215 0
473 2165 2215 0
-265 -911 0
-265 -2216 0
-911 -2216 0
265 911 2216 0
-604 -2217 0
-604 -2218 0
-2217 -2218 0
604 2217 2218 0
-2219 -2220 0
-2219 -2221 0
-2220 -2221 0
2219 2220 2221 0
-1451 -2222 0
-1451 -2223 0
-2222 -2223 0
1451 2222 2223 0
-2224 -2225 0
-2224 -2226 0
-2225 -2226 0
2224 2225 2226 0
-1480 -2227 0
-1480 -2228 0
-2227 -2228 0
1480 2227 2228 0
-190 -2229 0
-190 -2230 0
-2229 -2230 0
190 2229 2230 0
-2231 -2232 0
-2231 -2233 0
-2232 -2233 0
2231 2232 2233 0
-1061 -1534 0
-1061 -2234 0
-1534 -2234 0
1061 1534 2234 0
-1042 -2235 0
-1042 -2236 0
-2235 -2236 0
1042 2235 2236 0
-2237 -2238 0
-2237 -2239 0
-2238 -2239 0
2237 2238 2239 0
-990 -2240 0
-990 -2241 0
-2240 -2241 0
990 2240 2241 0
-1185 -2242 0
-1185 -2243 0
-2242 -2243 0
1185 2242 2243 0
-961 -1998 0
-961 -2244 0
-1998 -2244 0
961 1998 2244 0
-692 -2245 0
-692 -2246 0
-2245 -2246 0
692 2245 2246 0
-2247 -2248 0
-2247 -2249 0
-2248 -2249 0
2247 2248 2249 0
-1361 -2250 0
-1361 -2251 0
-2250 -2251 0
1361 2250 2251 0
-672 -2184 0
-672 -2252 0
-2184 -2252 0
672 2184 2252 0
-2042 -2253 0
-2042 -2254 0
-2253 -2254 0
2042 2253 2254 0
-2255 -2256 0
-2255 -2257 0
-2256 -2257 0
2255 2256 2257 0
-1140 -1879 0
-1140 -2258 0
-1879 -2258 0
1140 1879 2258 0
-1249 -2259 0
-1249 -2260 0
-2259 -2260 0
1249 2259 2260 0
-1269 -2261 0
-1269 -2262 0
-2261 -2262 0
1269 2261 2262 0
-2175 -2263 0
-2175 -2264 0
-2263 -2264 0
2175 2263 2264 0
-2265 -2266 0
-2265 -2267 0
-2266 -2267 0
2265 2266 2267 0
-596 -1794 0
-596 -2268 0
-1794 -2268 0
596 1794 2268 0
-2234 -2269 0
-2234 -2270 0
-2269 -2270 0
2234 2269 2270 0
-2271 -2272 0
-2271 -2273 0
-2272 -2273 0
2271 2272 2273 0
-162 -405 0
-162 -1124 0
-405 -1124 0
162 405 1124 0
-302 -1040 0
-302 -2274 0
-1040 -2274 0
302 1040 2274 0
-2275 -2276 0
-2275 -2277 0
-2276 -2277 0
2275 2276 2277 0
-1735 -2278 0
-1735 -2279 0
-2278 -2279 0
1735 2278 2279 0
-27 -117 0
-27 -1826 0
-117 -1826 0
27 117 1826 0
-1301 -1483 0
-1301 -2280 0
-1483 -2280 0
1301 1483 2280 0
-2281 -2282 0
-2281 -2283 0
-2282 -2283 0
2281 2282 2283 0
-1043 -2033 0
-1043 -2284 0
-2033 -2284 0
1043 2033 2284 0
-2285 -2286 0
-2285 -2287 0
-2286 -2287 0
2285 2286 2287 0
-436 -523 0
-436 -852 0
-523 -852 0
436 523 852 0
-505 -2288 0
-505 -2289 0
-2288 -2289 0
505 2288 2289 0
-437 -2001 0
-437 -2290 0
-2001 -2290 0
437 2001 2290 0
-306 -2291 0
-306 -2292 0
-2291 -2292 0
306 2291 2292 0
-19 -2293 0
-19 -2294 0
-2293 -2294 0
19 2293 2294 0
-527 -2295 0
-527 -2296 0
-2295 -2296 0
527 2295 2296 0
-733 -1050 0
-733 -1158 0
-1050 -1158 0
733 1050 1158 0
-2297 -2298 0
-2297 -2299 0
-2298 -2299 0
2297 2298 2299 0
-769 -2300 0
-769 -2301 0
-2300 -2301 0
769 2300 2301 0
-2302 -2303 0
-2302 -2304 0
-2303 -2304 0
2302 2303 2304 0
-2305 -2306 0
-2305 -2307 0
-2306 -2307 0
2305 2306 2307 0
-1562 -2308 0
-1562 -2309 0
-2308 -2309 0
1562 2308 2309 0
-2310 -2311 0
-2310 -2312 0
-2311 -2312 0
2310 2311 2312 0
-1612 -2159 0
-1612 -2300 0
-2159 -2300 0
1612 2159 2300 0
-59 -2313 0
-59 -2314 0
-2313 -2314 0
59 2313 2314 0
-487 -1396 0
-487 -2315 0
-1396 -2315 0
487 1396 2315 0
-558 -719 0
-558 -2316 0
-719 -2316 0
558 719 2316 0
-205 -2161 0
-205 -2317 0
-2161 -2317 0
205 2161 2317 0
-2318 -2319 0
-2318 -2320 0
-2319 -2320 0
2318 2319 2320 0
-73 -2321 0
-73 -2322 0
-2321 -2322 0
73 2321 2322 0
-627 -1183 0
-627 -2061 0
-1183 -2061 0
627 1183 2061 0
-616 -1906 0
-616 -2323 0
-1906 -2323 0
616 1906 2323 0
-593 -2324 0
-593 -2325 0
-2324 -2325 0
593 2324 2325 0
-2326 -2327 0
-2326 -2328 0
-2327 -2328 0
2326 2327 2328 0
-716 -1917 0
-716 -2329 0
-1917 -2329 0
716 1917 2329 0
-191 -1909 0
-191 -2330 0
-1909 -2330 0
191 1909 2330 0
-831 -2331 0
-831 -2332 0
-2331 -2332 0
831 2331 2332 0
-674 -2333 0
-674 -2334 0
-2333 -2334 0
674 2333 2334 0
-491 -1109 0
-491 -2335 0
-1109 -2335 0
491 1109 2335 0
-3 -1002 0
-3 -2336 0
-1002 -2336 0
3 1002 2336 0
-1212 -2337 0
-1212 -2338 0
-2337 -2338 0
1212 2337 2338 0
-1021 -1979 0
-1021 -2339 0
-1979 -2339 0
1021 1979 2339 0
-2340 -2341 0
-2340 -2342 0
-2341 -2342 0
2340 2341 2342 0
-1694 -2343 0
-1694 -2344 0
-2343 -2344 0
1694 2343 2344 0
-2345 -2346 0
-2345 -2347 0
-2346 -2347 0
2345 2346 2347 0
-856 -1420 0
-856 -2348 0
-1420 -2348 0
856 1420 2348 0
-2349 -2350 0
-2349 -2351 0
-2350 -2351 0
2349 2350 2351 0
-1606 -2352 0
-1606 -2353 0
-2352 -2353 0
1606 2352 2353 0
-2354 -2355 0
-2354 -2356 0
-2355 -2356 0
2354 2355 2356 0
-1859 -2357 0
-1859 -2358 0
-2357 -2358 0
1859 2357 2358 0
-2359 -2360 0
-2359 -2361 0
-2360 -2361 0
2359 2360 2361 0
-1671 -2154 0
-1671 -2362 0
-2154 -2362 0
1671 2154 2362 0
-1353 -1488 0
-1353 -2363 0
-1488 -2363 0
1353 1488 2363 0
-590 -2117 0
-590 -2364 0
-2117 -2364 0
590 2117 2364 0
-2178 -2365 0
-2178 -2366 0
-2365 -2366 0
2178 2365 2366 0
-113 -346 0
-113 -2367 0
-346 -2367 0
113 346 2367 0
-1433 -2368 0
-1433 -2369 0
-2368 -2369 0
1433 2368 2369 0
-508 -2370 0
-508 -2371 0
-2370 -2371 0
508 2370 2371 0
-2372 -2373 0
-2372 -2374 0
-2373 -2374 0
2372 2373 2374 0
-1491 -2375 0
-1491 -2376 0
-2375 -2376 0
1491 2375 2376 0
-2377 -2378 0
-2377 -2379 0
-2378 -2379 0
2377 2378 2379 0
-2380 -2381 0
-2380 -2382 0
-2381 -2382 0
2380 2381 2382 0
-1846 -1882 0
-1846 -2383 0
-1882 -2383 0
1846 1882 2383 0
-84 -430 0
-84 -1125 0
-430 -1125 0
84 430 1125 0
-685 -2384 0
-685 -2385 0
-2384 -2385 0
685 2384 2385 0
-1295 -1386 0
-1295 -2386 0
-1386 -2386 0
1295 1386 2386 0
-433 -2387 0
-433 -2388 0
-2387 -2388 0
433 2387 2388 0
-2389 -2390 0
-2389 -2391 0
-2390 -2391 0
2389 2390 2391 0
-2392 -2393 0
-2392 -2394 0
-2393 -2394 0
2392 2393 2394 0
-2395 -2396 0
-2395 -2397 0
-2396 -2397 0
2395 2396 2397 0
-1106 -2398 0
-1106 -2399 0
-2398 -2399 0
1106 2398 2399 0
-2367 -2400 0
-2367 -2401 0
-2400 -2401 0
2367 2400 2401 0
-313 -2402 0
-313 -2403 0
-2402 -2403 0
313 2402 2403 0
-950 -1218 0
-950 -2404 0
-1218 -2404 0
950 1218 2404 0
-756 -2405 0
-756 -2406 0
-2405 -2406 0
756 2405 2406 0
-650 -2407 0
-650 -2408 0
-2407 -2408 0
650 2407 2408 0
-2156 -2409 0
-2156 -2410 0
-2409 -2410 0
2156 2409 2410 0
-610 -1352 0
-610 -2411 0
-1352 -2411 0
610 1352 2411 0
-76 -1191 0
-76 -2412 0
-1191 -2412 0
76 1191 2412 0
-1786 -2413 0
-1786 -2414 0
-2413 -2414 0
1786 2413 2414 0
-1852 -2415 0
-1852 -2416 0
-2415 -2416 0
1852 2415 2416 0
-2417 -2418 0
-2417 -2419 0
-2418 -2419 0
2417 2418 2419 0
-1884 -2420 0
-1884 -2421 0
-2420 -2421 0
1884 2420 2421 0
-2065 -2422 0
-2065 -2423 0
-2422 -2423 0
2065 2422 2423 0
-408 -2424 0
-408 -2425 0
-2424 -2425 0
408 2424 2425 0
-2426 -2427 0
-2426 -2428 0
-2427 -2428 0
2426 2427 2428 0
-876 -1861 0
-876 -2429 0
-1861 -2429 0
876 1861 2429 0
-925 -2417 0
-925 -2430 0
-2417 -2430 0
925 2417 2430 0
-1860 -2431 0
-1860 -2432 0
-2431 -2432 0
1860 2431 2432 0
-720 -1796 0
-720 -2433 0
-1796 -2433 0
720 1796 2433 0
-2434 -2435 0
-2434 -2436 0
-2435 -2436 0
2434 2435 2436 0
-195 -2437 0
-195 -2438 0
-2437 -2438 0
195 2437 2438 0
-2049 -2439 0
-2049 -2440 0
-2439 -2440 0
2049 2439 2440 0
-2321 -2441 0
-2321 -2442 0
-2441 -2442 0
2321 2441 2442 0
-2203 -2443 0
-2203 -2444 0
-2443 -2444 0
2203 2443 2444 0
-1910 -2014 0
-1910 -2445 0
-2014 -2445 0
1910 2014 2445 0
-1306 -2446 0
-1306 -2447 0
-2446 -2447 0
1306 2446 2447 0
-1797 -2434 0
-1797 -2448 0
-2434 -2448 0
1797 2434 2448 0
-1366 -2422 0
-1366 -2449 0
-2422 -2449 0
1366 2422 2449 0
-2450 -2451 0
-2450 -2452 0
-2451 -2452 0
2450 2451 2452 0
-1173 -2453 0
-1173 -2454 0
-2453 -2454 0
1173 2453 2454 0
-1911 -2455 0
-1911 -2456 0
-2455 -2456 0
1911 2455 2456 0
-414 -2457 0
-414 -2458 0
-2457 -2458 0
414 2457 2458 0
-1650 -2459 0
-1650 -2460 0
-2459 -2460 0
1650 2459 2460 0
-1952 -2457 0
-1952 -2461 0
-2457 -2461 0
1952 2457 2461 0
-428 -1022 0
-428 -2462 0
-1022 -2462 0
428 1022 2462 0
-2463 -2464 0
-2463 -2465 0
-2464 -2465 0
2463 2464 2465 0
-182 -1640 0
-182 -2466 0
-1640 -2466 0
182 1640 2466 0
-1924 -2467 0
-1924 -2468 0
-2467 -2468 0
1924 2467 2468 0
-1133 -2075 0
-1133 -2469 0
-2075 -2469 0
1133 2075 2469 0
-809 -2470 0
-809 -2471 0
-2470 -2471 0
809 2470 2471 0
-2472 -2473 0
-2472 -2474 0
-2473 -2474 0
2472 2473 2474 0
-2310 -2475 0
-2310 -2476 0
-2475 -2476 0
2310 2475 2476 0
-2477 -2478 0
-2477 -2479 0
-2478 -2479 0
2477 2478 2479 0
-695 -2372 0
-695 -2480 0
-2372 -2480 0
695 2372 2480 0
-572 -2481 0
-572 -2482 0
-2481 -2482 0
572 2481 2482 0
-2483 -2484 0
-2483 -2485 0
-2484 -2485 0
2483 2484 2485 0
-690 -2486 0
-690 -2487 0
-2486 -2487 0
690 2486 2487 0
-2018 -2086 0
-2018 -2488 0
-2086 -2488 0
2018 2086 2488 0
-2489 -2490 0
-2489 -2491 0
-2490 -2491 0
2489 2490 2491 0
-862 -1973 0
-862 -2492 0
-1973 -2492 0
862 1973 2492 0
-374 -2493 0
-374 -2494 0
-2493 -2494 0
374 2493 2494 0
-392 -431 0
-392 -2040 0
-431 -2040 0
392 431 2040 0
-1362 -2488 0
-1362 -2495 0
-2488 -2495 0
1362 2488 2495 0
-933 -1628 0
-933 -2496 0
-1628 -2496 0
933 1628 2496 0
-2497 -2498 0
-2497 -2499 0
-2498 -2499 0
2497 2498 2499 0
-2259 -2500 0
-2259 -2501 0
-2500 -2501 0
2259 2500 2501 0
-2247 -2502 0
-2247 -2503 0
-2502 -2503 0
2247 2502 2503 0
-2504 -2505 0
-2504 -2506 0
-2505 -2506 0
2504 2505 2506 0
-1511 -1638 0
-1511 -2507 0
-1638 -2507 0
1511 1638 2507 0
-1790 -2508 0
-1790 -2509 0
-2508 -2509 0
1790 2508 2509 0
-2426 -2510 0
-2426 -2511 0
-2510 -2511 0
2426 2510 2511 0
-1135 -2512 0
-1135 -2513 0
-2512 -2513 0
1135 2512 2513 0
-880 -931 0
-880 -2514 0
-931 -2514 0
880 931 2514 0
-2459 -2515 0
-2459 -2516 0
-2515 -2516 0
2459 2515 2516 0
-539 -2517 0
-539 -2518 0
-2517 -2518 0
539 2517 2518 0
-2181 -2387 0
-2181 -2519 0
-2387 -2519 0
2181 2387 2519 0
-2051 -2448 0
-2051 -2520 0
-2448 -2520 0
2051 2448 2520 0
-131 -2121 0
-131 -2521 0
-2121 -2521 0
131 2121 2521 0
-535 -2522 0
-535 -2523 0
-2522 -2523 0
535 2522 2523 0
-2524 -2525 0
-2524 -2526 0
-2525 -2526 0
2524 2525 2526 0
-2527 -2528 0
-2527 -2529 0
-2528 -2529 0
2527 2528 2529 0
-2530 -2531 0
-2530 -2532 0
-2531 -2532 0
2530 2531 2532 0
-470 -765 0
-470 -1260 0
-765 -1260 0
470 765 1260 0
-1394 -2533 0
-1394 -2534 0
-2533 -2534 0
1394 2533 2534 0
-644 -799 0
-644 -2106 0
-799 -2106 0
644 799 2106 0
-2398 -2535 0
-2398 -2536 0
-2535 -2536 0
2398 2535 2536 0
-403 -2537 0
-403 -2538 0
-2537 -2538 0
403 2537 2538 0
-1764 -1890 0
-1764 -2539 0
-1890 -2539 0
1764 1890 2539 0
-255 -471 0
-255 -2540 0
-471 -2540 0
255 471 2540 0
-1668 -2541 0
-1668 -2542 0
-2541 -2542 0
1668 2541 2542 0
-1802 -2543 0
-1802 -2544 0
-2543 -2544 0
1802 2543 2544 0
-1299 -1457 0
-1299 -1497 0
-1457 -1497 0
1299 1457 1497 0
-1320 -1795 0
-1320 -2545 0
-1795 -2545 0
1320 1795 2545 0
-126 -2015 0
-126 -2546 0
-2015 -2546 0
126 2015 2546 0
-1529 -2547 0
-1529 -2548 0
-2547 -2548 0
1529 2547 2548 0
-1806 -1956 0
-1806 -2549 0
-1956 -2549 0
1806 1956 2549 0
-2550 -2551 0
-2550 -2552 0
-2551 -2552 0
2550 2551 2552 0
-2151 -2553 0
-2151 -2554 0
-2553 -2554 0
2151 2553 2554 0
-591 -2555 0
-591 -2556 0
-2555 -2556 0
591 2555 2556 0
-2435 -2557 0
-2435 -2558 0
-2557 -2558 0
2435 2557 2558 0
-2559 -2560 0
-2559 -2561 0
-2560 -2561 0
2559 2560 2561 0
-1198 -2562 0
-1198 -2563 0
-2562 -2563 0
1198 2562 2563 0
-2564 -2565 0
-2564 -2566 0
-2565 -2566 0
2564 2565 2566 0
-1293 -2420 0
-1293 -2567 0
-2420 -2567 0
1293 2420 2567 0
-445 -2568 0
-445 -2569 0
-2568 -2569 0
445 2568 2569 0
-399 -791 0
-399 -2570 0
-791 -2570 0
399 791 2570 0
-2571 -2572 0
-2571 -2573 0
-2572 -2573 0
2571 2572 2573 0
-816 -1875 0
-816 -2574 0
-1875 -2574 0
816 1875 2574 0
-149 -2575 0
-149 -2576 0
-2575 -2576 0
149 2575 2576 0
-986 -2577 0
-986 -2578 0
-2577 -2578 0
986 2577 2578 0
-575 -2579 0
-575 -2580 0
-2579 -2580 0
575 2579 2580 0
-926 -1661 0
-926 -2581 0
-1661 -2581 0
926 1661 2581 0
-150 -2582 0
-150 -2583 0
-2582 -2583 0
150 2582 2583 0
-2584 -2585 0
-2584 -2586 0
-2585 -2586 0
2584 2585 2586 0
-99 -357 0
-99 -2517 0
-357 -2517 0
99 357 2517 0
-576 -2587 0
-576 -2588 0
-2587 -2588 0
576 2587 2588 0
-512 -1044 0
-512 -2589 0
-1044 -2589 0
512 1044 2589 0
-2590 -2591 0
-2590 -2592 0
-2591 -2592 0
2590 2591 2592 0
-2359 -2593 0
-2359 -2594 0
-2593 -2594 0
2359 2593 2594 0
-566 -2595 0
-566 -2596 0
-2595 -2596 0
566 2595 2596 0
-1885 -2508 0
-1885 -2597 0
-2508 -2597 0
1885 2508 2597 0
-2598 -2599 0
-2598 -2600 0
-2599 -2600 0
2598 2599 2600 0
-1414 -2373 0
-1414 -2601 0
-2373 -2601 0
1414 2373 2601 0
-2080 -2602 0
-2080 -2603 0
-2602 -2603 0
2080 2602 2603 0
-877 -2604 0
-877 -2605 0
-2604 -2605 0
877 2604 2605 0
-1631 -2255 0
-1631 -2606 0
-2255 -2606 0
1631 2255 2606 0
-1221 -2607 0
-1221 -2608 0
-2607 -2608 0
1221 2607 2608 0
-400 -1900 0
-400 -2609 0
-1900 -2609 0
400 1900 2609 0
-349 -1676 0
-349 -2610 0
-1676 -2610 0
349 1676 2610 0
-637 -2611 0
-637 -2612 0
-2611 -2612 0
637 2611 2612 0
-561 -2613 0
-561 -2614 0
-2613 -2614 0
561 2613 2614 0
-1007 -2466 0
-1007 -2615 0
-2466 -2615 0
1007 2466 2615 0
-555 -2616 0
-555 -2617 0
-2616 -2617 0
555 2616 2617 0
-967 -1563 0
-967 -2618 0
-1563 -2618 0
967 1563 2618 0
-1372 -2559 0
-1372 -2619 0
-2559 -2619 0
1372 2559 2619 0
-870 -2620 0
-870 -2621 0
-2620 -2621 0
870 2620 2621 0
-928 -1896 0
-928 -2622 0
-1896 -2622 0
928 1896 2622 0
-1205 -2261 0
-1205 -2623 0
-2261 -2623 0
1205 2261 2623 0
-2624 -2625 0
-2624 -2626 0
-2625 -2626 0
2624 2625 2626 0
-975 -2627 0
-975 -2628 0
-2627 -2628 0
975 2627 2628 0
-1725 -2629 0
-1725 -2630 0
-2629 -2630 0
1725 2629 2630 0
-750 -2411 0
-750 -2547 0
-2411 -2547 0
750 2411 2547 0
-2631 -2632 0
-2631 -2633 0
-2632 -2633 0
2631 2632 2633 0
-2634 -2635 0
-2634 -2636 0
-2635 -2636 0
2634 2635 2636 0
-1302 -1706 0
-1302 -2637 0
-1706 -2637 0
1302 1706 2637 0
-2638 -2639 0
-2638 -2640 0
-2639 -2640 0
2638 2639 2640 0
-500 -2641 0
-500 -2642 0
-2641 -2642 0
500 2641 2642 0
-526 -2077 0
-526 -2643 0
-2077 -2643 0
526 2077 2643 0
-2512 -2644 0
-2512 -2645 0
-2644 -2645 0
2512 2644 2645 0
-2646 -2647 0
-2646 -2648 0
-2647 -2648 0
2646 2647 2648 0
-2649 -2650 0
-2649 -2651 0
-2650 -2651 0
2649 2650 2651 0
-929 -2305 0
-929 -2652 0
-2305 -2652 0
929 2305 2652 0
-232 -442 0
-232 -493 0
-442 -493 0
232 442 493 0
-1867 -2653 0
-1867 -2654 0
-2653 -2654 0
1867 2653 2654 0
-971 -1411 0
-971 -2655 0
-1411 -2655 0
971 1411 2655 0
-1382 -1745 0
-1382 -2656 0
-1745 -2656 0
1382 1745 2656 0
-1163 -2657 0
-1163 -2658 0
-2657 -2658 0
1163 2657 2658 0
-1590 -1988 0
-1590 -2659 0
-1988 -2659 0
1590 1988 2659 0
-240 -2237 0
-240 -2389 0
-2237 -2389 0
240 2237 2389 0
-1005 -2660 0
-1005 -2661 0
-2660 -2661 0
1005 2660 2661 0
-2052 -2524 0
-2052 -2662 0
-2524 -2662 0
2052 2524 2662 0
-2663 -2664 0
-2663 -2665 0
-2664 -2665 0
2663 2664 2665 0
-176 -2525 0
-176 -2666 0
-2525 -2666 0
176 2525 2666 0
-216 -280 0
-216 -1195 0
-280 -1195 0
216 280 1195 0
-1177 -2481 0
-1177 -2667 0
-2481 -2667 0
1177 2481 2667 0
-1857 -2668 0
-1857 -2669 0
-2668 -2669 0
1857 2668 2669 0
-2349 -2449 0
-2349 -2670 0
-2449 -2670 0
2349 2449 2670 0
-2395 -2671 0
-2395 -2672 0
-2671 -2672 0
2395 2671 2672 0
-323 -443 0
-323 -2673 0
-443 -2673 0
323 443 2673 0
-1686 -2674 0
-1686 -2675 0
-2674 -2675 0
1686 2674 2675 0
-2027 -2676 0
-2027 -2677 0
-2676 -2677 0
2027 2676 2677 0
-2326 -2678 0
-2326 -2679 0
-2678 -2679 0
2326 2678 2679 0
-2306 -2548 0
-2306 -2680 0
-2548 -2680 0
2306 2548 2680 0
-2681 -2682 0
-2681 -2683 0
-2682 -2683 0
2681 2682 2683 0
-658 -2684 0
-658 -2685 0
-2684 -2685 0
658 2684 2685 0
-748 -2686 0
-748 -2687 0
-2686 -2687 0
748 2686 2687 0
-1257 -2031 0
-1257 -2688 0
-2031 -2688 0
1257 2031 2688 0
-1925 -2689 0
-1925 -2690 0
-2689 -2690 0
1925 2689 2690 0
-1674 -2148 0
-1674 -2691 0
-2148 -2691 0
1674 2148 2691 0
-2692 -2693 0
-2692 -2694 0
-2693 -2694 0
2692 2693 2694 0
-1489 -2053 0
-1489 -2695 0
-2053 -2695 0
1489 2053 2695 0
-2463 -2696 0
-2463 -2697 0
-2696 -2697 0
2463 2696 2697 0
-2698 -2699 0
-2698 -2700 0
-2699 -2700 0
2698 2699 2700 0
-140 -1893 0
-140 -2701 0
-1893 -2701 0
140 1893 2701 0
-2493 -2702 0
-2493 -2703 0
-2702 -2703 0
2493 2702 2703 0
-2521 -2704 0
-2521 -2705 0
-2704 -2705 0
2521 2704 2705 0
-520 -2200 0
-520 -2475 0
-2200 -2475 0
520 2200 2475 0
-1395 -2706 0
-1395 -2707 0
-2706 -2707 0
1395 2706 2707 0
-533 -728 0
-533 -2708 0
-728 -2708 0
533 728 2708 0
-151 -2022 0
-151 -2709 0
-2022 -2709 0
151 2022 2709 0
-2710 -2711 0
-2710 -2712 0
-2711 -2712 0
2710 2711 2712 0
-1635 -2713 0
-1635 -2714 0
-2713 -2714 0
1635 2713 2714 0
-1046 -2715 0
-1046 -2716 0
-2715 -2716 0
1046 2715 2716 0
-1822 -1938 0
-1822 -2455 0
-1938 -2455 0
1822 1938 2455 0
-1309 -2717 0
-1309 -2718 0
-2717 -2718 0
1309 2717 2718 0
-2696 -2719 0
-2696 -2720 0
-2719 -2720 0
2696 2719 2720 0
-1376 -2721 0
-1376 -2722 0
-2721 -2722 0
1376 2721 2722 0
-259 -2723 0
-259 -2724 0
-2723 -2724 0
259 2723 2724 0
-2418 -2725 0
-2418 -2726 0
-2725 -2726 0
2418 2725 2726 0
-701 -2727 0
-701 -2728 0
-2727 -2728 0
701 2727 2728 0
-2030 -2729 0
-2030 -2730 0
-2729 -2730 0
2030 2729 2730 0
-2256 -2731 0
-2256 -2732 0
-2731 -2732 0
2256 2731 2732 0
-2733 -2734 0
-2733 -2735 0
-2734 -2735 0
2733 2734 2735 0
-8 -905 0
-8 -2736 0
-905 -2736 0
8 905 2736 0
-2363 -2737 0
-2363 -2738 0
-2737 -2738 0
2363 2737 2738 0
-890 -2739 0
-890 -2740 0
-2739 -2740 0
890 2739 2740 0
-1377 -2741 0
-1377 -2742 0
-2741 -2742 0
1377 2741 2742 0
-479 -2743 0
-479 -2744 0
-2743 -2744 0
479 2743 2744 0
-1746 -1990 0
-1746 -2190 0
-1990 -2190 0
1746 1990 2190 0
-2171 -2258 0
-2171 -2297 0
-2258 -2297 0
2171 2258 2297 0
-2380 -2582 0
-2380 -2745 0
-2582 -2745 0
2380 2582 2745 0
-79 -1653 0
-79 -2746 0
-1653 -2746 0
79 1653 2746 0
-2747 -2748 0
-2747 -2749 0
-2748 -2749 0
2747 2748 2749 0
-375 -2231 0
-375 -2750 0
-2231 -2750 0
375 2231 2750 0
-2751 -2752 0
-2751 -2753 0
-2752 -2753 0
2751 2752 2753 0
-1112 -1742 0
-1112 -2754 0
-1742 -2754 0
1112 1742 2754 0
-2458 -2477 0
-2458 -2755 0
-2477 -2755 0
2458 2477 2755 0
-2206 -2756 0
-2206 -2757 0
-2756 -2757 0
2206 2756 2757 0
-2692 -2758 0
-2692 -2759 0
-2758 -2759 0
2692 2758 2759 0
-2224 -2760 0
-2224 -2761 0
-2760 -2761 0
2224 2760 2761 0
-1446 -2762 0
-1446 -2763 0
-2762 -2763 0
1446 2762 2763 0
-270 -2219 0
-270 -2764 0
-2219 -2764 0
270 2219 2764 0
-132 -2765 0
-132 -2766 0
-2765 -2766 0
132 2765 2766 0
-2167 -2767 0
-2167 -2768 0
-2767 -2768 0
2167 2767 2768 0
-2620 -2769 0
-2620 -2770 0
-2769 -2770 0
2620 2769 2770 0
-789 -2771 0
-789 -2772 0
-2771 -2772 0
789 2771 2772 0
-238 -369 0
-238 -1041 0
-369 -1041 0
238 369 1041 0
-2350 -2773 0
-2350 -2774 0
-2773 -2774 0
2350 2773 2774 0
-2775 -2776 0
-2775 -2777 0
-2776 -2777 0
2775 2776 2777 0
-708 -2541 0
-708 -2778 0
-2541 -2778 0
708 2541 2778 0
-1307 -2779 0
-1307 -2780 0
-2779 -2780 0
1307 2779 2780 0
-1310 -1636 0
-1310 -2781 0
-1636 -2781 0
1310 1636 2781 0
-810 -2782 0
-810 -2783 0
-2782 -2783 0
810 2782 2783 0
-193 -762 0
-193 -2784 0
-762 -2784 0
193 762 2784 0
-1064 -2785 0
-1064 -2786 0
-2785 -2786 0
1064 2785 2786 0
-105 -1573 0
-105 -2787 0
-1573 -2787 0
105 1573 2787 0
-464 -2082 0
-464 -2788 0
-2082 -2788 0
464 2082 2788 0
-2727 -2789 0
-2727 -2790 0
-2789 -2790 0
2727 2789 2790 0
-2741 -2791 0
-2741 -2792 0
-2791 -2792 0
2741 2791 2792 0
-1934 -2107 0
-1934 -2793 0
-2107 -2793 0
1934 2107 2793 0
-2400 -2577 0
-2400 -2794 0
-2577 -2794 0
2400 2577 2794 0
-2795 -2796 0
-2795 -2797 0
-2796 -2797 0
2795 2796 2797 0
-2798 -2799 0
-2798 -2800 0
-2799 -2800 0
2798 2799 2800 0
-2616 -2801 0
-2616 -2802 0
-2801 -2802 0
2616 2801 2802 0
-730 -2803 0
-730 -2804 0
-2803 -2804 0
730 2803 2804 0
-1157 -1595 0
-1157 -2450 0
-1595 -2450 0
1157 1595 2450 0
-2713 -2805 0
-2713 -2806 0
-2805 -2806 0
2713 2805 2806 0
-1689 -1907 0
-1689 -2807 0
-1907 -2807 0
1689 1907 2807 0
-461 -494 0
-461 -2112 0
-494 -2112 0
461 494 2112 0
-1151 -2808 0
-1151 -2809 0
-2808 -2809 0
1151 2808 2809 0
-675 -781 0
-675 -2754 0
-781 -2754 0
675 781 2754 0
-213 -2810 0
-213 -2811 0
-2810 -2811 0
213 2810 2811 0
-1216 -2812 0
-1216 -2813 0
-2812 -2813 0
1216 2812 2813 0
-2814 -2815 0
-2814 -2816 0
-2815 -2816 0
2814 2815 2816 0
-287 -2817 0
-287 -2818 0
-2817 -2818 0
287 2817 2818 0
-1550 -2412 0
-1550 -2819 0
-2412 -2819 0
1550 2412 2819 0
-2819 -2820 0
-2819 -2821 0
-2820 -2821 0
2819 2820 2821 0
-36 -567 0
-36 -1280 0
-567 -1280 0
36 567 1280 0
-673 -2822 0
-673 -2823 0
-2822 -2823 0
673 2822 2823 0
-2207 -2405 0
-2207 -2824 0
-2405 -2824 0
2207 2405 2824 0
-173 -2825 0
-173 -2826 0
-2825 -2826 0
173 2825 2826 0
-434 -1315 0
-434 -2827 0
-1315 -2827 0
434 1315 2827 0
-2634 -2828 0
-2634 -2829 0
-2828 -2829 0
2634 2828 2829 0
-2830 -2831 0
-2830 -2832 0
-2831 -2832 0
2830 2831 2832 0
-1296 -2497 0
-1296 -2833 0
-2497 -2833 0
1296 2497 2833 0
-2483 -2834 0
-2483 -2835 0
-2834 -2835 0
2483 2834 2835 0
-882 -2518 0
-882 -2836 0
-2518 -2836 0
882 2518 2836 0
-2837 -2838 0
-2837 -2839 0
-2838 -2839 0
2837 2838 2839 0
-152 -2840 0
-152 -2841 0
-2840 -2841 0
152 2840 2841 0
-1324 -2842 0
-1324 -2843 0
-2842 -2843 0
1324 2842 2843 0
-1753 -2844 0
-1753 -2845 0
-2844 -2845 0
1753 2844 2845 0
-1493 -1814 0
-1493 -2846 0
-1814 -2846 0
1493 1814 2846 0
-1300 -2847 0
-1300 -2848 0
-2847 -2848 0
1300 2847 2848 0
-406 -2817 0
-406 -2849 0
-2817 -2849 0
406 2817 2849 0
-2132 -2850 0
-2132 -2851 0
-2850 -2851 0
2132 2850 2851 0
-1545 -2351 0
-1545 -2852 0
-2351 -2852 0
1545 2351 2852 0
-266 -2210 0
-266 -2814 0
-2210 -2814 0
266 2210 2814 0
-137 -775 0
-137 -1238 0
-775 -1238 0
137 775 1238 0
-419 -2467 0
-419 -2853 0
-2467 -2853 0
419 2467 2853 0
-1149 -2854 0
-1149 -2855 0
-2854 -2855 0
1149 2854 2855 0
-1066 -2510 0
-1066 -2795 0
-2510 -2795 0
1066 2510 2795 0
-2760 -2856 0
-2760 -2857 0
-2856 -2857 0
2760 2856 2857 0
-2413 -2571 0
-2413 -2858 0
-2571 -2858 0
2413 2571 2858 0
-462 -2859 0
-462 -2860 0
-2859 -2860 0
462 2859 2860 0
-545 -1472 0
-545 -2087 0
-1472 -2087 0
545 1472 2087 0
-92 -1023 0
-92 -2861 0
-1023 -2861 0
92 1023 2861 0
-1547 -1695 0
-1547 -2862 0
-1695 -2862 0
1547 1695 2862 0
-322 -1051 0
-322 -2863 0
-1051 -2863 0
322 1051 2863 0
-2864 -2865 0
-2864 -2866 0
-2865 -2866 0
2864 2865 2866 0
-2867 -2868 0
-2867 -2869 0
-2868 -2869 0
2867 2868 2869 0
-2340 -2870 0
-2340 -2871 0
-2870 -2871 0
2340 2870 2871 0
-2370 -2872 0
-2370 -2873 0
-2872 -2873 0
2370 2872 2873 0
-1178 -1737 0
-1178 -2779 0
-1737 -2779 0
1178 1737 2779 0
-1597 -2874 0
-1597 -2875 0
-2874 -2875 0
1597 2874 2875 0
-1579 -1803 0
-1579 -2876 0
-1803 -2876 0
1579 1803 2876 0
-563 -1284 0
-563 -2877 0
-1284 -2877 0
563 1284 2877 0
-2084 -2878 0
-2084 -2879 0
-2878 -2879 0
2084 2878 2879 0
-2880 -2881 0
-2880 -2882 0
-2881 -2882 0
2880 2881 2882 0
-1397 -2883 0
-1397 -2884 0
-2883 -2884 0
1397 2883 2884 0
-1993 -2572 0
-1993 -2750 0
-2572 -2750 0
1993 2572 2750 0
-805 -1507 0
-805 -1772 0
-1507 -1772 0
805 1507 1772 0
-2885 -2886 0
-2885 -2887 0
-2886 -2887 0
2885 2886 2887 0
-74 -2464 0
-74 -2888 0
-2464 -2888 0
74 2464 2888 0
-1617 -2222 0
-1617 -2889 0
-2222 -2889 0
1617 2222 2889 0
-135 -1096 0
-135 -2890 0
-1096 -2890 0
135 1096 2890 0
-2891 -2892 0
-2891 -2893 0
-2892 -2893 0
2891 2892 2893 0
-998 -2894 0
-998 -2895 0
-2894 -2895 0
998 2894 2895 0
-2896 -2897 0
-2896 -2898 0
-2897 -2898 0
2896 2897 2898 0
-1153 -1264 0
-1153 -2899 0
-1264 -2899 0
1153 1264 2899 0
-383 -2725 0
-383 -2900 0
-2725 -2900 0
383 2725 2900 0
-1288 -1888 0
-1288 -2901 0
-1888 -2901 0
1288 1888 2901 0
-2058 -2902 0
-2058 -2903 0
-2902 -2903 0
2058 2902 2903 0
-1773 -2904 0
-1773 -2905 0
-2904 -2905 0
1773 2904 2905 0
-2906 -2907 0
-2906 -2908 0
-2907 -2908 0
2906 2907 2908 0
-1805 -2909 0
-1805 -2910 0
-2909 -2910 0
1805 2909 2910 0
-606 -1399 0
-606 -2911 0
-1399 -2911 0
606 1399 2911 0
-2269 -2912 0
-2269 -2913 0
-2912 -2913 0
2269 2912 2913 0
-587 -1019 0
-587 -2914 0
-1019 -2914 0
587 1019 2914 0
-77 -2915 0
-77 -2916 0
-2915 -2916 0
77 2915 2916 0
-1718 -2917 0
-1718 -2918 0
-2917 -2918 0
1718 2917 2918 0
-2557 -2919 0
-2557 -2920 0
-2919 -2920 0
2557 2919 2920 0
-78 -1982 0
-78 -2921 0
-1982 -2921 0
78 1982 2921 0
-49 -2922 0
-49 -2923 0
-2922 -2923 0
49 2922 2923 0
-1951 -2924 0
-1951 -2925 0
-2924 -2925 0
1951 2924 2925 0
-1343 -2443 0
-1343 -2926 0
-2443 -2926 0
1343 2443 2926 0
-2281 -2927 0
-2281 -2928 0
-2927 -2928 0
2281 2927 2928 0
-2715 -2929 0
-2715 -2930 0
-2929 -2930 0
2715 2929 2930 0
-2931 -2932 0
-2931 -2933 0
-2932 -2933 0
2931 2932 2933 0
-133 -2934 0
-133 -2935 0
-2934 -2935 0
133 2934 2935 0
-2936 -2937 0
-2936 -2938 0
-2937 -2938 0
2936 2937 2938 0
-2939 -2940 0
-2939 -2941 0
-2940 -2941 0
2939 2940 2941 0
-100 -2942 0
-100 -2943 0
-2942 -2943 0
100 2942 2943 0
-183 -1913 0
-183 -2944 0
-1913 -2944 0
183 1913 2944 0
-1968 -2945 0
-1968 -2946 0
-2945 -2946 0
1968 2945 2946 0
-896 -2271 0
-896 -2947 0
-2271 -2947 0
896 2271 2947 0
-2681 -2710 0
-2681 -2948 0
-2710 -2948 0
2681 2710 2948 0
-853 -2708 0
-853 -2949 0
-2708 -2949 0
853 2708 2949 0
-1570 -2950 0
-1570 -2951 0
-2950 -2951 0
1570 2950 2951 0
-1658 -2952 0
-1658 -2953 0
-2952 -2953 0
1658 2952 2953 0
-2852 -2942 0
-2852 -2954 0
-2942 -2954 0
2852 2942 2954 0
-1738 -2955 0
-1738 -2956 0
-2955 -2956 0
1738 2955 2956 0
-2957 -2958 0
-2957 -2959 0
-2958 -2959 0
2957 2958 2959 0
-435 -1932 0
-435 -2960 0
-1932 -2960 0
435 1932 2960 0
-2024 -2317 0
-2024 -2961 0
-2317 -2961 0
2024 2317 2961 0
-136 -1429 0
-136 -2962 0
-1429 -2962 0
136 1429 2962 0
-2963 -2964 0
-2963 -2965 0
-2964 -2965 0
2963 2964 2965 0
-56 -1099 0
-56 -2834 0
-1099 -2834 0
56 1099 2834 0
-502 -2209 0
-502 -2936 0
-2209 -2936 0
502 2209 2936 0
-1206 -2966 0
-1206 -2967 0
-2966 -2967 0
1206 2966 2967 0
-2498 -2968 0
-2498 -2969 0
-2968 -2969 0
2498 2968 2969 0
-2970 -2971 0
-2970 -2972 0
-2971 -2972 0
2970 2971 2972 0
-946 -2152 0
-946 -2973 0
-2152 -2973 0
946 2152 2973 0
-2441 -2880 0
-2441 -2974 0
-2880 -2974 0
2441 2880 2974 0
-722 -2275 0
-722 -2975 0
-2275 -2975 0
722 2275 2975 0
-1003 -2976 0
-1003 -2977 0
-2976 -2977 0
1003 2976 2977 0
-645 -2978 0
-645 -2979 0
-2978 -2979 0
645 2978 2979 0
-80 -196 0
-80 -2980 0
-196 -2980 0
80 196 2980 0
-223 -2250 0
-223 -2284 0
-2250 -2284 0
223 2250 2284 0
-1582 -1621 0
-1582 -2981 0
-1621 -2981 0
1582 1621 2981 0
-1481 -2982 0
-1481 -2983 0
-2982 -2983 0
1481 2982 2983 0
-1067 -2842 0
-1067 -2984 0
-2842 -2984 0
1067 2842 2984 0
-934 -2985 0
-934 -2986 0
-2985 -2986 0
934 2985 2986 0
-480 -1209 0
-480 -2987 0
-1209 -2987 0
480 1209 2987 0
-1437 -2988 0
-1437 -2989 0
-2988 -2989 0
1437 2988 2989 0
-813 -2375 0
-813 -2990 0
-2375 -2990 0
813 2375 2990 0
-1273 -1354 0
-1273 -2991 0
-1354 -2991 0
1273 1354 2991 0
-2339 -2992 0
-2339 -2993 0
-2992 -2993 0
2339 2992 2993 0
-1339 -1672 0
-1339 -2155 0
-1672 -2155 0
1339 1672 2155 0
-817 -1730 0
-817 -2646 0
-1730 -2646 0
817 1730 2646 0
-947 -2192 0
-947 -2994 0
-2192 -2994 0
947 2192 2994 0
-899 -2157 0
-899 -2995 0
-2157 -2995 0
899 2157 2995 0
-661 -2439 0
-661 -2996 0
-2439 -2996 0
661 2439 2996 0
-95 -288 0
-95 -1722 0
-288 -1722 0
95 288 1722 0
-806 -2751 0
-806 -2997 0
-2751 -2997 0
806 2751 2997 0
-1655 -2998 0
-1655 -2999 0
-2998 -2999 0
1655 2998 2999 0
-463 -2211 0
-463 -3000 0
-2211 -3000 0
463 2211 3000 0
-3001 -3002 0
-3001 -3003 0
-3002 -3003 0
3001 3002 3003 0
-2881 -3004 0
-2881 -3005 0
-3004 -3005 0
2881 3004 3005 0
-1367 -3006 0
-1367 -3007 0
-3006 -3007 0
1367 3006 3007 0
-475 -1349 0
-475 -1456 0
-1349 -1456 0
475 1349 1456 0
-2392 -2415 0
-2392 -3008 0
-2415 -3008 0
2392 2415 3008 0
-20 -1971 0
-20 -2985 0
-1971 -2985 0
20 1971 2985 0
-2088 -2381 0
-2088 -2492 0
-2381 -2492 0
2088 2381 2492 0
-3009 -3010 0
-3009 -3011 0
-3010 -3011 0
3009 3010 3011 0
-17 -118 0
-17 -1639 0
-118 -1639 0
17 118 1639 0
-2555 -3012 0
-2555 -3013 0
-3012 -3013 0
2555 3012 3013 0
-379 -3014 0
-379 -3015 0
-3014 -3015 0
379 3014 3015 0
-1344 -3016 0
-1344 -3017 0
-3016 -3017 0
1344 3016 3017 0
-2272 -2298 0
-2272 -3018 0
-2298 -3018 0
2272 2298 3018 0
-397 -964 0
-397 -3019 0
-964 -3019 0
397 964 3019 0
-2364 -3020 0
-2364 -3021 0
-3020 -3021 0
2364 3020 3021 0
-1712 -3022 0
-1712 -3023 0
-3022 -3023 0
1712 3022 3023 0
-3024 -3025 0
-3024 -3026 0
-3025 -3026 0
3024 3025 3026 0
-2092 -2430 0
-2092 -3027 0
-2430 -3027 0
2092 2430 3027 0
-1512 -1569 0
-1512 -2113 0
-1569 -2113 0
1512 1569 2113 0
-807 -3028 0
-807 -3029 0
-3028 -3029 0
807 3028 3029 0
-1626 -3030 0
-1626 -3031 0
-3030 -3031 0
1626 3030 3031 0
-153 -2593 0
-153 -3032 0
-2593 -3032 0
153 2593 3032 0
-1618 -2169 0
-1618 -2976 0
-2169 -2976 0
1618 2169 2976 0
-1062 -3033 0
-1062 -3034 0
-3033 -3034 0
1062 3033 3034 0
-2752 -3035 0
-2752 -3036 0
-3035 -3036 0
2752 3035 3036 0
-1949 -1999 0
-1949 -3037 0
-1999 -3037 0
1949 1999 3037 0
-1452 -3038 0
-1452 -3039 0
-3038 -3039 0
1452 3038 3039 0
-1596 -2324 0
-1596 -3040 0
-2324 -3040 0
1596 2324 3040 0
-1870 -2846 0
-1870 -3041 0
-2846 -3041 0
1870 2846 3041 0
-549 -873 0
-549 -1586 0
-873 -1586 0
549 873 1586 0
-2341 -2456 0
-2341 -3042 0
-2456 -3042 0
2341 2456 3042 0
-2773 -3043 0
-2773 -3044 0
-3043 -3044 0
2773 3043 3044 0
-1371 -3045 0
-1371 -3046 0
-3045 -3046 0
1371 3045 3046 0
-3047 -3048 0
-3047 -3049 0
-3048 -3049 0
3047 3048 3049 0
-86 -1600 0
-86 -3050 0
-1600 -3050 0
86 1600 3050 0
-622 -1389 0
-622 -3051 0
-1389 -3051 0
622 1389 3051 0
-303 -2278 0
-303 -3052 0
-2278 -3052 0
303 2278 3052 0
-818 -1767 0
-818 -2507 0
-1767 -2507 0
818 1767 2507 0
-239 -749 0
-239 -3053 0
-749 -3053 0
239 749 3053 0
-1919 -2970 0
-1919 -3054 0
-2970 -3054 0
1919 2970 3054 0
-2986 -3055 0
-2986 -3056 0
-3055 -3056 0
2986 3055 3056 0
-3057 -3058 0
-3057 -3059 0
-3058 -3059 0
3057 3058 3059 0
-3060 -3061 0
-3060 -3062 0
-3061 -3062 0
3060 3061 3062 0
-2883 -3063 0
-2883 -3064 0
-3063 -3064 0
2883 3063 3064 0
-2689 -3065 0
-2689 -3066 0
-3065 -3066 0
2689 3065 3066 0
-2235 -2376 0
-2235 -3067 0
-2376 -3067 0
2235 2376 3067 0
-3068 -3069 0
-3068 -3070 0
-3069 -3070 0
3068 3069 3070 0
-1704 -3071 0
-1704 -3072 0
-3071 -3072 0
1704 3071 3072 0
-1423 -2717 0
-1423 -2992 0
-2717 -2992 0
1423 2717 2992 0
-3073 -3074 0
-3073 -3075 0
-3074 -3075 0
3073 3074 3075 0
-1819 -3076 0
-1819 -3077 0
-3076 -3077 0
1819 3076 3077 0
-1880 -3078 0
-1880 -3079 0
-3078 -3079 0
1880 3078 3079 0
-2036 -2067 0
-2036 -3080 0
-2067 -3080 0
2036 2067 3080 0
-2950 -3081 0
-2950 -3082 0
-3081 -3082 0
2950 3081 3082 0
-573 -1390 0
-573 -3024 0
-1390 -3024 0
573 1390 3024 0
-3083 -3084 0
-3083 -3085 0
-3084 -3085 0
3083 3084 3085 0
-930 -3086 0
-930 -3087 0
-3086 -3087 0
930 3086 3087 0
-1980 -3055 0
-1980 -3088 0
-3055 -3088 0
1980 3055 3088 0
-1610 -2179 0
-1610 -2225 0
-2179 -2225 0
1610 2179 2225 0
-2957 -3089 0
-2957 -3090 0
-3089 -3090 0
2957 3089 3090 0
-1776 -1855 0
-1776 -3091 0
-1855 -3091 0
1776 1855 3091 0
-75 -819 0
-75 -3092 0
-819 -3092 0
75 819 3092 0
-1616 -3093 0
-1616 -3094 0
-3093 -3094 0
1616 3093 3094 0
-1571 -2240 0
-1571 -3009 0
-2240 -3009 0
1571 2240 3009 0
-1642 -3095 0
-1642 -3096 0
-3095 -3096 0
1642 3095 3096 0
-2876 -3097 0
-2876 -3098 0
-3097 -3098 0
2876 3097 3098 0
-2212 -2638 0
-2212 -3099 0
-2638 -3099 0
2212 2638 3099 0
-1720 -3100 0
-1720 -3101 0
-3100 -3101 0
1720 3100 3101 0
-2733 -2767 0
-2733 -3102 0
-2767 -3102 0
2733 2767 3102 0
-1009 -3103 0
-1009 -3104 0
-3103 -3104 0
1009 3103 3104 0
-440 -2856 0
-440 -3105 0
-2856 -3105 0
440 2856 3105 0
-3106 -3107 0
-3106 -3108 0
-3107 -3108 0
3106 3107 3108 0
-285 -1192 0
-285 -3109 0
-1192 -3109 0
285 1192 3109 0
-1575 -1643 0
-1575 -3110 0
-1643 -3110 0
1575 1643 3110 0
-833 -1820 0
-833 -2702 0
-1820 -2702 0
833 1820 2702 0
-620 -1107 0
-620 -3111 0
-1107 -3111 0
620 1107 3111 0
-1335 -3112 0
-1335 -3113 0
-3112 -3113 0
1335 3112 3113 0
-2176 -2902 0
-2176 -3114 0
-2902 -3114 0
2176 2902 3114 0
-154 -2066 0
-154 -2982 0
-2066 -2982 0
154 2066 2982 0
-411 -1551 0
-411 -3115 0
-1551 -3115 0
411 1551 3115 0
-874 -3116 0
-874 -3117 0
-3116 -3117 0
874 3116 3117 0
-1251 -1291 0
-1251 -3118 0
-1291 -3118 0
1251 1291 3118 0
-1976 -2195 0
-1976 -3119 0
-2195 -3119 0
1976 2195 3119 0
-1994 -3120 0
-1994 -3121 0
-3120 -3121 0
1994 3120 3121 0
-1591 -1851 0
-1591 -2158 0
-1851 -2158 0
1591 1851 2158 0
-1523 -3122 0
-1523 -3123 0
-3122 -3123 0
1523 3122 3123 0
-206 -1130 0
-206 -3124 0
-1130 -3124 0
206 1130 3124 0
-1969 -2998 0
-1969 -3125 0
-2998 -3125 0
1969 2998 3125 0
-1068 -3126 0
-1068 -3127 0
-3126 -3127 0
1068 3126 3127 0
-838 -3054 0
-838 -3128 0
-3054 -3128 0
838 3054 3128 0
-2462 -2864 0
-2462 -3129 0
-2864 -3129 0
2462 2864 3129 0
-3130 -3131 0
-3130 -3132 0
-3131 -3132 0
3130 3131 3132 0
-825 -2288 0
-825 -3133 0
-2288 -3133 0
825 2288 3133 0
-2743 -3022 0
-2743 -3134 0
-3022 -3134 0
2743 3022 3134 0
-1100 -1379 0
-1100 -2129 0
-1379 -2129 0
1100 1379 2129 0
-1146 -1336 0
-1146 -2046 0
-1336 -2046 0
1146 1336 2046 0
-1113 -2480 0
-1113 -3135 0
-2480 -3135 0
1113 2480 3135 0
-1114 -3136 0
-1114 -3137 0
-3136 -3137 0
1114 3136 3137 0
-432 -3138 0
-432 -3139 0
-3138 -3139 0
432 3138 3139 0
-2097 -2575 0
-2097 -3140 0
-2575 -3140 0
2097 2575 3140 0
-550 -1656 0
-550 -3141 0
-1656 -3141 0
550 1656 3141 0
-903 -2597 0
-903 -2726 0
-2597 -2726 0
903 2597 2726 0
-1469 -3142 0
-1469 -3143 0
-3142 -3143 0
1469 3142 3143 0
-999 -3144 0
-999 -3145 0
-3144 -3145 0
999 3144 3145 0
-1409 -3146 0
-1409 -3147 0
-3146 -3147 0
1409 3146 3147 0
-2558 -2963 0
-2558 -3020 0
-2963 -3020 0
2558 2963 3020 0
-910 -3148 0
-910 -3149 0
-3148 -3149 0
910 3148 3149 0
-2120 -2691 0
-2120 -3150 0
-2691 -3150 0
2120 2691 3150 0
-371 -965 0
-371 -2939 0
-965 -2939 0
371 965 2939 0
-3040 -3151 0
-3040 -3152 0
-3151 -3152 0
3040 3151 3152 0
-1565 -2684 0
-1565 -3153 0
-2684 -3153 0
1565 2684 3153 0
-2906 -3154 0
-2906 -3155 0
-3154 -3155 0
2906 3154 3155 0
-1583 -3156 0
-1583 -3157 0
-3156 -3157 0
1583 3156 3157 0
-415 -3158 0
-415 -3159 0
-3158 -3159 0
415 3158 3159 0
-514 -3160 0
-514 -3161 0
-3160 -3161 0
514 3160 3161 0
-450 -2245 0
-450 -3162 0
-2245 -3162 0
450 2245 3162 0
-3163 -3164 0
-3163 -3165 0
-3164 -3165 0
3163 3164 3165 0
-1645 -3166 0
-1645 -3167 0
-3166 -3167 0
1645 3166 3167 0
-353 -953 0
-353 -3168 0
-953 -3168 0
353 953 3168 0
-1873 -3169 0
-1873 -3170 0
-3169 -3170 0
1873 3169 3170 0
-2333 -2631 0
-2333 -3171 0
-2631 -3171 0
2333 2631 3171 0
-981 -3172 0
-981 -3173 0
-3172 -3173 0
981 3172 3173 0
-347 -2762 0
-347 -3174 0
-2762 -3174 0
347 2762 3174 0
-2276 -3175 0
-2276 -3176 0
-3175 -3176 0
2276 3175 3176 0
-1093 -1749 0
-1093 -3177 0
-1749 -3177 0
1093 1749 3177 0
-1604 -3178 0
-1604 -3179 0
-3178 -3179 0
1604 3178 3179 0
-2348 -2785 0
-2348 -3180 0
-2785 -3180 0
2348 2785 3180 0
-412 -1611 0
-412 -1813 0
-1611 -1813 0
412 1611 1813 0
-630 -3181 0
-630 -3182 0
-3181 -3182 0
630 3181 3182 0
-3071 -3163 0
-3071 -3183 0
-3163 -3183 0
3071 3163 3183 0
-451 -2570 0
-451 -2613 0
-2570 -2613 0
451 2570 2613 0
-677 -1754 0
-677 -2604 0
-1754 -2604 0
677 1754 2604 0
-1415 -2336 0
-1415 -3184 0
-2336 -3184 0
1415 2336 3184 0
-2135 -3103 0
-2135 -3185 0
-3103 -3185 0
2135 3103 3185 0
-737 -3186 0
-737 -3187 0
-3186 -3187 0
737 3186 3187 0
-2537 -2605 0
-2537 -3178 0
-2605 -3178 0
2537 2605 3178 0
-531 -2345 0
-531 -3188 0
-2345 -3188 0
531 2345 3188 0
-3189 -3190 0
-3189 -3191 0
-3190 -3191 0
3189 3190 3191 0
-338 -3192 0
-338 -3193 0
-3192 -3193 0
338 3192 3193 0
-3076 -3194 0
-3076 -3195 0
-3194 -3195 0
3076 3194 3195 0
-217 -3196 0
-217 -3197 0
-3196 -3197 0
217 3196 3197 0
-2215 -3198 0
-2215 -3199 0
-3198 -3199 0
2215 3198 3199 0
-1926 -3200 0
-1926 -3201 0
-3200 -3201 0
1926 3200 3201 0
-714 -1340 0
-714 -3202 0
-1340 -3202 0
714 1340 3202 0
-2409 -3203 0
-2409 -3204 0
-3203 -3204 0
2409 3203 3204 0
-668 -2393 0
-668 -2564 0
-2393 -2564 0
668 2393 2564 0
-1270 -3205 0
-1270 -3206 0
-3205 -3206 0
1270 3205 3206 0
-653 -2931 0
-653 -3207 0
-2931 -3207 0
653 2931 3207 0
-2981 -3208 0
-2981 -3209 0
-3208 -3209 0
2981 3208 3209 0
-3060 -3210 0
-3060 -3211 0
-3210 -3211 0
3060 3210 3211 0
-1827 -3212 0
-1827 -3213 0
-3212 -3213 0
1827 3212 3213 0
-2775 -3214 0
-2775 -3215 0
-3214 -3215 0
2775 3214 3215 0
-2311 -3216 0
-2311 -3217 0
-3216 -3217 0
2311 3216 3217 0
-350 -915 0
-350 -3218 0
-915 -3218 0
350 915 3218 0
-1322 -1958 0
-1322 -3219 0
-1958 -3219 0
1322 1958 3219 0
-2008 -3220 0
-2008 -3221 0
-3220 -3221 0
2008 3220 3221 0
-1957 -2429 0
-1957 -3222 0
-2429 -3222 0
1957 2429 3222 0
-1953 -2263 0
-1953 -2562 0
-2263 -2562 0
1953 2263 2562 0
-2388 -3223 0
-2388 -3224 0
-3223 -3224 0
2388 3223 3224 0
-2343 -3225 0
-2343 -3226 0
-3225 -3226 0
2343 3225 3226 0
-220 -2424 0
-220 -3227 0
-2424 -3227 0
220 2424 3227 0
-3228 -3229 0
-3228 -3230 0
-3229 -3230 0
3228 3229 3230 0
-1383 -1404 0
-1383 -2607 0
-1404 -2607 0
1383 1404 2607 0
-1663 -2102 0
-1663 -3231 0
-2102 -3231 0
1663 2102 3231 0
-579 -617 0
-579 -3232 0
-617 -3232 0
579 617 3232 0
-745 -3233 0
-745 -3234 0
-3233 -3234 0
745 3233 3234 0
-2270 -2647 0
-2270 -3106 0
-2647 -3106 0
2270 2647 3106 0
-2598 -3235 0
-2598 -3236 0
-3235 -3236 0
2598 3235 3236 0
-638 -2602 0
-638 -3237 0
-2602 -3237 0
638 2602 3237 0
-1959 -3148 0
-1959 -3238 0
-3148 -3238 0
1959 3148 3238 0
-3144 -3239 0
-3144 -3240 0
-3239 -3240 0
3144 3239 3240 0
-298 -3012 0
-298 -3241 0
-3012 -3241 0
298 3012 3241 0
-3242 -3243 0
-3242 -3244 0
-3243 -3244 0
3242 3243 3244 0
-1707 -2431 0
-1707 -3245 0
-2431 -3245 0
1707 2431 3245 0
-582 -2609 0
-582 -2649 0
-2609 -2649 0
582 2609 2649 0
-1954 -3136 0
-1954 -3246 0
-3136 -3246 0
1954 3136 3246 0
-2624 -3247 0
-2624 -3248 0
-3247 -3248 0
2624 3247 3248 0
-404 -3249 0
-404 -3250 0
-3249 -3250 0
404 3249 3250 0
-1169 -1915 0
-1169 -2238 0
-1915 -2238 0
1169 1915 2238 0
-888 -994 0
-888 -1492 0
-994 -1492 0
888 994 1492 0
-1474 -3078 0
-1474 -3251 0
-3078 -3251 0
1474 3078 3251 0
-318 -1687 0
-318 -3252 0
-1687 -3252 0
318 1687 3252 0
-977 -2973 0
-977 -3253 0
-2973 -3253 0
977 2973 3253 0
-972 -2265 0
-972 -2830 0
-2265 -2830 0
972 2265 2830 0
-208 -3145 0
-208 -3254 0
-3145 -3254 0
208 3145 3254 0
-1261 -1434 0
-1261 -3255 0
-1434 -3255 0
1261 1434 3255 0
-2619 -3256 0
-2619 -3257 0
-3256 -3257 0
2619 3256 3257 0
-1937 -3258 0
-1937 -3259 0
-3258 -3259 0
1937 3258 3259 0
-2085 -3260 0
-2085 -3261 0
-3260 -3261 0
2085 3260 3261 0
-1781 -3188 0
-1781 -3262 0
-3188 -3262 0
1781 3188 3262 0
-850 -1838 0
-850 -3263 0
-1838 -3263 0
850 1838 3263 0
-3019 -3264 0
-3019 -3265 0
-3264 -3265 0
3019 3264 3265 0
-532 -2822 0
-532 -3266 0
-2822 -3266 0
532 2822 3266 0
-1449 -2859 0
-1449 -3063 0
-2859 -3063 0
1449 2859 3063 0
-1808 -2193 0
-1808 -2461 0
-2193 -2461 0
1808 2193 2461 0
-2302 -2514 0
-2302 -3057 0
-2514 -3057 0
2302 2514 3057 0
-2177 -3004 0
-2177 -3225 0
-3004 -3225 0
2177 3004 3225 0
-996 -1983 0
-996 -2714 0
-1983 -2714 0
996 1983 2714 0
-2643 -2937 0
-2643 -3267 0
-2937 -3267 0
2643 2937 3267 0
-1186 -1874 0
-1186 -1995 0
-1874 -1995 0
1186 1874 1995 0
-2365 -2711 0
-2365 -3268 0
-2711 -3268 0
2365 2711 3268 0
-50 -3177 0
-50 -3269 0
-3177 -3269 0
50 3177 3269 0
-1664 -2932 0
-1664 -3270 0
-2932 -3270 0
1664 2932 3270 0
-88 -2407 0
-88 -3271 0
-2407 -3271 0
88 2407 3271 0
-1692 -3272 0
-1692 -3273 0
-3272 -3273 0
1692 3272 3273 0
-3006 -3223 0
-3006 -3266 0
-3223 -3266 0
3006 3223 3266 0
-867 -3274 0
-867 -3275 0
-3274 -3275 0
867 3274 3275 0
-1441 -3276 0
-1441 -3277 0
-3276 -3277 0
1441 3276 3277 0
-273 -794 0
-273 -1378 0
-794 -1378 0
273 794 1378 0
-1222 -3278 0
-1222 -3279 0
-3278 -3279 0
1222 3278 3279 0
-115 -1829 0
-115 -3280 0
-1829 -3280 0
115 1829 3280 0
-1328 -3281 0
-1328 -3282 0
-3281 -3282 0
1328 3281 3282 0
-2914 -2924 0
-2914 -3283 0
-2924 -3283 0
2914 2924 3283 0
-1487 -2678 0
-1487 -3065 0
-2678 -3065 0
1487 2678 3065 0
-770 -3025 0
-770 -3284 0
-3025 -3284 0
770 3025 3284 0
-2874 -3285 0
-2874 -3286 0
-3285 -3286 0
2874 3285 3286 0
-3287 -3288 0
-3287 -3289 0
-3288 -3289 0
3287 3288 3289 0
-3276 -3290 0
-3276 -3291 0
-3290 -3291 0
3276 3290 3291 0
-1426 -1775 0
-1426 -3292 0
-1775 -3292 0
1426 1775 3292 0
-1134 -3293 0
-1134 -3294 0
-3293 -3294 0
1134 3293 3294 0
-2009 -2198 0
-2009 -3295 0
-2198 -3295 0
2009 2198 3295 0
-164 -1817 0
-164 -3296 0
-1817 -3296 0
164 1817 3296 0
-2697 -3297 0
-2697 -3298 0
-3297 -3298 0
2697 3297 3298 0
-1540 -2108 0
-1540 -2896 0
-2108 -2896 0
1540 2108 2896 0
-1282 -2641 0
-1282 -3272 0
-2641 -3272 0
1282 2641 3272 0
-1863 -2099 0
-1863 -2282 0
-2099 -2282 0
1863 2099 2282 0
-1703 -3068 0
-1703 -3299 0
-3068 -3299 0
1703 3068 3299 0
-1747 -2291 0
-1747 -3300 0
-2291 -3300 0
1747 2291 3300 0
-1463 -2140 0
-1463 -3301 0
-2140 -3301 0
1463 2140 3301 0
-448 -754 0
-448 -3035 0
-754 -3035 0
448 754 3035 0
-1154 -2666 0
-1154 -2897 0
-2666 -2897 0
1154 2666 2897 0
-1783 -3302 0
-1783 -3303 0
-3302 -3303 0
1783 3302 3303 0
-407 -1821 0
-407 -2153 0
-1821 -2153 0
407 1821 2153 0
-2771 -3304 0
-2771 -3305 0
-3304 -3305 0
2771 3304 3305 0
-2784 -3306 0
-2784 -3307 0
-3306 -3307 0
2784 3306 3307 0
-1524 -2909 0
-1524 -3200 0
-2909 -3200 0
1524 2909 3200 0
-3308 -3309 0
-3308 -3310 0
-3309 -3310 0
3308 3309 3310 0
-281 -705 0
-281 -3311 0
-705 -3311 0
281 705 3311 0
-2146 -2926 0
-2146 -3312 0
-2926 -3312 0
2146 2926 3312 0
-3212 -3313 0
-3212 -3314 0
-3313 -3314 0
3212 3313 3314 0
-702 -3315 0
-702 -3316 0
-3315 -3316 0
702 3315 3316 0
-1360 -2164 0
-1360 -3317 0
-2164 -3317 0
1360 2164 3317 0
-286 -1592 0
-286 -3318 0
-1592 -3318 0
286 1592 3318 0
-3089 -3319 0
-3089 -3320 0
-3319 -3320 0
3089 3319 3320 0
-229 -611 0
-229 -3142 0
-611 -3142 0
229 611 3142 0
-172 -3321 0
-172 -3322 0
-3321 -3322 0
172 3321 3322 0
-386 -3323 0
-386 -3324 0
-3323 -3324 0
386 3323 3324 0
-3325 -3326 0
-3325 -3327 0
-3326 -3327 0
3325 3326 3327 0
-29 -1996 0
-29 -3328 0
-1996 -3328 0
29 1996 3328 0
-3181 -3329 0
-3181 -3330 0
-3329 -3330 0
3181 3329 3330 0
-1945 -2468 0
-1945 -3331 0
-2468 -3331 0
1945 2468 3331 0
-180 -1243 0
-180 -3332 0
-1243 -3332 0
180 1243 3332 0
-425 -1678 0
-425 -3333 0
-1678 -3333 0
425 1678 3333 0
-2227 -2805 0
-2227 -3334 0
-2805 -3334 0
2227 2805 3334 0
-2401 -2504 0
-2401 -3335 0
-2504 -3335 0
2401 2504 3335 0
-1989 -3336 0
-1989 -3337 0
-3336 -3337 0
1989 3336 3337 0
-1363 -1532 0
-1363 -3338 0
-1532 -3338 0
1363 1532 3338 0
-2331 -2934 0
-2331 -3339 0
-2934 -3339 0
2331 2934 3339 0
-398 -699 0
-398 -3340 0
-699 -3340 0
398 699 3340 0
-2723 -2807 0
-2723 -3341 0
-2807 -3341 0
2723 2807 3341 0
-3342 -3343 0
-3342 -3344 0
-3343 -3344 0
3342 3343 3344 0
-168 -3345 0
-168 -3346 0
-3345 -3346 0
168 3345 3346 0
-2056 -2729 0
-2056 -3347 0
-2729 -3347 0
2056 2729 3347 0
-2550 -2712 0
-2550 -3329 0
-2712 -3329 0
2550 2712 3329 0
-2929 -3348 0
-2929 -3349 0
-3348 -3349 0
2929 3348 3349 0
-871 -1201 0
-871 -2706 0
-1201 -2706 0
871 1201 2706 0
-1038 -1815 0
-1038 -2308 0
-1815 -2308 0
1038 1815 2308 0
-1627 -1834 0
-1627 -3052 0
-1834 -3052 0
1627 1834 3052 0
-656 -2478 0
-656 -2776 0
-2478 -2776 0
656 2478 2776 0
-1219 -1364 0
-1219 -3350 0
-1364 -3350 0
1219 1364 3350 0
-269 -1223 0
-269 -1405 0
-1223 -1405 0
269 1223 1405 0
-401 -441 0
-401 -2520 0
-441 -2520 0
401 441 2520 0
-1233 -1866 0
-1233 -3216 0
-1866 -3216 0
1233 1866 3216 0
-2648 -3351 0
-2648 -3352 0
-3351 -3352 0
2648 3351 3352 0
-2486 -3353 0
-2486 -3354 0
-3353 -3354 0
2486 3353 3354 0
-1537 -2502 0
-1537 -3355 0
-2502 -3355 0
1537 2502 3355 0
-2201 -2220 0
-2201 -2232 0
-2220 -2232 0
2201 2220 2232 0
-1410 -2828 0
-1410 -3356 0
-2828 -3356 0
1410 2828 3356 0
-169 -221 0
-169 -1538 0
-221 -1538 0
169 221 1538 0
-199 -2971 0
-199 -3073 0
-2971 -3073 0
199 2971 3073 0
-2236 -2667 0
-2236 -3293 0
-2667 -3293 0
2236 2667 3293 0
-710 -3014 0
-710 -3357 0
-3014 -3357 0
710 3014 3357 0
-2974 -3358 0
-2974 -3359 0
-3358 -3359 0
2974 3358 3359 0
-393 -2069 0
-393 -3360 0
-2069 -3360 0
393 2069 3360 0
-2599 -2704 0
-2599 -2793 0
-2704 -2793 0
2599 2704 2793 0
-1170 -3074 0
-1170 -3361 0
-3074 -3361 0
1170 3074 3361 0
-1632 -2724 0
-1632 -3362 0
-2724 -3362 0
1632 2724 3362 0
-763 -1755 0
-763 -3201 0
-1755 -3201 0
763 1755 3201 0
-2470 -2632 0
-2470 -3363 0
-2632 -3363 0
2470 2632 3363 0
-717 -2396 0
-717 -2980 0
-2396 -2980 0
717 2396 2980 0
-3072 -3364 0
-3072 -3365 0
-3364 -3365 0
3072 3364 3365 0
-546 -2927 0
-546 -3366 0
-2927 -3366 0
546 2927 3366 0
-920 -3367 0
-920 -3368 0
-3367 -3368 0
920 3367 3368 0
-147 -2023 0
-147 -3306 0
-2023 -3306 0
147 2023 3306 0
-380 -3369 0
-380 -3370 0
-3369 -3370 0
380 3369 3370 0
-3371 -3372 0
-3371 -3373 0
-3372 -3373 0
3371 3372 3373 0
-883 -2978 0
-883 -3302 0
-2978 -3302 0
883 2978 3302 0
-1930 -3235 0
-1930 -3307 0
-3235 -3307 0
1930 3235 3307 0
-2590 -3374 0
-2590 -3375 0
-3374 -3375 0
2590 3374 3375 0
-625 -3109 0
-625 -3376 0
-3109 -3376 0
625 3109 3376 0
-348 -678 0
-348 -2608 0
-678 -2608 0
348 678 2608 0
-2078 -2189 0
-2078 -2242 0
-2189 -2242 0
2078 2189 2242 0
-3377 -3378 0
-3377 -3379 0
-3378 -3379 0
3377 3378 3379 0
-2144 -3367 0
-2144 -3380 0
-3367 -3380 0
2144 3367 3380 0
-2595 -3122 0
-2595 -3381 0
-3122 -3381 0
2595 3122 3381 0
-2145 -3330 0
-2145 -3334 0
-3330 -3334 0
2145 3330 3334 0
-1847 -2337 0
-1847 -3382 0
-2337 -3382 0
1847 2337 3382 0
-3383 -3384 0
-3383 -3385 0
-3384 -3385 0
3383 3384 3385 0
-233 -982 0
-233 -3386 0
-982 -3386 0
233 982 3386 0
-3245 -3278 0
-3245 -3331 0
-3278 -3331 0
3245 3278 3331 0
-328 -3045 0
-328 -3308 0
-3045 -3308 0
328 3045 3308 0
-2233 -2801 0
-2233 -3158 0
-2801 -3158 0
2233 2801 3158 0
-1756 -3198 0
-1756 -3387 0
-3198 -3387 0
1756 3198 3387 0
-2653 -2782 0
-2653 -3388 0
-2782 -3388 0
2653 2782 3388 0
-2368 -2399 0
-2368 -3389 0
-2399 -3389 0
2368 2399 3389 0
-2423 -3390 0
-2423 -3391 0
-3390 -3391 0
2423 3390 3391 0
-1868 -2543 0
-1868 -3392 0
-2543 -3392 0
1868 2543 3392 0
-316 -3138 0
-316 -3264 0
-3138 -3264 0
316 3138 3264 0
-557 -2960 0
-557 -3317 0
-2960 -3317 0
557 2960 3317 0
-2307 -3125 0
-2307 -3393 0
-3125 -3393 0
2307 3125 3393 0
-141 -1196 0
-141 -3095 0
-1196 -3095 0
141 1196 3095 0
-330 -1442 0
-330 -3183 0
-1442 -3183 0
330 1442 3183 0
-1069 -1542 0
-1069 -2904 0
-1542 -2904 0
1069 1542 2904 0
-1770 -2505 0
-1770 -3394 0
-2505 -3394 0
1770 2505 3394 0
-2025 -2122 0
-2025 -3395 0
-2122 -3395 0
2025 2122 3395 0
-156 -962 0
-156 -3396 0
-962 -3396 0
156 962 3396 0
-417 -1723 0
-417 -2168 0
-1723 -2168 0
417 1723 2168 0
-828 -1736 0
-828 -2059 0
-1736 -2059 0
828 1736 2059 0
-772 -1732 0
-772 -2360 0
-1732 -2360 0
772 1732 2360 0
-1577 -3335 0
-1577 -3397 0
-3335 -3397 0
1577 3335 3397 0
-2509 -3398 0
-2509 -3399 0
-3398 -3399 0
2509 3398 3399 0
-3030 -3400 0
-3030 -3401 0
-3400 -3401 0
3030 3400 3401 0
-2257 -3402 0
-2257 -3403 0
-3402 -3403 0
2257 3402 3403 0
-1824 -2446 0
-1824 -3377 0
-2446 -3377 0
1824 2446 3377 0
-127 -1144 0
-127 -2285 0
-1144 -2285 0
127 1144 2285 0
-2182 -2226 0
-2182 -2414 0
-2226 -2414 0
2182 2226 2414 0
-429 -3325 0
-429 -3404 0
-3325 -3404 0
429 3325 3404 0
-1724 -3342 0
-1724 -3405 0
-3342 -3405 0
1724 3342 3405 0
-1502 -1530 0
-1502 -3061 0
-1530 -3061 0
1502 1530 3061 0
-2742 -3253 0
-2742 -3406 0
-3253 -3406 0
2742 3253 3406 0
-711 -2919 0
-711 -3407 0
-2919 -3407 0
711 2919 3407 0
-224 -2685 0
-224 -3408 0
-2685 -3408 0
224 2685 3408 0
-47 -1329 0
-47 -3409 0
-1329 -3409 0
47 1329 3409 0
-256 -584 0
-256 -1275 0
-584 -1275 0
256 584 1275 0
-988 -3058 0
-988 -3410 0
-3058 -3410 0
988 3058 3410 0
-802 -851 0
-802 -3184 0
-851 -3184 0
802 851 3184 0
-991 -1962 0
-991 -3411 0
-1962 -3411 0
991 1962 3411 0
-202 -3412 0
-202 -3413 0
-3412 -3413 0
202 3412 3413 0
-1667 -2472 0
-1667 -3119 0
-2472 -3119 0
1667 2472 3119 0
-536 -1373 0
-536 -3414 0
-1373 -3414 0
536 1373 3414 0
-3415 -3416 0
-3415 -3417 0
-3416 -3417 0
3415 3416 3417 0
-341 -1760 0
-341 -3062 0
-1760 -3062 0
341 1760 3062 0
-1659 -3262 0
-1659 -3418 0
-3262 -3418 0
1659 3262 3418 0
-1323 -2137 0
-1323 -3419 0
-2137 -3419 0
1323 2137 3419 0
-3153 -3160 0
-3153 -3420 0
-3160 -3420 0
3153 3160 3420 0
-106 -1421 0
-106 -3421 0
-1421 -3421 0
106 1421 3421 0
-2115 -3053 0
-2115 -3422 0
-3053 -3422 0
2115 3053 3422 0
-271 -3423 0
-271 -3424 0
-3423 -3424 0
271 3423 3424 0
-1246 -3425 0
-1246 -3426 0
-3425 -3426 0
1246 3425 3426 0
-365 -1024 0
-365 -3427 0
-1024 -3427 0
365 1024 3427 0
-71 -2530 0
-71 -3428 0
-2530 -3428 0
71 2530 3428 0
-1089 -3429 0
-1089 -3430 0
-3429 -3430 0
1089 3429 3430 0
-778 -2798 0
-778 -2988 0
-2798 -2988 0
778 2798 2988 0
-3205 -3431 0
-3205 -3432 0
-3431 -3432 0
3205 3431 3432 0
-1649 -2875 0
-1649 -3287 0
-2875 -3287 0
1649 2875 3287 0
-1476 -1665 0
-1476 -3433 0
-1665 -3433 0
1476 1665 3433 0
-2170 -3047 0
-2170 -3434 0
-3047 -3434 0
2170 3047 3434 0
-3210 -3222 0
-3210 -3435 0
-3222 -3435 0
3210 3222 3435 0
-2671 -3436 0
-2671 -3437 0
-3436 -3437 0
2671 3436 3437 0
-174 -1127 0
-174 -2621 0
-1127 -2621 0
174 1127 2621 0
-468 -1726 0
-468 -3438 0
-1726 -3438 0
468 1726 3438 0
-1325 -2625 0
-1325 -3090 0
-2625 -3090 0
1325 2625 3090 0
-786 -1853 0
-786 -3439 0
-1853 -3439 0
786 1853 3439 0
-2202 -3440 0
-2202 -3441 0
-3440 -3441 0
2202 3440 3441 0
-1314 -2216 0
-1314 -3442 0
-2216 -3442 0
1314 2216 3442 0
-3232 -3443 0
-3232 -3444 0
-3443 -3444 0
3232 3443 3444 0
-1228 -1901 0
-1228 -3445 0
-1901 -3445 0
1228 1901 3445 0
-250 -3206 0
-250 -3446 0
-3206 -3446 0
250 3206 3446 0
-188 -3018 0
-188 -3133 0
-3018 -3133 0
188 3018 3133 0
-3343 -3371 0
-3343 -3447 0
-3371 -3447 0
3343 3371 3447 0
-110 -1578 0
-110 -3166 0
-1578 -3166 0
110 1578 3166 0
-1374 -3238 0
-1374 -3448 0
-3238 -3448 0
1374 3238 3448 0
-226 -992 0
-226 -3449 0
-992 -3449 0
226 992 3449 0
-378 -2229 0
-378 -2949 0
-2229 -2949 0
378 2229 2949 0
-57 -864 0
-57 -2044 0
-864 -2044 0
57 864 2044 0
-1292 -2637 0
-1292 -3450 0
-2637 -3450 0
1292 2637 3450 0
-2622 -2829 0
-2622 -3451 0
-2829 -3451 0
2622 2829 3451 0
-1598 -1727 0
-1598 -2185 0
-1727 -2185 0
1598 1727 2185 0
-2312 -2991 0
-2312 -3079 0
-2991 -3079 0
2312 2991 3079 0
-446 -3231 0
-446 -3366 0
-3231 -3366 0
446 3231 3366 0
-771 -3393 0
-771 -3452 0
-3393 -3452 0
771 3393 3452 0
-1761 -3027 0
-1761 -3220 0
-3027 -3220 0
1761 3027 3220 0
-1972 -2911 0
-1972 -3453 0
-2911 -3453 0
1972 2911 3453 0
-2863 -3323 0
-2863 -3454 0
-3323 -3454 0
2863 3323 3454 0
-2519 -3455 0
-2519 -3456 0
-3455 -3456 0
2519 3455 3456 0
-676 -3077 0
-676 -3457 0
-3077 -3457 0
676 3077 3457 0
-1341 -1654 0
-1341 -3458 0
-1654 -3458 0
1341 1654 3458 0
-1424 -2615 0
-1424 -2968 0
-2615 -2968 0
1424 2615 2968 0
-1281 -2330 0
-1281 -3459 0
-2330 -3459 0
1281 2330 3459 0
-741 -2656 0
-741 -2676 0
-2656 -2676 0
741 2656 2676 0
-351 -2315 0
-351 -3460 0
-2315 -3460 0
351 2315 3460 0
-157 -1235 0
-157 -3461 0
-1235 -3461 0
157 1235 3461 0
-618 -3080 0
-618 -3462 0
-3080 -3462 0
618 3080 3462 0
-3120 -3159 0
-3120 -3463 0
-3159 -3463 0
3120 3159 3463 0
-230 -3464 0
-230 -3465 0
-3464 -3465 0
230 3464 3465 0
-1138 -3466 0
-1138 -3467 0
-3466 -3467 0
1138 3466 3467 0
-515 -3116 0
-515 -3468 0
-3116 -3468 0
515 3116 3468 0
-210 -2546 0
-210 -3372 0
-2546 -3372 0
210 2546 3372 0
-2251 -3436 0
-2251 -3469 0
-3436 -3469 0
2251 3436 3469 0
-291 -2012 0
-291 -3130 0
-2012 -3130 0
291 2012 3130 0
-1633 -1977 0
-1633 -3470 0
-1977 -3470 0
1633 1977 3470 0
-844 -2891 0
-844 -3471 0
-2891 -3471 0
844 2891 3471 0
-138 -3472 0
-138 -3473 0
-3472 -3473 0
138 3472 3473 0
-585 -647 0
-585 -3474 0
-647 -3474 0
585 647 3474 0
-2952 -3475 0
-2952 -3476 0
-3475 -3476 0
2952 3475 3476 0
-2124 -3477 0
-2124 -3478 0
-3477 -3478 0
2124 3477 3478 0
-2342 -2540 0
-2342 -3479 0
-2540 -3479 0
2342 2540 3479 0
-1427 -2354 0
-1427 -3480 0
-2354 -3480 0
1427 2354 3480 0
-420 -3097 0
-420 -3481 0
-3097 -3481 0
420 3097 3481 0
-1161 -1342 0
-1161 -3256 0
-1342 -3256 0
1161 1342 3256 0
-1010 -2591 0
-1010 -3482 0
-2591 -3482 0
1010 2591 3482 0
-2579 -3483 0
-2579 -3484 0
-3483 -3484 0
2579 3483 3484 0
-2899 -3485 0
-2899 -3486 0
-3485 -3486 0
2899 3485 3486 0
-1555 -2761 0
-1555 -2799 0
-2761 -2799 0
1555 2761 2799 0
-568 -3487 0
-568 -3488 0
-3487 -3488 0
568 3487 3488 0
-23 -609 0
-23 -3489 0
-609 -3489 0
23 609 3489 0
-2246 -2758 0
-2246 -3490 0
-2758 -3490 0
2246 2758 3490 0
-1514 -1713 0
-1514 -2803 0
-1713 -2803 0
1514 1713 2803 0
-751 -1444 0
-751 -3427 0
-1444 -3427 0
751 1444 3427 0
-2172 -2626 0
-2172 -2789 0
-2626 -2789 0
2172 2626 2789 0
-1187 -2361 0
-1187 -3036 0
-2361 -3036 0
1187 2361 3036 0
-2556 -2844 0
-2556 -3143 0
-2844 -3143 0
2556 2844 3143 0
-1000 -2062 0
-1000 -2266 0
-2062 -2266 0
1000 2062 2266 0
-87 -3208 0
-87 -3491 0
-3208 -3491 0
87 3208 3491 0
-304 -2213 0
-304 -3492 0
-2213 -3492 0
304 2213 3492 0
-1247 -2827 0
-1247 -3415 0
-2827 -3415 0
1247 2827 3415 0
-2093 -3493 0
-2093 -3494 0
-3493 -3494 0
2093 3493 3494 0
-597 -3495 0
-597 -3496 0
-3495 -3496 0
597 3495 3496 0
-666 -2847 0
-666 -3348 0
-2847 -3348 0
666 2847 3348 0
-1207 -3471 0
-1207 -3497 0
-3471 -3497 0
1207 3471 3497 0
-623 -3156 0
-623 -3498 0
-3156 -3498 0
623 3156 3498 0
-1289 -3499 0
-1289 -3500 0
-3499 -3500 0
1289 3499 3500 0
-1576 -3501 0
-1576 -3502 0
-3501 -3502 0
1576 3501 3502 0
-60 -2580 0
-60 -2777 0
-2580 -2777 0
60 2580 2777 0
-1012 -2489 0
-1012 -3503 0
-2489 -3503 0
1012 2489 3503 0
-2397 -2644 0
-2397 -3504 0
-2644 -3504 0
2397 2644 3504 0
-2004 -2654 0
-2004 -3505 0
-2654 -3505 0
2004 2654 3505 0
-456 -2840 0
-456 -2994 0
-2840 -2994 0
456 2840 2994 0
-1623 -2600 0
-1623 -3506 0
-2600 -3506 0
1623 2600 3506 0
-314 -1810 0
-314 -3507 0
-1810 -3507 0
314 1810 3507 0
-1118 -1305 0
-1118 -2794 0
-1305 -2794 0
1118 1305 2794 0
-1271 -3508 0
-1271 -3509 0
-3508 -3509 0
1271 3508 3509 0
-2533 -3202 0
-2533 -3249 0
-3202 -3249 0
2533 3202 3249 0
-214 -2141 0
-214 -3495 0
-2141 -3495 0
214 2141 3495 0
-2028 -3510 0
-2028 -3511 0
-3510 -3511 0
2028 3510 3511 0
-951 -3252 0
-951 -3260 0
-3252 -3260 0
951 3252 3260 0
-1705 -2037 0
-1705 -3512 0
-2037 -3512 0
1705 2037 3512 0
-247 -2500 0
-247 -2568 0
-2500 -2568 0
247 2500 2568 0
-1326 -1960 0
-1326 -2325 0
-1960 -2325 0
1326 1960 2325 0
-1283 -3270 0
-1283 -3513 0
-3270 -3513 0
1283 3270 3513 0
-2633 -2800 0
-2633 -3514 0
-2800 -3514 0
2633 2800 3514 0
-790 -2629 0
-790 -3515 0
-2629 -3515 0
790 2629 3515 0
-459 -614 0
-459 -2344 0
-614 -2344 0
459 614 2344 0
-1316 -3516 0
-1316 -3517 0
-3516 -3517 0
1316 3516 3517 0
-2277 -3241 0
-2277 -3445 0
-3241 -3445 0
2277 3241 3445 0
-1515 -2584 0
-1515 -2884 0
-2584 -2884 0
1515 2584 2884 0
-2187 -3518 0
-2187 -3519 0
-3518 -3519 0
2187 3518 3519 0
-1500 -1646 0
-1500 -1864 0
-1646 -1864 0
1500 1646 1864 0
-997 -2029 0
-997 -2490 0
-2029 -2490 0
997 2029 2490 0
-2267 -3520 0
-2267 -3521 0
-3520 -3521 0
2267 3520 3521 0
-1065 -2253 0
-1065 -2346 0
-2253 -2346 0
1065 2253 2346 0
-1025 -2635 0
-1025 -3522 0
-2635 -3522 0
1025 2635 3522 0
-3118 -3523 0
-3118 -3524 0
-3523 -3524 0
3118 3523 3524 0
-1981 -3363 0
-1981 -3525 0
-3363 -3525 0
1981 3363 3525 0
-1380 -2371 0
-1380 -3526 0
-2371 -3526 0
1380 2371 3526 0
-1094 -3527 0
-1094 -3528 0
-3527 -3528 0
1094 3527 3528 0
-18 -2969 0
-18 -3485 0
-2969 -3485 0
18 2969 3485 0
-1833 -3388 0
-1833 -3529 0
-3388 -3529 0
1833 3388 3529 0
-878 -1053 0
-878 -2384 0
-1053 -2384 0
878 1053 2384 0
-1121 -3487 0
-1121 -3530 0
-3487 -3530 0
1121 3487 3530 0
-3408 -3504 0
-3408 -3531 0
-3504 -3531 0
3408 3504 3531 0
-2753 -3532 0
-2753 -3533 0
-3532 -3533 0
2753 3532 3533 0
-2756 -2812 0
-2756 -3534 0
-2812 -3534 0
2756 2812 3534 0
-1398 -1927 0
-1398 -2765 0
-1927 -2765 0
1398 1927 2765 0
-3535 -3536 0
-3535 -3537 0
-3536 -3537 0
3535 3536 3537 0
-1213 -2295 0
-1213 -3538 0
-2295 -3538 0
1213 2295 3538 0
-2610 -2912 0
-2610 -3539 0
-2912 -3539 0
2610 2912 3539 0
-2983 -3540 0
-2983 -3541 0
-3540 -3541 0
2983 3540 3541 0
-1116 -1698 0
-1116 -3542 0
-1698 -3542 0
1116 1698 3542 0
-186 -1556 0
-186 -2318 0
-1556 -2318 0
186 1556 2318 0
-2000 -3357 0
-2000 -3523 0
-3357 -3523 0
2000 3357 3523 0
-3042 -3543 0
-3042 -3544 0
-3543 -3544 0
3042 3543 3544 0
-211 -580 0
-211 -2921 0
-580 -2921 0
211 580 2921 0
-1889 -2017 0
-1889 -3545 0
-2017 -3545 0
1889 2017 3545 0
-569 -1762 0
-569 -3546 0
-1762 -3546 0
569 1762 3546 0
-2755 -3364 0
-2755 -3547 0
-3364 -3547 0
2755 3364 3547 0
-3405 -3414 0
-3405 -3548 0
-3414 -3548 0
3405 3414 3548 0
-2366 -3549 0
-2366 -3550 0
-3549 -3550 0
2366 3549 3550 0
-574 -2995 0
-574 -3491 0
-2995 -3491 0
574 2995 3491 0
-779 -3315 0
-779 -3525 0
-3315 -3525 0
779 3315 3525 0
-295 -2662 0
-295 -3551 0
-2662 -3551 0
295 2662 3551 0
-11 -128 0
-11 -659 0
-128 -659 0
11 128 659 0
-797 -3340 0
-797 -3460 0
-3340 -3460 0
797 3340 3460 0
-798 -927 0
-798 -1716 0
-927 -1716 0
798 927 1716 0
-474 -2527 0
-474 -2917 0
-2527 -2917 0
474 2527 2917 0
-1327 -2878 0
-1327 -3552 0
-2878 -3552 0
1327 2878 3552 0
-1918 -2323 0
-1918 -2573 0
-2323 -2573 0
1918 2323 2573 0
-1970 -2531 0
-1970 -2618 0
-2531 -2618 0
1970 2531 2618 0
-2419 -3083 0
-2419 -3228 0
-3083 -3228 0
2419 3083 3228 0
-1902 -2660 0
-1902 -3332 0
-2660 -3332 0
1902 2660 3332 0
-3450 -3543 0
-3450 -3553 0
-3543 -3553 0
3450 3543 3553 0
-3010 -3554 0
-3010 -3555 0
-3554 -3555 0
3010 3554 3555 0
-426 -2560 0
-426 -2690 0
-2560 -2690 0
426 2560 2690 0
-1844 -3397 0
-1844 -3442 0
-3397 -3442 0
1844 3397 3442 0
-1214 -2290 0
-1214 -3124 0
-2290 -3124 0
1214 2290 3124 0
-1356 -2778 0
-1356 -3556 0
-2778 -3556 0
1356 2778 3556 0
-979 -1165 0
-979 -1330 0
-1165 -1330 0
979 1165 1330 0
-1365 -2173 0
-1365 -3557 0
-2173 -3557 0
1365 2173 3557 0
-1622 -3358 0
-1622 -3558 0
-3358 -3558 0
1622 3358 3558 0
-177 -3457 0
-177 -3559 0
-3457 -3559 0
177 3457 3559 0
-894 -1294 0
-894 -3560 0
-1294 -3560 0
894 1294 3560 0
-943 -2183 0
-943 -3561 0
-2183 -3561 0
943 2183 3561 0
-1498 -3107 0
-1498 -3562 0
-3107 -3562 0
1498 3107 3562 0
-3102 -3522 0
-3102 -3563 0
-3522 -3563 0
3102 3522 3563 0
-1229 -3561 0
-1229 -3564 0
-3561 -3564 0
1229 3561 3564 0
-814 -3565 0
-814 -3566 0
-3565 -3566 0
814 3565 3566 0
-1944 -3567 0
-1944 -3568 0
-3567 -3568 0
1944 3567 3568 0
-1392 -2076 0
-1392 -3336 0
-2076 -3336 0
1392 2076 3336 0
-107 -3412 0
-107 -3569 0
-3412 -3569 0
107 3412 3569 0
-3492 -3557 0
-3492 -3570 0
-3557 -3570 0
3492 3557 3570 0
-1948 -2482 0
-1948 -3446 0
-2482 -3446 0
1948 2482 3446 0
-2585 -3571 0
-2585 -3572 0
-3571 -3572 0
2585 3571 3572 0
-160 -2180 0
-160 -3573 0
-2180 -3573 0
160 2180 3573 0
-588 -2404 0
-588 -3574 0
-2404 -3574 0
588 2404 3574 0
-980 -1303 0
-980 -3575 0
-1303 -3575 0
980 1303 3575 0
-2327 -3199 0
-2327 -3221 0
-3199 -3221 0
2327 3199 3221 0
-1102 -1189 0
-1102 -1629 0
-1189 -1629 0
1102 1189 1629 0
-664 -1311 0
-664 -3273 0
-1311 -3273 0
664 1311 3273 0
-212 -3105 0
-212 -3576 0
-3105 -3576 0
212 3105 3576 0
-3236 -3577 0
-3236 -3578 0
-3577 -3578 0
3236 3577 3578 0
-897 -2402 0
-897 -3508 0
-2402 -3508 0
897 2402 3508 0
-2650 -3496 0
-2650 -3579 0
-3496 -3579 0
2650 3496 3579 0
-2073 -3469 0
-2073 -3580 0
-3469 -3580 0
2073 3469 3580 0
-1453 -3472 0
-1453 -3581 0
-3472 -3581 0
1453 3472 3581 0
-3194 -3582 0
-3194 -3583 0
-3582 -3583 0
3194 3582 3583 0
-723 -1782 0
-723 -2791 0
-1782 -2791 0
723 1782 2791 0
-3584 -3585 0
-3584 -3586 0
-3585 -3586 0
3584 3585 3586 0
-1920 -3196 0
-1920 -3587 0
-3196 -3587 0
1920 3196 3587 0
-5 -955 0
-5 -3028 0
-955 -3028 0
5 955 3028 0
-3416 -3588 0
-3416 -3589 0
-3588 -3589 0
3416 3588 3589 0
-935 -2693 0
-935 -3466 0
-2693 -3466 0
935 2693 3466 0
-2286 -2596 0
-2286 -3437 0
-2596 -3437 0
2286 2596 3437 0
-1825 -3084 0
-1825 -3590 0
-3084 -3590 0
1825 3084 3590 0
-1845 -3493 0
-1845 -3591 0
-3493 -3591 0
1845 3493 3591 0
-2026 -2244 0
-2026 -3577 0
-2244 -3577 0
2026 2244 3577 0
-1103 -3592 0
-1103 -3593 0
-3592 -3593 0
1103 3592 3593 0
-726 -857 0
-726 -3594 0
-857 -3594 0
726 857 3594 0
-3571 -3595 0
-3571 -3596 0
-3595 -3596 0
3571 3595 3596 0
-3285 -3490 0
-3285 -3597 0
-3490 -3597 0
3285 3490 3597 0
-1613 -2105 0
-1613 -3598 0
-2105 -3598 0
1613 2105 3598 0
-3467 -3599 0
-3467 -3600 0
-3599 -3600 0
3467 3599 3600 0
-859 -3601 0
-859 -3602 0
-3601 -3602 0
859 3601 3602 0
-839 -2836 0
-839 -3603 0
-2836 -3603 0
839 2836 3603 0
-3250 -3271 0
-3250 -3604 0
-3271 -3604 0
3250 3271 3604 0
-2054 -3128 0
-2054 -3605 0
-3128 -3605 0
2054 3128 3605 0
-2996 -3606 0
-2996 -3607 0
-3606 -3607 0
2996 3606 3607 0
-1768 -2837 0
-1768 -3608 0
-2837 -3608 0
1768 2837 3608 0
-1580 -3609 0
-1580 -3610 0
-3609 -3610 0
1580 3609 3610 0
-1858 -2460 0
-1858 -3611 0
-2460 -3611 0
1858 2460 3611 0
-2862 -2903 0
-2862 -3612 0
-2903 -3612 0
2862 2903 3612 0
-503 -2528 0
-503 -3613 0
-2528 -3613 0
503 2528 3613 0
-1478 -2569 0
-1478 -3614 0
-2569 -3614 0
1478 2569 3614 0
-1438 -2838 0
-1438 -3615 0
-2838 -3615 0
1438 2838 3615 0
-194 -517 0
-194 -3616 0
-517 -3616 0
194 517 3616 0
-1533 -2444 0
-1533 -3257 0
-2444 -3257 0
1533 2444 3257 0
-784 -1384 0
-784 -3247 0
-1384 -3247 0
784 1384 3247 0
-1439 -2987 0
-1439 -3617 0
-2987 -3617 0
1439 2987 3617 0
-2534 -3267 0
-2534 -3333 0
-3267 -3333 0
2534 3267 3333 0
-3175 -3618 0
-3175 -3619 0
-3618 -3619 0
3175 3618 3619 0
-2774 -3620 0
-2774 -3621 0
-3620 -3621 0
2774 3620 3621 0
-1430 -2299 0
-1430 -3622 0
-2299 -3622 0
1430 2299 3622 0
-2688 -2703 0
-2688 -2865 0
-2703 -2865 0
2688 2703 2865 0
-742 -2319 0
-742 -2383 0
-2319 -2383 0
742 2319 2383 0
-1317 -3477 0
-1317 -3623 0
-3477 -3623 0
1317 3477 3623 0
-842 -3091 0
-842 -3409 0
-3091 -3409 0
842 3091 3409 0
-1428 -3624 0
-1428 -3625 0
-3624 -3625 0
1428 3624 3625 0
-257 -2199 0
-257 -3468 0
-2199 -3468 0
257 2199 3468 0
-1331 -1997 0
-1331 -3626 0
-1997 -3626 0
1331 1997 3626 0
-3482 -3574 0
-3482 -3597 0
-3574 -3597 0
3482 3574 3597 0
-1842 -3627 0
-1842 -3628 0
-3627 -3628 0
1842 3627 3628 0
-396 -2515 0
-396 -2611 0
-2515 -2611 0
396 2515 2611 0
-1559 -3361 0
-1559 -3629 0
-3361 -3629 0
1559 3361 3629 0
-3092 -3172 0
-3092 -3383 0
-3172 -3383 0
3092 3172 3383 0
-2788 -3411 0
-2788 -3575 0
-3411 -3575 0
2788 3411 3575 0
-2264 -2979 0
-2264 -3630 0
-2979 -3630 0
2264 2979 3630 0
-3572 -3631 0
-3572 -3632 0
-3631 -3632 0
3572 3631 3632 0
-1184 -1381 0
-1184 -3633 0
-1381 -3633 0
1184 1381 3633 0
-1581 -1669 0
-1581 -2870 0
-1669 -2870 0
1581 1669 2870 0
-1494 -2818 0
-1494 -3634 0
-2818 -3634 0
1494 2818 3634 0
-1267 -2260 0
-1267 -3635 0
-2260 -3635 0
1267 2260 3635 0
-570 -3135 0
-570 -3269 0
-3135 -3269 0
570 3135 3269 0
-165 -3455 0
-165 -3514 0
-3455 -3514 0
165 3455 3514 0
-317 -2535 0
-317 -2866 0
-2535 -2866 0
317 2535 2866 0
-3606 -3636 0
-3606 -3637 0
-3636 -3637 0
3606 3636 3637 0
-2739 -3429 0
-2739 -3638 0
-3429 -3638 0
2739 3429 3638 0
-2039 -2045 0
-2039 -3507 0
-2045 -3507 0
2039 2045 3507 0
-559 -2661 0
-559 -2913 0
-2661 -2913 0
559 2661 2913 0
-2484 -3288 0
-2484 -3639 0
-3288 -3639 0
2484 3288 3639 0
-241 -2064 0
-241 -3104 0
-2064 -3104 0
241 2064 3104 0
-1350 -3217 0
-1350 -3242 0
-3217 -3242 0
1350 3217 3242 0
-277 -2095 0
-277 -2432 0
-2095 -2432 0
277 2095 2432 0
-787 -2747 0
-787 -3640 0
-2747 -3640 0
787 2747 3640 0
-1026 -1503 0
-1026 -3641 0
-1503 -3641 0
1026 1503 3641 0
-3309 -3588 0
-3309 -3642 0
-3588 -3642 0
3309 3588 3642 0
-251 -3643 0
-251 -3644 0
-3643 -3644 0
251 3643 3644 0
-1418 -2516 0
-1418 -3339 0
-2516 -3339 0
1418 2516 3339 0
-2563 -3360 0
-2563 -3645 0
-3360 -3645 0
2563 3360 3645 0
-1095 -2357 0
-1095 -2496 0
-2357 -2496 0
1095 2357 2496 0
-543 -2442 0
-543 -3646 0
-2442 -3646 0
543 2442 3646 0
-1210 -1791 0
-1210 -2672 0
-1791 -2672 0
1210 1791 2672 0
-2663 -3239 0
-2663 -3647 0
-3239 -3647 0
2663 3239 3647 0
-2551 -2731 0
-2551 -3449 0
-2731 -3449 0
2551 2731 3449 0
-2668 -3189 0
-2668 -3392 0
-3189 -3392 0
2668 3189 3392 0
-274 -2748 0
-274 -3043 0
-2748 -3043 0
274 2748 3043 0
-101 -1881 0
-101 -3258 0
-1881 -3258 0
101 1881 3258 0
-1485 -2487 0
-1485 -2933 0
-2487 -2933 0
1485 2487 2933 0
-2191 -3050 0
-2191 -3464 0
-3050 -3464 0
2191 3050 3464 0
-1984 -2539 0
-1984 -3648 0
-2539 -3648 0
1984 2539 3648 0
-2034 -3527 0
-2034 -3529 0
-3527 -3529 0
2034 3527 3529 0
-1946 -2940 0
-1946 -3649 0
-2940 -3649 0
1946 2940 3649 0
-1255 -2962 0
-1255 -3650 0
-2962 -3650 0
1255 2962 3650 0
-795 -3263 0
-795 -3528 0
-3263 -3528 0
795 3263 3528 0
-2820 -3368 0
-2820 -3651 0
-3368 -3651 0
2820 3368 3651 0
-2445 -3599 0
-2445 -3652 0
-3599 -3652 0
2445 3599 3652 0
-21 -3292 0
-21 -3423 0
-3292 -3423 0
21 3292 3423 0
-342 -648 0
-342 -2118 0
-648 -2118 0
342 648 2118 0
-2682 -2964 0
-2682 -3653 0
-2964 -3653 0
2682 2964 3653 0
-64 -2867 0
-64 -3654 0
-2867 -3654 0
64 2867 3654 0
-3376 -3407 0
-3376 -3655 0
-3407 -3655 0
3376 3407 3655 0
-2845 -2947 0
-2845 -3656 0
-2947 -3656 0
2845 2947 3656 0
-2997 -3657 0
-2997 -3658 0
-3657 -3658 0
2997 3657 3658 0
-660 -3243 0
-660 -3417 0
-3243 -3417 0
660 3243 3417 0
-3265 -3659 0
-3265 -3660 0
-3659 -3660 0
3265 3659 3660 0
-2757 -3032 0
-2757 -3369 0
-3032 -3369 0
2757 3032 3369 0
-3374 -3642 0
-3374 -3661 0
-3642 -3661 0
3374 3642 3661 0
-2894 -3662 0
-2894 -3663 0
-3662 -3663 0
2894 3662 3663 0
-1588 -1912 0
-1588 -3657 0
-1912 -3657 0
1588 1912 3657 0
-683 -1250 0
-683 -3581 0
-1250 -3581 0
683 1250 3581 0
-834 -2943 0
-834 -2948 0
-2943 -2948 0
834 2943 2948 0
-1172 -2074 0
-1172 -2674 0
-2074 -2674 0
1172 2074 2674 0
-1013 -1347 0
-1013 -3192 0
-1347 -3192 0
1013 1347 3192 0
-983 -2329 0
-983 -3629 0
-2329 -3629 0
983 2329 3629 0
-104 -1939 0
-104 -3296 0
-1939 -3296 0
104 1939 3296 0
-319 -2854 0
-319 -3664 0
-2854 -3664 0
319 2854 3664 0
-1539 -3373 0
-1539 -3665 0
-3373 -3665 0
1539 3373 3665 0
-2437 -3015 0
-2437 -3666 0
-3015 -3666 0
2437 3015 3666 0
-642 -2545 0
-642 -3667 0
-2545 -3667 0
642 2545 3667 0
-1526 -3668 0
-1526 -3669 0
-3668 -3669 0
1526 3668 3669 0
-917 -1049 0
-917 -3670 0
-1049 -3670 0
917 1049 3670 0
-845 -2109 0
-845 -3540 0
-2109 -3540 0
845 2109 3540 0
-583 -1225 0
-583 -2925 0
-1225 -2925 0
583 1225 2925 0
-1145 -2581 0
-1145 -3410 0
-2581 -3410 0
1145 2581 3410 0
-1662 -2766 0
-1662 -3671 0
-2766 -3671 0
1662 2766 3671 0
-537 -941 0
-537 -3672 0
-941 -3672 0
537 941 3672 0
-1454 -1862 0
-1454 -3509 0
-1862 -3509 0
1454 1862 3509 0
-278 -1744 0
-278 -3673 0
-1744 -3673 0
278 1744 3673 0
-3453 -3579 0
-3453 -3674 0
-3579 -3674 0
3453 3579 3674 0
-116 -1258 0
-116 -3675 0
-1258 -3675 0
116 1258 3675 0
-1164 -1714 0
-1164 -3676 0
-1714 -3676 0
1164 1714 3676 0
-2905 -3646 0
-2905 -3671 0
-3646 -3671 0
2905 3646 3671 0
-738 -2999 0
-738 -3567 0
-2999 -3567 0
738 2999 3567 0
-1991 -2806 0
-1991 -2850 0
-2806 -2850 0
1991 2806 2850 0
-1607 -1670 0
-1607 -3520 0
-1670 -3520 0
1607 1670 3520 0
-2217 -3677 0
-2217 -3678 0
-3677 -3678 0
2217 3677 3678 0
-299 -1101 0
-299 -1202 0
-1101 -1202 0
299 1101 1202 0
-2930 -2938 0
-2930 -3679 0
-2938 -3679 0
2930 2938 3679 0
-2928 -3345 0
-2928 -3680 0
-3345 -3680 0
2928 3345 3680 0
-300 -2565 0
-300 -3681 0
-2565 -3681 0
300 2565 3681 0
-275 -2476 0
-275 -3048 0
-2476 -3048 0
275 2476 3048 0
-1508 -1574 0
-1508 -3682 0
-1574 -3682 0
1508 1574 3682 0
-331 -1561 0
-331 -2204 0
-1561 -2204 0
331 1561 2204 0
-1800 -3190 0
-1800 -3448 0
-3190 -3448 0
1800 3190 3448 0
-218 -2162 0
-218 -3658 0
-2162 -3658 0
218 2162 3658 0
-832 -2587 0
-832 -2675 0
-2587 -2675 0
832 2587 2675 0
-2119 -2138 0
-2119 -3359 0
-2138 -3359 0
2119 2138 3359 0
-901 -3229 0
-901 -3486 0
-3229 -3486 0
901 3229 3486 0
-2680 -3016 0
-2680 -3683 0
-3016 -3683 0
2680 3016 3683 0
-68 -1837 0
-68 -3684 0
-1837 -3684 0
68 1837 3684 0
-757 -2274 0
-757 -3425 0
-2274 -3425 0
757 2274 3425 0
-1097 -3093 0
-1097 -3112 0
-3093 -3112 0
1097 3093 3112 0
-1787 -2808 0
-1787 -3685 0
-2808 -3685 0
1787 2808 3685 0
-1553 -1871 0
-1553 -3686 0
-1871 -3686 0
1553 1871 3686 0
-2006 -2892 0
-2006 -3180 0
-2892 -3180 0
2006 2892 3180 0
-1897 -1985 0
-1897 -3613 0
-1985 -3613 0
1897 1985 3613 0
-354 -2057 0
-354 -3687 0
-2057 -3687 0
354 2057 3687 0
-2815 -2951 0
-2815 -3688 0
-2951 -3688 0
2815 2951 3688 0
-881 -2586 0
-881 -3683 0
-2586 -3683 0
881 2586 3683 0
-2070 -2769 0
-2070 -3186 0
-2769 -3186 0
2070 2769 3186 0
-1651 -2701 0
-1651 -3475 0
-2701 -3475 0
1651 2701 3475 0
-465 -551 0
-465 -2737 0
-551 -2737 0
465 551 2737 0
-339 -3627 0
-339 -3689 0
-3627 -3689 0
339 3627 3689 0
-1193 -2889 0
-1193 -3690 0
-2889 -3690 0
1193 2889 3690 0
-1644 -3000 0
-1644 -3304 0
-3000 -3304 0
1644 3000 3304 0
-3691 -3692 0
-3691 -3693 0
-3692 -3693 0
3691 3692 3693 0
-387 -1252 0
-387 -3088 0
-1252 -3088 0
387 1252 3088 0
-518 -3226 0
-518 -3694 0
-3226 -3694 0
518 3226 3694 0
-1119 -2416 0
-1119 -3501 0
-2416 -3501 0
1119 2416 3501 0
-97 -1175 0
-97 -1230 0
-1175 -1230 0
97 1175 1230 0
-2425 -3695 0
-2425 -3696 0
-3695 -3696 0
2425 3695 3696 0
-1733 -3086 0
-1733 -3697 0
-3086 -3697 0
1733 3086 3697 0
-651 -3698 0
-651 -3699 0
-3698 -3699 0
651 3698 3699 0
-936 -969 0
-936 -2821 0
-969 -2821 0
936 969 2821 0
-1033 -1520 0
-1033 -3700 0
-1520 -3700 0
1033 1520 3700 0
-2019 -3701 0
-2019 -3702 0
-3701 -3702 0
2019 3701 3702 0
-1265 -1708 0
-1265 -2322 0
-1708 -2322 0
1265 1708 2322 0
-2453 -3510 0
-2453 -3703 0
-3510 -3703 0
2453 3510 3703 0
-829 -2495 0
-829 -3365 0
-2495 -3365 0
829 2495 3365 0
-2783 -3704 0
-2783 -3705 0
-3704 -3705 0
2783 3704 3705 0
-863 -2553 0
-863 -3651 0
-2553 -3651 0
863 2553 3651 0
-324 -2188 0
-324 -3706 0
-2188 -3706 0
324 2188 3706 0
-2223 -3691 0
-2223 -3707 0
-3691 -3707 0
2223 3691 3707 0
-2160 -3096 0
-2160 -3321 0
-3096 -3321 0
2160 3096 3321 0
-1015 -2768 0
-1015 -3617 0
-2768 -3617 0
1015 2768 3617 0
-1566 -1614 0
-1566 -3207 0
-1614 -3207 0
1566 1614 3207 0
-1458 -2617 0
-1458 -3087 0
-2617 -3087 0
1458 2617 3087 0
-696 -788 0
-696 -3708 0
-788 -3708 0
696 788 3708 0
-2718 -3580 0
-2718 -3608 0
-3580 -3608 0
2718 3580 3608 0
-528 -1120 0
-528 -3709 0
-1120 -3709 0
528 1120 3709 0
-1082 -1092 0
-1082 -3615 0
-1092 -3615 0
1082 1092 3615 0
-1516 -2048 0
-1516 -3710 0
-2048 -3710 0
1516 2048 3710 0
-1297 -2194 0
-1297 -3151 0
-2194 -3151 0
1297 2194 3151 0
-438 -1385 0
-438 -3319 0
-1385 -3319 0
438 1385 3319 0
-1809 -2670 0
-1809 -3280 0
-2670 -3280 0
1809 2670 3280 0
-1963 -2965 0
-1963 -3488 0
-2965 -3488 0
1963 2965 3488 0
-3396 -3711 0
-3396 -3712 0
-3711 -3712 0
3396 3711 3712 0
-418 -3433 0
-418 -3713 0
-3433 -3713 0
418 3433 3713 0
-1355 -1891 0
-1355 -2125 0
-1891 -2125 0
1355 1891 2125 0
-956 -1176 0
-956 -2935 0
-1176 -2935 0
956 1176 2935 0
-2133 -3612 0
-2133 -3701 0
-3612 -3701 0
2133 3612 3701 0
-3326 -3424 0
-3326 -3714 0
-3424 -3714 0
3326 3424 3714 0
-6 -826 0
-6 -3085 0
-826 -3085 0
6 826 3085 0
-3289 -3715 0
-3289 -3716 0
-3715 -3716 0
3289 3715 3716 0
-2544 -3029 0
-2544 -3717 0
-3029 -3717 0
2544 3029 3717 0
-803 -2499 0
-803 -3518 0
-2499 -3518 0
803 2499 3518 0
-2355 -2627 0
-2355 -3718 0
-2627 -3718 0
2355 2627 3718 0
-937 -2645 0
-937 -3719 0
-2645 -3719 0
937 2645 3719 0
-712 -1098 0
-712 -3552 0
-1098 -3552 0
712 1098 3552 0
-1345 -1666 0
-1345 -3720 0
-1666 -3720 0
1345 1666 3720 0
-3141 -3721 0
-3141 -3722 0
-3721 -3722 0
3141 3721 3722 0
-2831 -3569 0
-2831 -3723 0
-3569 -3723 0
2831 3569 3723 0
-1208 -1964 0
-1208 -3230 0
-1964 -3230 0
1208 1964 3230 0
-12 -3570 0
-12 -3630 0
-3570 -3630 0
12 3570 3630 0
-808 -2639 0
-808 -3724 0
-2639 -3724 0
808 2639 3724 0
-1587 -2283 0
-1587 -3725 0
-2283 -3725 0
1587 2283 3725 0
-2698 -3007 0
-2698 -3609 0
-3007 -3609 0
2698 3007 3609 0
-1278 -2744 0
-1278 -3473 0
-2744 -3473 0
1278 2744 3473 0
-3005 -3259 0
-3005 -3591 0
-3259 -3591 0
3005 3259 3591 0
-2002 -2958 0
-2002 -3726 0
-2958 -3726 0
2002 2958 3726 0
-715 -3498 0
-715 -3727 0
-3498 -3727 0
715 3498 3727 0
-506 -1017 0
-506 -1535 0
-1017 -1535 0
506 1017 1535 0
-766 -3169 0
-766 -3322 0
-3169 -3322 0
766 3169 3322 0
-9 -3499 0
-9 -3728 0
-3499 -3728 0
9 3499 3728 0
-752 -2529 0
-752 -2781 0
-2529 -2781 0
752 2529 2781 0
-662 -2566 0
-662 -2944 0
-2566 -2944 0
662 2566 2944 0
-359 -1941 0
-359 -3729 0
-1941 -3729 0
359 1941 3729 0
-93 -1894 0
-93 -2230 0
-1894 -2230 0
93 1894 2230 0
-289 -2382 0
-289 -3041 0
-2382 -3041 0
289 2382 3041 0
-1181 -3474 0
-1181 -3685 0
-3474 -3685 0
1181 3474 3685 0
-3179 -3694 0
-3179 -3730 0
-3694 -3730 0
3179 3694 3730 0
-3443 -3463 0
-3443 -3682 0
-3463 -3682 0
3443 3463 3682 0
-1839 -3731 0
-1839 -3732 0
-3731 -3732 0
1839 3731 3732 0
-3544 -3548 0
-3544 -3695 0
-3548 -3695 0
3544 3548 3695 0
-1521 -3375 0
-1521 -3733 0
-3375 -3733 0
1521 3375 3733 0
-2116 -2868 0
-2116 -3305 0
-2868 -3305 0
2116 2868 3305 0
-776 -989 0
-776 -1510 0
-989 -1510 0
776 989 1510 0
-1117 -3483 0
-1117 -3668 0
-3483 -3668 0
1117 3483 3668 0
-3037 -3584 0
-3037 -3664 0
-3584 -3664 0
3037 3584 3664 0
-1682 -2248 0
-1682 -3484 0
-2248 -3484 0
1682 2248 3484 0
-381 -847 0
-381 -2745 0
-847 -2745 0
381 847 2745 0
-3094 -3462 0
-3094 -3516 0
-3462 -3516 0
3094 3462 3516 0
-2328 -3337 0
-2328 -3535 0
-3337 -3535 0
2328 3337 3535 0
-3679 -3734 0
-3679 -3735 0
-3734 -3735 0
3679 3734 3735 0
-938 -2832 0
-938 -3420 0
-2832 -3420 0
938 2832 3420 0
-1637 -3008 0
-1637 -3736 0
-3008 -3736 0
1637 3008 3736 0
-1734 -2374 0
-1734 -3737 0
-2374 -3737 0
1734 2374 3737 0
-1986 -2719 0
-1986 -3738 0
-2719 -3738 0
1986 2719 3738 0
-731 -3394 0
-731 -3720 0
-3394 -3720 0
731 3394 3720 0
-1543 -2792 0
-1543 -3114 0
-2792 -3114 0
1543 2792 3114 0
-2362 -3149 0
-2362 -3739 0
-3149 -3739 0
2362 3149 3739 0
-2149 -3255 0
-2149 -3662 0
-3255 -3662 0
2149 3255 3662 0
-148 -2454 0
-148 -3556 0
-2454 -3556 0
148 2454 3556 0
-424 -1548 0
-424 -1823 0
-1548 -1823 0
424 1548 1823 0
-721 -1584 0
-721 -3650 0
-1584 -3650 0
721 1584 3650 0
-44 -1608 0
-44 -3590 0
-1608 -3590 0
44 1608 3590 0
-3069 -3378 0
-3069 -3740 0
-3378 -3740 0
3069 3378 3740 0
-1155 -2096 0
-1155 -3672 0
-2096 -3672 0
1155 2096 3672 0
-30 -1517 0
-30 -3387 0
-1517 -3387 0
30 1517 3387 0
-669 -2614 0
-669 -3741 0
-2614 -3741 0
669 2614 3741 0
-1262 -1921 0
-1262 -2871 0
-1921 -2871 0
1262 1921 2871 0
-2796 -3150 0
-2796 -3736 0
-3150 -3736 0
2796 3150 3736 0
-823 -2249 0
-823 -2469 0
-2249 -2469 0
823 2249 2469 0
-245 -2047 0
-245 -3547 0
-2047 -3547 0
245 2047 3547 0
-1784 -3146 0
-1784 -3313 0
-3146 -3313 0
1784 3146 3313 0
-2063 -3742 0
-2063 -3743 0
-3742 -3743 0
2063 3742 3743 0
-1220 -3117 0
-1220 -3688 0
-3117 -3688 0
1220 3117 3688 0
-2835 -3075 0
-2835 -3532 0
-3075 -3532 0
2835 3075 3532 0
-1131 -2005 0
-1131 -2174 0
-2005 -2174 0
1131 2005 2174 0
-3129 -3703 0
-3129 -3744 0
-3703 -3744 0
3129 3703 3744 0
-680 -1236 0
-680 -3745 0
-1236 -3745 0
680 1236 3745 0
-1136 -3624 0
-1136 -3746 0
-3624 -3746 0
1136 3624 3746 0
-954 -3681 0
-954 -3711 0
-3681 -3711 0
954 3681 3711 0
-1931 -3611 0
-1931 -3747 0
-3611 -3747 0
1931 3611 3747 0
-2347 -2390 0
-2347 -3301 0
-2390 -3301 0
2347 2390 3301 0
-3748 -3749 0
-3748 -3750 0
-3749 -3750 0
3748 3749 3750 0
-175 -1843 0
-175 -3197 0
-1843 -3197 0
175 1843 3197 0
-2090 -2686 0
-2090 -3751 0
-2686 -3751 0
2090 2686 3751 0
-2922 -3636 0
-2922 -3752 0
-3636 -3752 0
2922 3636 3752 0
-3139 -3478 0
-3139 -3753 0
-3478 -3753 0
3139 3478 3753 0
-594 -1892 0
-594 -3121 0
-1892 -3121 0
594 1892 3121 0
-2013 -3513 0
-2013 -3754 0
-3513 -3754 0
2013 3513 3754 0
-746 -2110 0
-746 -3131 0
-2110 -3131 0
746 2110 3131 0
-2707 -3164 0
-2707 -3562 0
-3164 -3562 0
2707 3164 3562 0
-3539 -3737 0
-3539 -3755 0
-3737 -3755 0
3539 3737 3755 0
-1147 -1254 0
-1147 -2833 0
-1254 -2833 0
1147 1254 2833 0
-1455 -3634 0
-1455 -3756 0
-3634 -3756 0
1455 3634 3756 0
-2386 -2770 0
-2386 -3757 0
-2770 -3757 0
2386 2770 3757 0
-2554 -2907 0
-2554 -3758 0
-2907 -3758 0
2554 2907 3758 0
-292 -3689 0
-292 -3759 0
-3689 -3759 0
292 3689 3759 0
-571 -3274 0
-571 -3311 0
-3274 -3311 0
571 3274 3311 0
-334 -1940 0
-334 -2007 0
-1940 -2007 0
334 1940 2007 0
-2945 -3294 0
-2945 -3760 0
-3294 -3760 0
2945 3294 3760 0
-2855 -3283 0
-2855 -3310 0
-3283 -3310 0
2855 3283 3310 0
-1690 -2091 0
-1690 -3670 0
-2091 -3670 0
1690 2091 3670 0
-1818 -3402 0
-1818 -3481 0
-3402 -3481 0
1818 3402 3481 0
-1203 -3761 0
-1203 -3762 0
-3761 -3762 0
1203 3761 3762 0
-1391 -2918 0
-1391 -2966 0
-2918 -2966 0
1391 2918 2966 0
-679 -1811 0
-679 -3444 0
-1811 -3444 0
679 1811 3444 0
-932 -1757 0
-932 -2787 0
-1757 -2787 0
932 1757 2787 0
-2352 -3438 0
-2352 -3666 0
-3438 -3666 0
2352 3438 3666 0
-48 -3328 0
-48 -3655 0
-3328 -3655 0
48 3328 3655 0
-670 -2839 0
-670 -3763 0
-2839 -3763 0
670 2839 3763 0
-1475 -2759 0
-1475 -3676 0
-2759 -3676 0
1475 2759 3676 0
-453 -3211 0
-453 -3620 0
-3211 -3620 0
453 3211 3620 0
-1812 -3500 0
-1812 -3559 0
-3500 -3559 0
1812 3500 3559 0
-889 -2433 0
-889 -3721 0
-2433 -3721 0
889 2433 3721 0
-1419 -1975 0
-1419 -3398 0
-1975 -3398 0
1419 1975 3398 0
-1914 -2205 0
-1914 -2567 0
-2205 -2567 0
1914 2205 2567 0
-773 -970 0
-773 -3764 0
-970 -3764 0
773 970 3764 0
-454 -2127 0
-454 -3708 0
-2127 -3708 0
454 2127 3708 0
-466 -2292 0
-466 -2893 0
-2292 -2893 0
466 2292 2893 0
-1788 -3719 0
-1788 -3765 0
-3719 -3765 0
1788 3719 3765 0
-1028 -1506 0
-1028 -2289 0
-1506 -2289 0
1028 1506 2289 0
-2877 -2898 0
-2877 -3545 0
-2898 -3545 0
2877 2898 3545 0
-2890 -3530 0
-2890 -3594 0
-3530 -3594 0
2890 3530 3594 0
-755 -2041 0
-755 -3766 0
-2041 -3766 0
755 2041 3766 0
-703 -2050 0
-703 -2790 0
-2050 -2790 0
703 2050 2790 0
-1728 -3001 0
-1728 -3614 0
-3001 -3614 0
1728 3001 3614 0
-3046 -3261 0
-3046 -3767 0
-3261 -3767 0
3046 3261 3767 0
-145 -460 0
-145 -758 0
-460 -758 0
145 460 758 0
-1199 -3013 0
-1199 -3461 0
-3013 -3461 0
1199 3013 3461 0
-2208 -3384 0
-2208 -3512 0
-3384 -3512 0
2208 3384 3512 0
-602 -1966 0
-602 -2103 0
-1966 -2103 0
602 1966 2103 0
-2589 -2860 0
-2589 -3347 0
-2860 -3347 0
2589 2860 3347 0
-2032 -3675 0
-2032 -3734 0
-3675 -3734 0
2032 3675 3734 0
-2186 -2652 0
-2186 -3353 0
-2652 -3353 0
2186 2652 3353 0
-663 -872 0
-663 -3465 0
-872 -3465 0
663 872 3465 0
-2313 -2664 0
-2313 -2716 0
-2664 -2716 0
2313 2664 2716 0
-2687 -3428 0
-2687 -3554 0
-3428 -3554 0
2687 3428 3554 0
-2394 -2843 0
-2394 -3502 0
-2843 -3502 0
2394 2843 3502 0
-2279 -2408 0
-2279 -3404 0
-2408 -3404 0
2279 2408 3404 0
-2296 -2709 0
-2296 -3426 0
-2709 -3426 0
2296 2709 3426 0
-2915 -3476 0
-2915 -3768 0
-3476 -3768 0
2915 3476 3768 0
-1104 -1899 0
-1104 -2955 0
-1899 -2955 0
1104 1899 2955 0
-3451 -3769 0
-3451 -3770 0
-3769 -3770 0
3451 3769 3770 0
-1895 -3458 0
-1895 -3618 0
-3458 -3618 0
1895 3458 3618 0
-2786 -3623 0
-2786 -3771 0
-3623 -3771 0
2786 3623 3771 0
-1978 -3275 0
-1978 -3772 0
-3275 -3772 0
1978 3275 3772 0
-3595 -3700 0
-3595 -3745 0
-3700 -3745 0
3595 3700 3745 0
-1546 -2479 0
-1546 -3773 0
-2479 -3773 0
1546 2479 3773 0
-2377 -3033 0
-2377 -3413 0
-3033 -3413 0
2377 3033 3413 0
-2603 -3553 0
-2603 -3774 0
-3553 -3774 0
2603 3553 3774 0
-3167 -3686 0
-3167 -3775 0
-3686 -3775 0
3167 3686 3775 0
-1657 -2990 0
-1657 -3724 0
-2990 -3724 0
1657 2990 3724 0
-1878 -2506 0
-1878 -3771 0
-2506 -3771 0
1878 2506 3771 0
-2293 -3773 0
-2293 -3776 0
-3773 -3776 0
2293 3773 3776 0
-1557 -1679 0
-1557 -3113 0
-1679 -3113 0
1557 1679 3113 0
-1179 -2473 0
-1179 -2908 0
-2473 -2908 0
1179 2473 2908 0
-3140 -3290 0
-3140 -3673 0
-3290 -3673 0
3140 3290 3673 0
-1731 -2885 0
-1731 -3631 0
-2885 -3631 0
1731 2885 3631 0
-743 -2967 0
-743 -3604 0
-2967 -3604 0
743 2967 3604 0
-1721 -2961 0
-1721 -3099 0
-2961 -3099 0
1721 2961 3099 0
-1159 -2592 0
-1159 -3185 0
-2592 -3185 0
1159 2592 3185 0
-534 -681 0
-534 -2406 0
-681 -2406 0
534 681 2406 0
-837 -1148 0
-837 -2262 0
-1148 -2262 0
837 1148 2262 0
-631 -3635 0
-631 -3777 0
-3635 -3777 0
631 3635 3777 0
-1412 -1593 0
-1412 -3778 0
-1593 -3778 0
1412 1593 3778 0
-2010 -2576 0
-2010 -3628 0
-2576 -3628 0
2010 2576 3628 0
-2020 -3605 0
-2020 -3779 0
-3605 -3779 0
2020 3605 3779 0
-3780 -3781 0
-3780 -3782 0
-3781 -3782 0
3780 3781 3782 0
-45 -2532 0
-45 -3506 0
-2532 -3506 0
45 2532 3506 0
-1929 -2391 0
-1929 -3783 0
-2391 -3783 0
1929 2391 3783 0
-139 -1279 0
-139 -2923 0
-1279 -2923 0
139 1279 2923 0
-272 -2491 0
-272 -3765 0
-2491 -3765 0
272 2491 3765 0
-14 -2640 0
-14 -3607 0
-2640 -3607 0
14 2640 3607 0
-2071 -3505 0
-2071 -3727 0
-3505 -3727 0
2071 3505 3727 0
-227 -236 0
-227 -3601 0
-236 -3601 0
227 236 3601 0
-2123 -3279 0
-2123 -3731 0
-3279 -3731 0
2123 3279 3731 0
-1248 -2163 0
-1248 -3038 0
-2163 -3038 0
1248 2163 3038 0
-1055 -2594 0
-1055 -2993 0
-2594 -2993 0
1055 2594 2993 0
-1387 -1950 0
-1387 -3625 0
-1950 -3625 0
1387 1950 3625 0
-65 -1047 0
-65 -1594 0
-1047 -1594 0
65 1047 1594 0
-1166 -2861 0
-1166 -3780 0
-2861 -3780 0
1166 2861 3780 0
-2494 -3281 0
-2494 -3546 0
-3281 -3546 0
2494 3281 3546 0
-1647 -2549 0
-1647 -3355 0
-2549 -3355 0
1647 2549 3355 0
-709 -1883 0
-709 -3677 0
-1883 -3677 0
709 1883 3677 0
-39 -2131 0
-39 -2823 0
-2131 -2823 0
39 2131 2823 0
-718 -2003 0
-718 -2471 0
-2003 -2471 0
718 2003 2471 0
-2954 -3191 0
-2954 -3784 0
-3191 -3784 0
2954 3191 3784 0
-1552 -3233 0
-1552 -3643 0
-3233 -3643 0
1552 3233 3643 0
-785 -2977 0
-785 -3064 0
-2977 -3064 0
785 2977 3064 0
-735 -1567 0
-735 -3316 0
-1567 -3316 0
735 1567 3316 0
-923 -3641 0
-923 -3785 0
-3641 -3785 0
923 3641 3785 0
-15 -96 0
-15 -2734 0
-96 -2734 0
15 96 2734 0
-912 -2853 0
-912 -3786 0
-2853 -3786 0
912 2853 3786 0
-3479 -3564 0
-3479 -3787 0
-3564 -3787 0
3479 3564 3787 0
-2410 -3788 0
-2410 -3789 0
-3788 -3789 0
2410 3788 3789 0
-1522 -3380 0
-1522 -3790 0
-3380 -3790 0
1522 3380 3790 0
-3214 -3713 0
-3214 -3791 0
-3713 -3791 0
3214 3713 3791 0
-3602 -3761 0
-3602 -3769 0
-3761 -3769 0
3602 3761 3769 0
-340 -3758 0
-340 -3792 0
-3758 -3792 0
340 3758 3792 0
-390 -2081 0
-390 -3170 0
-2081 -3170 0
390 2081 3170 0
-3456 -3748 0
-3456 -3793 0
-3748 -3793 0
3456 3748 3793 0
-1244 -1531 0
-1244 -3718 0
-1531 -3718 0
1244 1531 3718 0
-200 -1541 0
-200 -3324 0
-1541 -3324 0
200 1541 3324 0
-2378 -3246 0
-2378 -3534 0
-3246 -3534 0
2378 3246 3534 0
-1346 -1739 0
-1346 -3794 0
-1739 -3794 0
1346 1739 3794 0
-848 -3622 0
-848 -3763 0
-3622 -3763 0
848 3622 3763 0
-1792 -2623 0
-1792 -3435 0
-2623 -3435 0
1792 2623 3435 0
-2984 -3312 0
-2984 -3795 0
-3312 -3795 0
2984 3312 3795 0
-3346 -3674 0
-3346 -3796 0
-3674 -3796 0
3346 3674 3796 0
-509 -868 0
-509 -1719 0
-868 -1719 0
509 868 1719 0
-2438 -3297 0
-2438 -3714 0
-3297 -3714 0
2438 3297 3714 0
-209 -2104 0
-209 -3797 0
-2104 -3797 0
209 2104 3797 0
-1974 -2228 0
-1974 -3589 0
-2228 -3589 0
1974 2228 3589 0
-615 -2100 0
-615 -3678 0
-2100 -3678 0
615 2100 3678 0
-3400 -3406 0
-3400 -3798 0
-3406 -3798 0
3400 3406 3798 0
-1466 -3051 0
-1466 -3422 0
-3051 -3422 0
1466 3051 3422 0
-1242 -3669 0
-1242 -3762 0
-3669 -3762 0
1242 3669 3762 0
-2612 -2657 0
-2612 -3648 0
-2657 -3648 0
2612 2657 3648 0
-2601 -2740 0
-2601 -3772 0
-2740 -3772 0
2601 2740 3772 0
-260 -1763 0
-260 -3616 0
-1763 -3616 0
260 1763 3616 0
-3489 -3706 0
-3489 -3799 0
-3706 -3799 0
3489 3706 3799 0
-1217 -2665 0
-1217 -3382 0
-2665 -3382 0
1217 2665 3382 0
-2677 -2813 0
-2677 -3356 0
-2813 -3356 0
2677 2813 3356 0
-3070 -3390 0
-3070 -3800 0
-3390 -3800 0
3070 3390 3800 0
-421 -2721 0
-421 -3801 0
-2721 -3801 0
421 2721 3801 0
-66 -409 0
-66 -3021 0
-409 -3021 0
66 409 3021 0
-2427 -3480 0
-2427 -3802 0
-3480 -3802 0
2427 3480 3802 0
-995 -1388 0
-995 -3034 0
-1388 -3034 0
995 1388 3034 0
-1393 -2552 0
-1393 -3560 0
-2552 -3560 0
1393 2552 3560 0
-2301 -3268 0
-2301 -3517 0
-3268 -3517 0
2301 3268 3517 0
-1801 -2857 0
-1801 -3707 0
-2857 -3707 0
1801 2857 3707 0
-215 -1234 0
-215 -3786 0
-1234 -3786 0
215 1234 3786 0
-2522 -3227 0
-2522 -3692 0
-3227 -3692 0
2522 3227 3692 0
-81 -3803 0
-81 -3804 0
-3803 -3804 0
81 3803 3804 0
-2536 -3663 0
-2536 -3756 0
-3663 -3756 0
2536 3663 3756 0
-3640 -3783 0
-3640 -3805 0
-3783 -3805 0
3640 3783 3805 0
-654 -1501 0
-654 -3165 0
-1501 -3165 0
654 1501 3165 0
-1660 -2385 0
-1660 -3344 0
-2385 -3344 0
1660 2385 3344 0
-1965 -2294 0
-1965 -3573 0
-2294 -3573 0
1965 2294 3573 0
-2841 -3286 0
-2841 -3299 0
-3286 -3299 0
2841 3286 3299 0
-913 -3350 0
-913 -3744 0
-3350 -3744 0
913 3350 3744 0
-3757 -3793 0
-3757 -3806 0
-3793 -3806 0
3757 3793 3806 0
-904 -3755 0
-904 -3807 0
-3755 -3807 0
904 3755 3807 0
-1070 -2886 0
-1070 -3808 0
-2886 -3808 0
1070 2886 3808 0
-1056 -3098 0
-1056 -3809 0
-3098 -3809 0
1056 3098 3809 0
-3300 -3576 0
-3300 -3749 0
-3576 -3749 0
3300 3576 3749 0
-2728 -3521 0
-2728 -3619 0
-3521 -3619 0
2728 3521 3619 0
-166 -2669 0
-166 -3810 0
-2669 -3810 0
166 2669 3810 0
-1286 -1402 0
-1286 -2338 0
-1402 -2338 0
1286 1402 2338 0
-2316 -3157 0
-2316 -3704 0
-3157 -3704 0
2316 3157 3704 0
-1431 -1922 0
-1431 -2379 0
-1922 -2379 0
1431 1922 2379 0
-1312 -3558 0
-1312 -3698 0
-3558 -3698 0
1312 3558 3698 0
-263 -307 0
-263 -3715 0
-307 -3715 0
263 307 3715 0
-1211 -2503 0
-1211 -3798 0
-2503 -3798 0
1211 2503 3798 0
-2128 -3100 0
-2128 -3549 0
-3100 -3549 0
2128 3100 3549 0
-1152 -1848 0
-1152 -3781 0
-1848 -3781 0
1152 1848 3781 0
-774 -2335 0
-774 -3515 0
-2335 -3515 0
774 2335 3515 0
-163 -2578 0
-163 -3811 0
-2578 -3811 0
163 2578 3811 0
-2043 -2583 0
-2043 -2732 0
-2583 -2732 0
2043 2583 2732 0
-944 -948 0
-944 -3809 0
-948 -3809 0
944 948 3809 0
-1835 -2243 0
-1835 -2658 0
-2243 -2658 0
1835 2243 2658 0
-1693 -2147 0
-1693 -3778 0
-2147 -3778 0
1693 2147 3778 0
-667 -1460 0
-667 -2574 0
-1460 -2574 0
667 1460 2574 0
-301 -3632 0
-301 -3776 0
-3632 -3776 0
301 3632 3776 0
-891 -1967 0
-891 -2705 0
-1967 -2705 0
891 1967 2705 0
-1486 -3039 0
-1486 -3110 0
-3039 -3110 0
1486 3039 3110 0
-639 -1403 0
-639 -3295 0
-1403 -3295 0
639 1403 3295 0
-2139 -2287 0
-2139 -3803 0
-2287 -3803 0
2139 2287 3803 0
-1333 -2403 0
-1333 -2736 0
-2403 -2736 0
1333 2403 2736 0
-1527 -2254 0
-1527 -3794 0
-2254 -3794 0
1527 2254 3794 0
-959 -1779 0
-959 -3531 0
-1779 -3531 0
959 1779 3531 0
-1470 -2332 0
-1470 -3808 0
-2332 -3808 0
1470 2332 3808 0
-759 -2079 0
-759 -2485 0
-2079 -2485 0
759 2079 2485 0
-483 -1408 0
-483 -3282 0
-1408 -3282 0
483 1408 3282 0
-2303 -3362 0
-2303 -3697 0
-3362 -3697 0
2303 3362 3697 0
-1685 -3381 0
-1685 -3812 0
-3381 -3812 0
1685 3381 3812 0
-800 -3244 0
-800 -3291 0
-3244 -3291 0
800 3244 3291 0
-577 -2810 0
-577 -3813 0
-2810 -3813 0
577 2810 3813 0
-1083 -1777 0
-1083 -3812 0
-1777 -3812 0
1083 1777 3812 0
-3224 -3814 0
-3224 -3815 0
-3814 -3815 0
3224 3814 3815 0
-2900 -3621 0
-2900 -3696 0
-3621 -3696 0
2900 3621 3696 0
-3044 -3816 0
-3044 -3817 0
-3816 -3817 0
3044 3816 3817 0
-1740 -1798 0
-1740 -3578 0
-1798 -3578 0
1740 1798 3578 0
-1406 -1495 0
-1406 -3814 0
-1495 -3814 0
1406 1495 3814 0
-792 -2252 0
-792 -3533 0
-2252 -3533 0
792 2252 3533 0
-2111 -3735 0
-2111 -3799 0
-3735 -3799 0
2111 3735 3799 0
-2142 -3626 0
-2142 -3813 0
-3626 -3813 0
2142 3626 3813 0
-854 -1750 0
-854 -3730 0
-1750 -3730 0
854 1750 3730 0
-2428 -2953 0
-2428 -3818 0
-2953 -3818 0
2428 2953 3818 0
-1079 -1337 0
-1079 -3819 0
-1337 -3819 0
1079 1337 3819 0
-3389 -3431 0
-3389 -3820 0
-3431 -3820 0
3389 3431 3820 0
-2588 -3123 0
-2588 -3729 0
-3123 -3729 0
2588 3123 3729 0
-2221 -3747 0
-2221 -3821 0
-3747 -3821 0
2221 3747 3821 0
-2218 -2738 0
-2218 -3652 0
-2738 -3652 0
2218 2738 3652 0
-1624 -2811 0
-1624 -3585 0
-2811 -3585 0
1624 2811 3585 0
-89 -1357 0
-89 -3710 0
-1357 -3710 0
89 1357 3710 0
-197 -3503 0
-197 -3822 0
-3503 -3822 0
197 3503 3822 0
-2848 -3555 0
-2848 -3752 0
-3555 -3752 0
2848 3555 3752 0
-628 -2879 0
-628 -3551 0
-2879 -3551 0
628 2879 3551 0
-1227 -3081 0
-1227 -3746 0
-3081 -3746 0
1227 3081 3746 0
-1142 -2699 0
-1142 -3823 0
-2699 -3823 0
1142 2699 3823 0
-98 -2824 0
-98 -3017 0
-2824 -3017 0
98 2824 3017 0
-360 -3582 0
-360 -3811 0
-3582 -3811 0
360 3582 3811 0
-2280 -3277 0
-2280 -3824 0
-3277 -3824 0
2280 3277 3824 0
-524 -1854 0
-524 -3152 0
-1854 -3152 0
524 1854 3152 0
-248 -2849 0
-248 -3452 0
-2849 -3452 0
248 2849 3452 0
-693 -1916 0
-693 -2882 0
-1916 -2882 0
693 1916 2882 0
-343 -1461 0
-343 -3066 0
-1461 -3066 0
343 1461 3066 0
-2130 -2780 0
-2130 -3176 0
-2780 -3176 0
2130 2780 3176 0
-3134 -3825 0
-3134 -3826 0
-3825 -3826 0
3134 3825 3826 0
-1709 -3213 0
-1709 -3816 0
-3213 -3816 0
1709 3213 3816 0
-372 -2888 0
-372 -3644 0
-2888 -3644 0
372 2888 3644 0
-2538 -3011 0
-2538 -3645 0
-3011 -3645 0
2538 3011 3645 0
-1122 -2474 0
-1122 -2651 0
-2474 -2651 0
1122 2474 2651 0
-1348 -1413 0
-1348 -2659 0
-1413 -2659 0
1348 1413 2659 0
-310 -1830 0
-310 -3764 0
-1830 -3764 0
310 1830 3764 0
-1619 -2134 0
-1619 -3284 0
-2134 -3284 0
1619 2134 3284 0
-1464 -1609 0
-1464 -2241 0
-1609 -2241 0
1464 1609 2241 0
-860 -2513 0
-860 -2825 0
-2513 -2825 0
860 2513 2825 0
-2735 -2826 0
-2735 -3637 0
-2826 -3637 0
2735 2826 3637 0
-1231 -1789 0
-1231 -3754 0
-1789 -3754 0
1231 1789 3754 0
-320 -2772 0
-320 -3739 0
-2772 -3739 0
320 2772 3739 0
-476 -1473 0
-476 -2334 0
-1473 -2334 0
476 1473 2334 0
-2764 -3023 0
-2764 -3419 0
-3023 -3419 0
2764 3023 3419 0
-1688 -3351 0
-1688 -3802 0
-3351 -3802 0
1688 3351 3802 0
-488 -1765 0
-488 -3766 0
-1765 -3766 0
488 1765 3766 0
-1334 -3536 0
-1334 -3787 0
-3536 -3787 0
1334 3536 3787 0
-2959 -3712 0
-2959 -3740 0
-3712 -3740 0
2959 3712 3740 0
-1751 -2722 0
-1751 -3784 0
-2722 -3784 0
1751 2722 3784 0
-1525 -3237 0
-1525 -3440 0
-3237 -3440 0
1525 3237 3440 0
-875 -3298 0
-875 -3386 0
-3298 -3386 0
875 3298 3386 0
-657 -1020 0
-657 -3680 0
-1020 -3680 0
657 1020 3680 0
-1766 -2802 0
-1766 -3209 0
-2802 -3209 0
1766 2802 3209 0
-2436 -2542 0
-2436 -3827 0
-2542 -3827 0
2436 2542 3827 0
-24 -3203 0
-24 -3828 0
-3203 -3828 0
24 3203 3828 0
-2972 -3193 0
-2972 -3592 0
-3193 -3592 0
2972 3193 3592 0
-634 -1987 0
-634 -2679 0
-1987 -2679 0
634 1987 2679 0
-366 -1416 0
-366 -1933 0
-1416 -1933 0
366 1416 1933 0
-1259 -2606 0
-1259 -3829 0
-2606 -3829 0
1259 2606 3829 0
-121 -1935 0
-121 -3690 0
-1935 -3690 0
121 1935 3690 0
-1872 -3542 0
-1872 -3830 0
-3542 -3830 0
1872 3542 3830 0
-2694 -2989 0
-2694 -3831 0
-2989 -3831 0
2694 2989 3831 0
-2816 -3108 0
-2816 -3550 0
-3108 -3550 0
2816 3108 3550 0
-1245 -2353 0
-1245 -2910 0
-2353 -2910 0
1245 2353 2910 0
-33 -2451 0
-33 -2872 0
-2451 -2872 0
33 2451 2872 0
-3447 -3598 0
-3447 -3832 0
-3598 -3832 0
3447 3598 3832 0
-1080 -2421 0
-1080 -3716 0
-2421 -3716 0
1080 2421 3716 0
-1200 -3807 0
-1200 -3833 0
-3807 -3833 0
1200 3807 3833 0
-1425 -2060 0
-1425 -3722 0
-2060 -3722 0
1425 2060 3722 0
-2501 -3537 0
-2501 -3753 0
-3537 -3753 0
2501 3537 3753 0
-2055 -3656 0
-2055 -3806 0
-3656 -3806 0
2055 3656 3806 0
-72 -3338 0
-72 -3817 0
-3338 -3817 0
72 3338 3817 0
-51 -1828 0
-51 -3741 0
-1828 -3741 0
51 1828 3741 0
-363 -2636 0
-363 -3805 0
-2636 -3805 0
363 2636 3805 0
-203 -2809 0
-203 -3834 0
-2809 -3834 0
203 2809 3834 0
-736 -3638 0
-736 -3774 0
-3638 -3774 0
736 3638 3774 0
-612 -3320 0
-612 -3665 0
-3320 -3665 0
612 3320 3665 0
-142 -1190 0
-142 -3195 0
-1190 -3195 0
142 1190 3195 0
-1447 -3187 0
-1447 -3430 0
-3187 -3430 0
1447 3187 3430 0
-2136 -3182 0
-2136 -3723 0
-3182 -3723 0
2136 3182 3723 0
-242 -3733 0
-242 -3835 0
-3733 -3835 0
242 3733 3835 0
-457 -1054 0
-457 -3649 0
-1054 -3649 0
457 1054 3649 0
-384 -2320 0
-384 -3511 0
-2320 -3511 0
384 2320 3511 0
-1174 -3215 0
-1174 -3709 0
-3215 -3709 0
1174 3215 3709 0
-811 -2273 0
-811 -3161 0
-2273 -3161 0
811 2273 3161 0
-1171 -3659 0
-1171 -3760 0
-3659 -3760 0
1171 3659 3760 0
-1400 -2447 0
-1400 -3565 0
-2447 -3565 0
1400 2447 3565 0
-283 -739 0
-283 -1401 0
-739 -1401 0
283 739 1401 0
-2975 -3318 0
-2975 -3610 0
-3318 -3610 0
2975 3318 3610 0
-2851 -3751 0
-2851 -3825 0
-3751 -3825 0
2851 3751 3825 0
-892 -2304 0
-892 -2511 0
-2304 -2511 0
892 2304 2511 0
-2920 -3829 0
-2920 -3836 0
-3829 -3836 0
2920 3829 3836 0
-3432 -3810 0
-3432 -3823 0
-3810 -3823 0
3432 3810 3823 0
-1771 -3154 0
-1771 -3837 0
-3154 -3837 0
1771 3154 3837 0
-957 -3155 0
-957 -3791 0
-3155 -3791 0
957 3155 3791 0
-865 -2804 0
-865 -3667 0
-2804 -3667 0
865 2804 3667 0
-1150 -3726 0
-1150 -3767 0
-3726 -3767 0
1150 3726 3767 0
-1239 -1528 0
-1239 -3101 0
-1528 -3101 0
1239 1528 3101 0
-1923 -2166 0
-1923 -3526 0
-2166 -3526 0
1923 2166 3526 0
-2098 -3379 0
-2098 -3788 0
-3379 -3788 0
2098 3379 3788 0
-1928 -2683 0
-1928 -3418 0
-2683 -3418 0
1928 2683 3418 0
-2083 -3434 0
-2083 -3822 0
-3434 -3822 0
2083 3434 3822 0
-2314 -3352 0
-2314 -3600 0
-3352 -3600 0
2314 3352 3600 0
-1536 -2887 0
-1536 -3218 0
-2887 -3218 0
1536 2887 3218 0
-884 -1673 0
-884 -3248 0
-1673 -3248 0
884 1673 3248 0
-688 -2150 0
-688 -2916 0
-2150 -2916 0
688 2150 2916 0
-2655 -3126 0
-2655 -3421 0
-3126 -3421 0
2655 3126 3421 0
-2089 -2797 0
-2089 -3067 0
-2797 -3067 0
2089 2797 3067 0
-684 -3026 0
-684 -3147 0
-3026 -3147 0
684 3026 3147 0
-1504 -1877 0
-1504 -3204 0
-1877 -3204 0
1504 1877 3204 0
-3314 -3403 0
-3314 -3738 0
-3403 -3738 0
3314 3403 3738 0
-1128 -2021 0
-1128 -3441 0
-2021 -3441 0
1128 2021 3441 0
-2126 -2895 0
-2126 -3777 0
-2895 -3777 0
2126 2895 3777 0
-3459 -3593 0
-3459 -3837 0
-3593 -3837 0
3459 3593 3837 0
-3653 -3830 0
-3653 -3838 0
-3830 -3838 0
3653 3830 3838 0
-1440 -1908 0
-1440 -3699 0
-1908 -3699 0
1440 1908 3699 0
-2101 -3127 0
-2101 -3162 0
-3127 -3162 0
2101 3127 3162 0
-325 -2214 0
-325 -2941 0
-2214 -2941 0
325 2214 2941 0
-3439 -3497 0
-3439 -3800 0
-3497 -3800 0
3439 3497 3800 0
-782 -2763 0
-782 -3792 0
-2763 -3792 0
782 2763 3792 0
-706 -3137 0
-706 -3785 0
-3137 -3785 0
706 3137 3785 0
-2869 -2946 0
-2869 -3693 0
-2946 -3693 0
2869 2946 3693 0
-54 -3327 0
-54 -3835 0
-3327 -3835 0
54 3327 3835 0
-311 -3647 0
-311 -3839 0
-3647 -3839 0
311 3647 3839 0
-1256 -3303 0
-1256 -3728 0
-3303 -3728 0
1256 3303 3728 0
-740 -3661 0
-740 -3725 0
-3661 -3725 0
740 3661 3725 0
-1549 -2730 0
-1549 -3633 0
-2730 -3633 0
1549 2730 3633 0
-1490 -3563 0
-1490 -3836 0
-3563 -3836 0
1490 3563 3836 0
-3519 -3795 0
-3519 -3840 0
-3795 -3840 0
3519 3795 3840 0
-552 -1729 0
-552 -3789 0
-1729 -3789 0
552 1729 3789 0
-2956 -3049 0
-2956 -3815 0
-3049 -3815 0
2956 3049 3815 0
-521 -1876 0
-521 -3399 0
-1876 -3399 0
521 1876 3399 0
-3391 -3687 0
-3391 -3750 0
-3687 -3750 0
3391 3687 3750 0
-69 -2068 0
-69 -3587 0
-2068 -3587 0
69 2068 3587 0
-1467 -3401 0
-1467 -3568 0
-3401 -3568 0
1467 3401 3568 0
-3385 -3454 0
-3385 -3654 0
-3454 -3654 0
3385 3454 3654 0
-3168 -3541 0
-3168 -3820 0
-3541 -3820 0
3168 3541 3820 0
-835 -3742 0
-835 -3768 0
-3742 -3768 0
835 3742 3768 0
-90 -1652 0
-90 -3002 0
-1652 -3002 0
90 1652 3002 0
-918 -1141 0
-918 -3349 0
-1141 -3349 0
918 1141 3349 0
-3254 -3702 0
-3254 -3833 0
-3702 -3833 0
3254 3702 3833 0
-1992 -3603 0
-1992 -3828 0
-3603 -3828 0
1992 3603 3828 0
-3111 -3354 0
-3111 -3705 0
-3354 -3705 0
3111 3354 3705 0
-1268 -1840 0
-1268 -3470 0
-1840 -3470 0
1268 1840 3470 0
-119 -2673 0
-119 -3583 0
-2673 -3583 0
119 2673 3583 0
-1947 -2858 0
-1947 -3743 0
-2858 -3743 0
1947 2858 3743 0
-124 -529 0
-124 -3838 0
-529 -3838 0
124 529 3838 0
-3395 -3826 0
-3395 -3831 0
-3826 -3831 0
3395 3826 3831 0
-3251 -3796 0
-3251 -3839 0
-3796 -3839 0
3251 3796 3839 0
-900 -3219 0
-900 -3824 0
-3219 -3824 0
900 3219 3824 0
-564 -1445 0
-564 -3370 0
-1445 -3370 0
564 1445 3370 0
-3082 -3797 0
-3082 -3818 0
-3797 -3818 0
3082 3797 3818 0
-2094 -3759 0
-2094 -3827 0
-3759 -3827 0
2094 3759 3827 0
-760 -1691 0
-760 -2700 0
-1691 -2700 0
760 1691 2700 0
-2196 -3059 0
-2196 -3174 0
-3059 -3174 0
2196 3059 3174 0
-1696 -3056 0
-1696 -3524 0
-3056 -3524 0
1696 3056 3524 0
-2440 -2452 0
-2440 -3790 0
-2452 -3790 0
2440 2452 3790 0
-2239 -2526 0
-2239 -3840 0
-2526 -3840 0
2239 2526 3840 0
-1648 -2628 0
-1648 -3234 0
-2628 -3234 0
1648 2628 3234 0
-665 -1905 0
-665 -2630 0
-1905 -2630 0
665 1905 2630 0
-477 -1942 0
-477 -2873 0
-1942 -2873 0
477 1942 2873 0
-1743 -2901 0
-1743 -3732 0
-2901 -3732 0
1743 2901 3732 0
-1717 -2369 0
-1717 -3031 0
-2369 -3031 0
1717 2369 3031 0
-2523 -3494 0
-2523 -3779 0
-3494 -3779 0
2523 3494 3779 0
-444 -3596 0
-444 -3770 0
-3596 -3770 0
444 3596 3770 0
-129 -3003 0
-129 -3639 0
-3003 -3639 0
129 3003 3639 0
-820 -3782 0
-820 -3832 0
-3782 -3832 0
820 3782 3832 0
-906 -3566 0
-906 -3660 0
-3566 -3660 0
906 3566 3660 0
-2695 -3684 0
-2695 -3775 0
-3684 -3775 0
2695 3684 3775 0
-682 -2465 0
-682 -3834 0
-2465 -3834 0
682 2465 3834 0
-1564 -2746 0
-1564 -3115 0
-2746 -3115 0
1564 2746 3115 0
-540 -2268 0
-540 -2358 0
-2268 -2358 0
540 2268 2358 0
-308 -866 0
-308 -3804 0
-866 -3804 0
308 866 3804 0
-2720 -3173 0
-2720 -3801 0
-3173 -3801 0
2720 3173 3801 0
-1630 -1699 0
-1630 -3171 0
-1699 -3171 0
1630 1699 3171 0
-907 -3240 0
-907 -3341 0
-3240 -3341 0
907 3240 3341 0
-1459 -1554 0
-1459 -3132 0
-1554 -3132 0
1459 1554 3132 0
-122 -130 0
-122 -2197 0
-130 -2197 0
122 130 2197 0
-1641 -3586 0
-1641 -3821 0
-3586 -3821 0
1641 3586 3821 0
-1903 -2642 0
-1903 -3717 0
-2642 -3717 0
1903 2642 3717 0
-2561 -3538 0
-2561 -3819 0
-3538 -3819 0
2561 3538 3819 0
-2309 -2356 0
-2309 -2749 0
-2356 -2749 0
2309 2356 2749 0
