c description: Perfect Matching Principle on random 3-regular graph on 80 verices
c generator: CNFgen (0.9.6)
c copyright: (C) 2012-2026 Massimo Lauria <massimo.lauria@uniroma1.it>
c url: https://massimolauria.net/cnfgen
c command line: cnfgen matching gnd 80 3
c
p cnf 120 320
-1 -2 0
-1 -3 0
-2 -3 0
1 2 3 0
-4 -5 0
-4 -6 0
-5 -6 0
4 5 6 0
-7 -8 0
-7 -9 0
-8 -9 0
7 8 9 0
-10 -11 0
-10 -12 0
-11 -12 0
10 11 12 0
-13 -14 0
-13 -15 0
-14 -15 0
13 14 15 0
-16 -17 0
-16 -18 0
-17 -18 0
16 17 18 0
-19 -20 0
-19 -21 0
-20 -21 0
19 20 21 0
-4 -22 0
-4 -23 0
-22 -23 0
4 22 23 0
-7 -24 0
-7 -25 0
-24 -25 0
7 24 25 0
-26 -27 0
-26 -28 0
-27 -28 0
26 27 28 0
-19 -29 0
-19 -30 0
-29 -30 0
19 29 30 0
-1 -31 0
-1 -32 0
-31 -32 0
1 31 32 0
-29 -33 0
-29 -34 0
-33 -34 0
29 33 34 0
-35 -36 0
-35 -37 0
-36 -37 0
35 36 37 0
-5 -38 0
-5 -39 0
-38 -39 0
5 38 39 0
-40 -41 0
-40 -42 0
-41 -42 0
40 41 42 0
-43 -44 0
-43 -45 0
-44 -45 0
43 44 45 0
-46 -47 0
-46 -48 0
-47 -48 0
46 47 48 0
-10 -49 0
-10 -50 0
-49 -50 0
10 49 50 0
-20 -33 0
-20 -51 0
-33 -51 0
20 33 51 0
-6 -52 0
-6 -53 0
-52 -53 0
6 52 53 0
-11 -16 0
-11 -54 0
-16 -54 0
11 16 54 0
-12 -22 0
-12 -55 0
-22 -55 0
12 22 55 0
-56 -57 0
-56 -58 0
-57 -58 0
56 57 58 0
-59 -60 0
-59 -61 0
-60 -61 0
59 60 61 0
-62 -63 0
-62 -64 0
-63 -64 0
62 63 64 0
-59 -65 0
-59 -66 0
-65 -66 0
59 65 66 0
-56 -67 0
-56 -68 0
-67 -68 0
56 67 68 0
-31 -46 0
-31 -62 0
-46 -62 0
31 46 62 0
-69 -70 0
-69 -71 0
-70 -71 0
69 70 71 0
-67 -72 0
-67 -73 0
-72 -73 0
67 72 73 0
-74 -75 0
-74 -76 0
-75 -76 0
74 75 76 0
-38 -60 0
-38 -69 0
-60 -69 0
38 60 69 0
-8 -52 0
-8 -65 0
-52 -65 0
8 52 65 0
-68 -77 0
-68 -78 0
-77 -78 0
68 77 78 0
-26 -79 0
-26 -80 0
-79 -80 0
26 79 80 0
-32 -43 0
-32 -81 0
-43 -81 0
32 43 81 0
-49 -82 0
-49 -83 0
-82 -83 0
49 82 83 0
-13 -74 0
-13 -84 0
-74 -84 0
13 74 84 0
-23 -79 0
-23 -85 0
-79 -85 0
23 79 85 0
-14 -30 0
-14 -40 0
-30 -40 0
14 30 40 0
-27 -86 0
-27 -87 0
-86 -87 0
27 86 87 0
-66 -88 0
-66 -89 0
-88 -89 0
66 88 89 0
-90 -91 0
-90 -92 0
-91 -92 0
90 91 92 0
-57 -93 0
-57 -94 0
-93 -94 0
57 93 94 0
-17 -61 0
-17 -95 0
-61 -95 0
17 61 95 0
-35 -77 0
-35 -96 0
-77 -96 0
35 77 96 0
-50 -96 0
-50 -97 0
-96 -97 0
50 96 97 0
-53 -81 0
-53 -98 0
-81 -98 0
53 81 98 0
-24 -72 0
-24 -88 0
-72 -88 0
24 72 88 0
-90 -99 0
-90 -100 0
-99 -100 0
90 99 100 0
-25 -93 0
-25 -101 0
-93 -101 0
25 93 101 0
-75 -91 0
-75 -99 0
-91 -99 0
75 91 99 0
-63 -102 0
-63 -103 0
-102 -103 0
63 102 103 0
-39 -85 0
-39 -104 0
-85 -104 0
39 85 104 0
-51 -105 0
-51 -106 0
-105 -106 0
51 105 106 0
-41 -97 0
-41 -102 0
-97 -102 0
41 97 102 0
-73 -80 0
-73 -107 0
-80 -107 0
73 80 107 0
-103 -108 0
-103 -109 0
-108 -109 0
103 108 109 0
-36 -42 0
-36 -94 0
-42 -94 0
36 42 94 0
-47 -92 0
-47 -108 0
-92 -108 0
47 92 108 0
-18 -101 0
-18 -110 0
-101 -110 0
18 101 110 0
-82 -84 0
-82 -111 0
-84 -111 0
82 84 111 0
-9 -107 0
-9 -112 0
-107 -112 0
9 107 112 0
-21 -28 0
-21 -113 0
-28 -113 0
21 28 113 0
-15 -70 0
-15 -114 0
-70 -114 0
15 70 114 0
-37 -71 0
-37 -115 0
-71 -115 0
37 71 115 0
-2 -86 0
-2 -89 0
-86 -89 0
2 86 89 0
-110 -116 0
-110 -117 0
-116 -117 0
110 116 117 0
-76 -113 0
-76 -116 0
-113 -116 0
76 113 116 0
-44 -55 0
-44 -112 0
-55 -112 0
44 55 112 0
-45 -117 0
-45 -118 0
-117 -118 0
45 117 118 0
-48 -78 0
-48 -109 0
-78 -109 0
48 78 109 0
-34 -105 0
-34 -119 0
-105 -119 0
34 105 119 0
-98 -114 0
-98 -120 0
-114 -120 0
98 114 120 0
-83 -87 0
-83 -118 0
-87 -118 0
83 87 118 0
-3 -64 0
-3 -119 0
-64 -119 0
3 64 119 0
-95 -104 0
-95 -120 0
-104 -120 0
95 104 120 0
-54 -100 0
-54 -115 0
-100 -115 0
54 100 115 0
-58 -106 0
-58 -111 0
-106 -111 0
58 106 111 0
