c description: Perfect Matching Principle on random 3-regular graph on 10240 verices
c generator: CNFgen (0.9.6)
c copyright: (C) 2012-2026 Massimo Lauria <massimo.lauria@uniroma1.it>
c url: https://massimolauria.net/cnfgen
c command line: cnfgen matching gnd 10240 3
c
p cnf 15360 40960
-1 -2 0
-1 -3 0
-2 -3 0
1 2 3 0
-4 -5 0
-4 -6 0
-5 -6 0
4 5 6 0
-7 -8 0
-7 -9 0
-8 -9 0
7 8 9 0
-10 -11 0
-10 -12 0
-11 -12 0
10 11 12 0
-13 -14 0
-13 -15 0
-14 -15 0
13 14 15 0
-16 -17 0
-16 -18 0
-17 -18 0
16 17 18 0
-19 -20 0
-19 -21 0
-20 -21 0
19 20 21 0
-22 -23 0
-22 -24 0
-23 -24 0
22 23 24 0
-25 -26 0
-25 -27 0
-26 -27 0
25 26 27 0
-28 -29 0
-28 -30 0
-29 -30 0
28 29 30 0
-31 -32 0
-31 -33 0
-32 -33 0
31 32 33 0
-34 -35 0
-34 -36 0
-35 -36 0
34 35 36 0
-37 -38 0
-37 -39 0
-38 -39 0
37 38 39 0
-40 -41 0
-40 -42 0
-41 -42 0
40 41 42 0
-43 -44 0
-43 -45 0
-44 -45 0
43 44 45 0
-46 -47 0
-46 -48 0
-47 -48 0
46 47 48 0
-49 -50 0
-49 -51 0
-50 -51 0
49 50 51 0
-52 -53 0
-52 -54 0
-53 -54 0
52 53 54 0
-55 -56 0
-55 -57 0
-56 -57 0
55 56 57 0
-58 -59 0
-58 -60 0
-59 -60 0
58 59 60 0
-61 -62 0
-61 -63 0
-62 -63 0
61 62 63 0
-64 -65 0
-64 -66 0
-65 -66 0
64 65 66 0
-67 -68 0
-67 -69 0
-68 -69 0
67 68 69 0
-70 -71 0
-70 -72 0
-71 -72 0
70 71 72 0
-73 -74 0
-73 -75 0
-74 -75 0
73 74 75 0
-76 -77 0
-76 -78 0
-77 -78 0
76 77 78 0
-79 -80 0
-79 -81 0
-80 -81 0
79 80 81 0
-82 -83 0
-82 -84 0
-83 -84 0
82 83 84 0
-85 -86 0
-85 -87 0
-86 -87 0
85 86 87 0
-88 -89 0
-88 -90 0
-89 -90 0
88 89 90 0
-91 -92 0
-91 -93 0
-92 -93 0
91 92 93 0
-94 -95 0
-94 -96 0
-95 -96 0
94 95 96 0
-97 -98 0
-97 -99 0
-98 -99 0
97 98 99 0
-100 -101 0
-100 -102 0
-101 -102 0
100 101 102 0
-103 -104 0
-103 -105 0
-104 -105 0
103 104 105 0
-106 -107 0
-106 -108 0
-107 -108 0
106 107 108 0
-109 -110 0
-109 -111 0
-110 -111 0
109 110 111 0
-112 -113 0
-112 -114 0
-113 -114 0
112 113 114 0
-115 -116 0
-115 -117 0
-116 -117 0
115 116 117 0
-118 -119 0
-118 -120 0
-119 -120 0
118 119 120 0
-121 -122 0
-121 -123 0
-122 -123 0
121 122 123 0
-124 -125 0
-124 -126 0
-125 -126 0
124 125 126 0
-127 -128 0
-127 -129 0
-128 -129 0
127 128 129 0
-130 -131 0
-130 -132 0
-131 -132 0
130 131 132 0
-133 -134 0
-133 -135 0
-134 -135 0
133 134 135 0
-136 -137 0
-136 -138 0
-137 -138 0
136 137 138 0
-139 -140 0
-139 -141 0
-140 -141 0
139 140 141 0
-142 -143 0
-142 -144 0
-143 -144 0
142 143 144 0
-145 -146 0
-145 -147 0
-146 -147 0
145 146 147 0
-148 -149 0
-148 -150 0
-149 -150 0
148 149 150 0
-151 -152 0
-151 -153 0
-152 -153 0
151 152 153 0
-154 -155 0
-154 -156 0
-155 -156 0
154 155 156 0
-157 -158 0
-157 -159 0
-158 -159 0
157 158 159 0
-160 -161 0
-160 -162 0
-161 -162 0
160 161 162 0
-163 -164 0
-163 -165 0
-164 -165 0
163 164 165 0
-166 -167 0
-166 -168 0
-167 -168 0
166 167 168 0
-169 -170 0
-169 -171 0
-170 -171 0
169 170 171 0
-79 -172 0
-79 -173 0
-172 -173 0
79 172 173 0
-174 -175 0
-174 -176 0
-175 -176 0
174 175 176 0
-177 -178 0
-177 -179 0
-178 -179 0
177 178 179 0
-180 -181 0
-180 -182 0
-181 -182 0
180 181 182 0
-183 -184 0
-183 -185 0
-184 -185 0
183 184 185 0
-186 -187 0
-186 -188 0
-187 -188 0
186 187 188 0
-189 -190 0
-189 -191 0
-190 -191 0
189 190 191 0
-192 -193 0
-192 -194 0
-193 -194 0
192 193 194 0
-195 -196 0
-195 -197 0
-196 -197 0
195 196 197 0
-198 -199 0
-198 -200 0
-199 -200 0
198 199 200 0
-201 -202 0
-201 -203 0
-202 -203 0
201 202 203 0
-204 -205 0
-204 -206 0
-205 -206 0
204 205 206 0
-207 -208 0
-207 -209 0
-208 -209 0
207 208 209 0
-210 -211 0
-210 -212 0
-211 -212 0
210 211 212 0
-213 -214 0
-213 -215 0
-214 -215 0
213 214 215 0
-216 -217 0
-216 -218 0
-217 -218 0
216 217 218 0
-219 -220 0
-219 -221 0
-220 -221 0
219 220 221 0
-222 -223 0
-222 -224 0
-223 -224 0
222 223 224 0
-225 -226 0
-225 -227 0
-226 -227 0
225 226 227 0
-228 -229 0
-228 -230 0
-229 -230 0
228 229 230 0
-231 -232 0
-231 -233 0
-232 -233 0
231 232 233 0
-234 -235 0
-234 -236 0
-235 -236 0
234 235 236 0
-237 -238 0
-237 -239 0
-238 -239 0
237 238 239 0
-240 -241 0
-240 -242 0
-241 -242 0
240 241 242 0
-243 -244 0
-243 -245 0
-244 -245 0
243 244 245 0
-10 -246 0
-10 -247 0
-246 -247 0
10 246 247 0
-248 -249 0
-248 -250 0
-249 -250 0
248 249 250 0
-251 -252 0
-251 -253 0
-252 -253 0
251 252 253 0
-254 -255 0
-254 -256 0
-255 -256 0
254 255 256 0
-257 -258 0
-257 -259 0
-258 -259 0
257 258 259 0
-61 -260 0
-61 -261 0
-260 -261 0
61 260 261 0
-262 -263 0
-262 -264 0
-263 -264 0
262 263 264 0
-265 -266 0
-265 -267 0
-266 -267 0
265 266 267 0
-268 -269 0
-268 -270 0
-269 -270 0
268 269 270 0
-271 -272 0
-271 -273 0
-272 -273 0
271 272 273 0
-274 -275 0
-274 -276 0
-275 -276 0
274 275 276 0
-277 -278 0
-277 -279 0
-278 -279 0
277 278 279 0
-280 -281 0
-280 -282 0
-281 -282 0
280 281 282 0
-283 -284 0
-283 -285 0
-284 -285 0
283 284 285 0
-286 -287 0
-286 -288 0
-287 -288 0
286 287 288 0
-289 -290 0
-289 -291 0
-290 -291 0
289 290 291 0
-292 -293 0
-292 -294 0
-293 -294 0
292 293 294 0
-295 -296 0
-295 -297 0
-296 -297 0
295 296 297 0
-136 -298 0
-136 -299 0
-298 -299 0
136 298 299 0
-300 -301 0
-300 -302 0
-301 -302 0
300 301 302 0
-303 -304 0
-303 -305 0
-304 -305 0
303 304 305 0
-306 -307 0
-306 -308 0
-307 -308 0
306 307 308 0
-309 -310 0
-309 -311 0
-310 -311 0
309 310 311 0
-312 -313 0
-312 -314 0
-313 -314 0
312 313 314 0
-315 -316 0
-315 -317 0
-316 -317 0
315 316 317 0
-318 -319 0
-318 -320 0
-319 -320 0
318 319 320 0
-321 -322 0
-321 -323 0
-322 -323 0
321 322 323 0
-324 -325 0
-324 -326 0
-325 -326 0
324 325 326 0
-327 -328 0
-327 -329 0
-328 -329 0
327 328 329 0
-330 -331 0
-330 -332 0
-331 -332 0
330 331 332 0
-333 -334 0
-333 -335 0
-334 -335 0
333 334 335 0
-336 -337 0
-336 -338 0
-337 -338 0
336 337 338 0
-339 -340 0
-339 -341 0
-340 -341 0
339 340 341 0
-342 -343 0
-342 -344 0
-343 -344 0
342 343 344 0
-345 -346 0
-345 -347 0
-346 -347 0
345 346 347 0
-348 -349 0
-348 -350 0
-349 -350 0
348 349 350 0
-351 -352 0
-351 -353 0
-352 -353 0
351 352 353 0
-354 -355 0
-354 -356 0
-355 -356 0
354 355 356 0
-357 -358 0
-357 -359 0
-358 -359 0
357 358 359 0
-360 -361 0
-360 -362 0
-361 -362 0
360 361 362 0
-363 -364 0
-363 -365 0
-364 -365 0
363 364 365 0
-366 -367 0
-366 -368 0
-367 -368 0
366 367 368 0
-369 -370 0
-369 -371 0
-370 -371 0
369 370 371 0
-372 -373 0
-372 -374 0
-373 -374 0
372 373 374 0
-375 -376 0
-375 -377 0
-376 -377 0
375 376 377 0
-378 -379 0
-378 -380 0
-379 -380 0
378 379 380 0
-381 -382 0
-381 -383 0
-382 -383 0
381 382 383 0
-384 -385 0
-384 -386 0
-385 -386 0
384 385 386 0
-387 -388 0
-387 -389 0
-388 -389 0
387 388 389 0
-390 -391 0
-390 -392 0
-391 -392 0
390 391 392 0
-393 -394 0
-393 -395 0
-394 -395 0
393 394 395 0
-396 -397 0
-396 -398 0
-397 -398 0
396 397 398 0
-399 -400 0
-399 -401 0
-400 -401 0
399 400 401 0
-402 -403 0
-402 -404 0
-403 -404 0
402 403 404 0
-405 -406 0
-405 -407 0
-406 -407 0
405 406 407 0
-408 -409 0
-408 -410 0
-409 -410 0
408 409 410 0
-411 -412 0
-411 -413 0
-412 -413 0
411 412 413 0
-414 -415 0
-414 -416 0
-415 -416 0
414 415 416 0
-417 -418 0
-417 -419 0
-418 -419 0
417 418 419 0
-177 -420 0
-177 -421 0
-420 -421 0
177 420 421 0
-422 -423 0
-422 -424 0
-423 -424 0
422 423 424 0
-425 -426 0
-425 -427 0
-426 -427 0
425 426 427 0
-428 -429 0
-428 -430 0
-429 -430 0
428 429 430 0
-431 -432 0
-431 -433 0
-432 -433 0
431 432 433 0
-434 -435 0
-434 -436 0
-435 -436 0
434 435 436 0
-437 -438 0
-437 -439 0
-438 -439 0
437 438 439 0
-440 -441 0
-440 -442 0
-441 -442 0
440 441 442 0
-443 -444 0
-443 -445 0
-444 -445 0
443 444 445 0
-446 -447 0
-446 -448 0
-447 -448 0
446 447 448 0
-449 -450 0
-449 -451 0
-450 -451 0
449 450 451 0
-452 -453 0
-452 -454 0
-453 -454 0
452 453 454 0
-455 -456 0
-455 -457 0
-456 -457 0
455 456 457 0
-458 -459 0
-458 -460 0
-459 -460 0
458 459 460 0
-461 -462 0
-461 -463 0
-462 -463 0
461 462 463 0
-464 -465 0
-464 -466 0
-465 -466 0
464 465 466 0
-467 -468 0
-467 -469 0
-468 -469 0
467 468 469 0
-470 -471 0
-470 -472 0
-471 -472 0
470 471 472 0
-473 -474 0
-473 -475 0
-474 -475 0
473 474 475 0
-476 -477 0
-476 -478 0
-477 -478 0
476 477 478 0
-479 -480 0
-479 -481 0
-480 -481 0
479 480 481 0
-280 -482 0
-280 -483 0
-482 -483 0
280 482 483 0
-484 -485 0
-484 -486 0
-485 -486 0
484 485 486 0
-487 -488 0
-487 -489 0
-488 -489 0
487 488 489 0
-490 -491 0
-490 -492 0
-491 -492 0
490 491 492 0
-493 -494 0
-493 -495 0
-494 -495 0
493 494 495 0
-496 -497 0
-496 -498 0
-497 -498 0
496 497 498 0
-499 -500 0
-499 -501 0
-500 -501 0
499 500 501 0
-502 -503 0
-502 -504 0
-503 -504 0
502 503 504 0
-505 -506 0
-505 -507 0
-506 -507 0
505 506 507 0
-508 -509 0
-508 -510 0
-509 -510 0
508 509 510 0
-511 -512 0
-511 -513 0
-512 -513 0
511 512 513 0
-514 -515 0
-514 -516 0
-515 -516 0
514 515 516 0
-517 -518 0
-517 -519 0
-518 -519 0
517 518 519 0
-520 -521 0
-520 -522 0
-521 -522 0
520 521 522 0
-523 -524 0
-523 -525 0
-524 -525 0
523 524 525 0
-526 -527 0
-526 -528 0
-527 -528 0
526 527 528 0
-381 -529 0
-381 -530 0
-529 -530 0
381 529 530 0
-531 -532 0
-531 -533 0
-532 -533 0
531 532 533 0
-534 -535 0
-534 -536 0
-535 -536 0
534 535 536 0
-537 -538 0
-537 -539 0
-538 -539 0
537 538 539 0
-540 -541 0
-540 -542 0
-541 -542 0
540 541 542 0
-543 -544 0
-543 -545 0
-544 -545 0
543 544 545 0
-546 -547 0
-546 -548 0
-547 -548 0
546 547 548 0
-549 -550 0
-549 -551 0
-550 -551 0
549 550 551 0
-552 -553 0
-552 -554 0
-553 -554 0
552 553 554 0
-555 -556 0
-555 -557 0
-556 -557 0
555 556 557 0
-558 -559 0
-558 -560 0
-559 -560 0
558 559 560 0
-543 -561 0
-543 -562 0
-561 -562 0
543 561 562 0
-563 -564 0
-563 -565 0
-564 -565 0
563 564 565 0
-566 -567 0
-566 -568 0
-567 -568 0
566 567 568 0
-569 -570 0
-569 -571 0
-570 -571 0
569 570 571 0
-572 -573 0
-572 -574 0
-573 -574 0
572 573 574 0
-575 -576 0
-575 -577 0
-576 -577 0
575 576 577 0
-578 -579 0
-578 -580 0
-579 -580 0
578 579 580 0
-581 -582 0
-581 -583 0
-582 -583 0
581 582 583 0
-584 -585 0
-584 -586 0
-585 -586 0
584 585 586 0
-587 -588 0
-587 -589 0
-588 -589 0
587 588 589 0
-590 -591 0
-590 -592 0
-591 -592 0
590 591 592 0
-593 -594 0
-593 -595 0
-594 -595 0
593 594 595 0
-596 -597 0
-596 -598 0
-597 -598 0
596 597 598 0
-599 -600 0
-599 -601 0
-600 -601 0
599 600 601 0
-602 -603 0
-602 -604 0
-603 -604 0
602 603 604 0
-605 -606 0
-605 -607 0
-606 -607 0
605 606 607 0
-608 -609 0
-608 -610 0
-609 -610 0
608 609 610 0
-611 -612 0
-611 -613 0
-612 -613 0
611 612 613 0
-614 -615 0
-614 -616 0
-615 -616 0
614 615 616 0
-470 -617 0
-470 -618 0
-617 -618 0
470 617 618 0
-619 -620 0
-619 -621 0
-620 -621 0
619 620 621 0
-622 -623 0
-622 -624 0
-623 -624 0
622 623 624 0
-625 -626 0
-625 -627 0
-626 -627 0
625 626 627 0
-628 -629 0
-628 -630 0
-629 -630 0
628 629 630 0
-631 -632 0
-631 -633 0
-632 -633 0
631 632 633 0
-634 -635 0
-634 -636 0
-635 -636 0
634 635 636 0
-637 -638 0
-637 -639 0
-638 -639 0
637 638 639 0
-640 -641 0
-640 -642 0
-641 -642 0
640 641 642 0
-643 -644 0
-643 -645 0
-644 -645 0
643 644 645 0
-646 -647 0
-646 -648 0
-647 -648 0
646 647 648 0
-649 -650 0
-649 -651 0
-650 -651 0
649 650 651 0
-652 -653 0
-652 -654 0
-653 -654 0
652 653 654 0
-655 -656 0
-655 -657 0
-656 -657 0
655 656 657 0
-658 -659 0
-658 -660 0
-659 -660 0
658 659 660 0
-661 -662 0
-661 -663 0
-662 -663 0
661 662 663 0
-664 -665 0
-664 -666 0
-665 -666 0
664 665 666 0
-667 -668 0
-667 -669 0
-668 -669 0
667 668 669 0
-670 -671 0
-670 -672 0
-671 -672 0
670 671 672 0
-1 -673 0
-1 -674 0
-673 -674 0
1 673 674 0
-675 -676 0
-675 -677 0
-676 -677 0
675 676 677 0
-678 -679 0
-678 -680 0
-679 -680 0
678 679 680 0
-681 -682 0
-681 -683 0
-682 -683 0
681 682 683 0
-684 -685 0
-684 -686 0
-685 -686 0
684 685 686 0
-687 -688 0
-687 -689 0
-688 -689 0
687 688 689 0
-690 -691 0
-690 -692 0
-691 -692 0
690 691 692 0
-693 -694 0
-693 -695 0
-694 -695 0
693 694 695 0
-696 -697 0
-696 -698 0
-697 -698 0
696 697 698 0
-699 -700 0
-699 -701 0
-700 -701 0
699 700 701 0
-526 -702 0
-526 -703 0
-702 -703 0
526 702 703 0
-704 -705 0
-704 -706 0
-705 -706 0
704 705 706 0
-670 -707 0
-670 -708 0
-707 -708 0
670 707 708 0
-709 -710 0
-709 -711 0
-710 -711 0
709 710 711 0
-303 -712 0
-303 -713 0
-712 -713 0
303 712 713 0
-714 -715 0
-714 -716 0
-715 -716 0
714 715 716 0
-717 -718 0
-717 -719 0
-718 -719 0
717 718 719 0
-720 -721 0
-720 -722 0
-721 -722 0
720 721 722 0
-723 -724 0
-723 -725 0
-724 -725 0
723 724 725 0
-726 -727 0
-726 -728 0
-727 -728 0
726 727 728 0
-729 -730 0
-729 -731 0
-730 -731 0
729 730 731 0
-732 -733 0
-732 -734 0
-733 -734 0
732 733 734 0
-735 -736 0
-735 -737 0
-736 -737 0
735 736 737 0
-738 -739 0
-738 -740 0
-739 -740 0
738 739 740 0
-741 -742 0
-741 -743 0
-742 -743 0
741 742 743 0
-744 -745 0
-744 -746 0
-745 -746 0
744 745 746 0
-747 -748 0
-747 -749 0
-748 -749 0
747 748 749 0
-750 -751 0
-750 -752 0
-751 -752 0
750 751 752 0
-753 -754 0
-753 -755 0
-754 -755 0
753 754 755 0
-756 -757 0
-756 -758 0
-757 -758 0
756 757 758 0
-759 -760 0
-759 -761 0
-760 -761 0
759 760 761 0
-762 -763 0
-762 -764 0
-763 -764 0
762 763 764 0
-765 -766 0
-765 -767 0
-766 -767 0
765 766 767 0
-768 -769 0
-768 -770 0
-769 -770 0
768 769 770 0
-771 -772 0
-771 -773 0
-772 -773 0
771 772 773 0
-774 -775 0
-774 -776 0
-775 -776 0
774 775 776 0
-777 -778 0
-777 -779 0
-778 -779 0
777 778 779 0
-780 -781 0
-780 -782 0
-781 -782 0
780 781 782 0
-783 -784 0
-783 -785 0
-784 -785 0
783 784 785 0
-786 -787 0
-786 -788 0
-787 -788 0
786 787 788 0
-789 -790 0
-789 -791 0
-790 -791 0
789 790 791 0
-792 -793 0
-792 -794 0
-793 -794 0
792 793 794 0
-678 -795 0
-678 -796 0
-795 -796 0
678 795 796 0
-797 -798 0
-797 -799 0
-798 -799 0
797 798 799 0
-800 -801 0
-800 -802 0
-801 -802 0
800 801 802 0
-803 -804 0
-803 -805 0
-804 -805 0
803 804 805 0
-479 -806 0
-479 -807 0
-806 -807 0
479 806 807 0
-808 -809 0
-808 -810 0
-809 -810 0
808 809 810 0
-811 -812 0
-811 -813 0
-812 -813 0
811 812 813 0
-814 -815 0
-814 -816 0
-815 -816 0
814 815 816 0
-817 -818 0
-817 -819 0
-818 -819 0
817 818 819 0
-820 -821 0
-820 -822 0
-821 -822 0
820 821 822 0
-823 -824 0
-823 -825 0
-824 -825 0
823 824 825 0
-826 -827 0
-826 -828 0
-827 -828 0
826 827 828 0
-829 -830 0
-829 -831 0
-830 -831 0
829 830 831 0
-593 -832 0
-593 -833 0
-832 -833 0
593 832 833 0
-834 -835 0
-834 -836 0
-835 -836 0
834 835 836 0
-837 -838 0
-837 -839 0
-838 -839 0
837 838 839 0
-840 -841 0
-840 -842 0
-841 -842 0
840 841 842 0
-843 -844 0
-843 -845 0
-844 -845 0
843 844 845 0
-846 -847 0
-846 -848 0
-847 -848 0
846 847 848 0
-849 -850 0
-849 -851 0
-850 -851 0
849 850 851 0
-852 -853 0
-852 -854 0
-853 -854 0
852 853 854 0
-855 -856 0
-855 -857 0
-856 -857 0
855 856 857 0
-858 -859 0
-858 -860 0
-859 -860 0
858 859 860 0
-861 -862 0
-861 -863 0
-862 -863 0
861 862 863 0
-864 -865 0
-864 -866 0
-865 -866 0
864 865 866 0
-867 -868 0
-867 -869 0
-868 -869 0
867 868 869 0
-870 -871 0
-870 -872 0
-871 -872 0
870 871 872 0
-873 -874 0
-873 -875 0
-874 -875 0
873 874 875 0
-834 -876 0
-834 -877 0
-876 -877 0
834 876 877 0
-411 -878 0
-411 -879 0
-878 -879 0
411 878 879 0
-163 -880 0
-163 -881 0
-880 -881 0
163 880 881 0
-142 -882 0
-142 -883 0
-882 -883 0
142 882 883 0
-884 -885 0
-884 -886 0
-885 -886 0
884 885 886 0
-887 -888 0
-887 -889 0
-888 -889 0
887 888 889 0
-558 -890 0
-558 -891 0
-890 -891 0
558 890 891 0
-892 -893 0
-892 -894 0
-893 -894 0
892 893 894 0
-895 -896 0
-895 -897 0
-896 -897 0
895 896 897 0
-443 -898 0
-443 -899 0
-898 -899 0
443 898 899 0
-900 -901 0
-900 -902 0
-901 -902 0
900 901 902 0
-903 -904 0
-903 -905 0
-904 -905 0
903 904 905 0
-906 -907 0
-906 -908 0
-907 -908 0
906 907 908 0
-909 -910 0
-909 -911 0
-910 -911 0
909 910 911 0
-912 -913 0
-912 -914 0
-913 -914 0
912 913 914 0
-915 -916 0
-915 -917 0
-916 -917 0
915 916 917 0
-918 -919 0
-918 -920 0
-919 -920 0
918 919 920 0
-679 -921 0
-679 -922 0
-921 -922 0
679 921 922 0
-923 -924 0
-923 -925 0
-924 -925 0
923 924 925 0
-926 -927 0
-926 -928 0
-927 -928 0
926 927 928 0
-929 -930 0
-929 -931 0
-930 -931 0
929 930 931 0
-932 -933 0
-932 -934 0
-933 -934 0
932 933 934 0
-935 -936 0
-935 -937 0
-936 -937 0
935 936 937 0
-938 -939 0
-938 -940 0
-939 -940 0
938 939 940 0
-941 -942 0
-941 -943 0
-942 -943 0
941 942 943 0
-944 -945 0
-944 -946 0
-945 -946 0
944 945 946 0
-947 -948 0
-947 -949 0
-948 -949 0
947 948 949 0
-950 -951 0
-950 -952 0
-951 -952 0
950 951 952 0
-953 -954 0
-953 -955 0
-954 -955 0
953 954 955 0
-956 -957 0
-956 -958 0
-957 -958 0
956 957 958 0
-959 -960 0
-959 -961 0
-960 -961 0
959 960 961 0
-643 -962 0
-643 -963 0
-962 -963 0
643 962 963 0
-964 -965 0
-964 -966 0
-965 -966 0
964 965 966 0
-967 -968 0
-967 -969 0
-968 -969 0
967 968 969 0
-970 -971 0
-970 -972 0
-971 -972 0
970 971 972 0
-973 -974 0
-973 -975 0
-974 -975 0
973 974 975 0
-976 -977 0
-976 -978 0
-977 -978 0
976 977 978 0
-979 -980 0
-979 -981 0
-980 -981 0
979 980 981 0
-982 -983 0
-982 -984 0
-983 -984 0
982 983 984 0
-985 -986 0
-985 -987 0
-986 -987 0
985 986 987 0
-988 -989 0
-988 -990 0
-989 -990 0
988 989 990 0
-991 -992 0
-991 -993 0
-992 -993 0
991 992 993 0
-994 -995 0
-994 -996 0
-995 -996 0
994 995 996 0
-997 -998 0
-997 -999 0
-998 -999 0
997 998 999 0
-1000 -1001 0
-1000 -1002 0
-1001 -1002 0
1000 1001 1002 0
-1003 -1004 0
-1003 -1005 0
-1004 -1005 0
1003 1004 1005 0
-1006 -1007 0
-1006 -1008 0
-1007 -1008 0
1006 1007 1008 0
-1009 -1010 0
-1009 -1011 0
-1010 -1011 0
1009 1010 1011 0
-1012 -1013 0
-1012 -1014 0
-1013 -1014 0
1012 1013 1014 0
-1015 -1016 0
-1015 -1017 0
-1016 -1017 0
1015 1016 1017 0
-561 -1018 0
-561 -1019 0
-1018 -1019 0
561 1018 1019 0
-1020 -1021 0
-1020 -1022 0
-1021 -1022 0
1020 1021 1022 0
-599 -1023 0
-599 -1024 0
-1023 -1024 0
599 1023 1024 0
-795 -1025 0
-795 -1026 0
-1025 -1026 0
795 1025 1026 0
-720 -1027 0
-720 -1028 0
-1027 -1028 0
720 1027 1028 0
-1029 -1030 0
-1029 -1031 0
-1030 -1031 0
1029 1030 1031 0
-1032 -1033 0
-1032 -1034 0
-1033 -1034 0
1032 1033 1034 0
-1035 -1036 0
-1035 -1037 0
-1036 -1037 0
1035 1036 1037 0
-1038 -1039 0
-1038 -1040 0
-1039 -1040 0
1038 1039 1040 0
-1041 -1042 0
-1041 -1043 0
-1042 -1043 0
1041 1042 1043 0
-1044 -1045 0
-1044 -1046 0
-1045 -1046 0
1044 1045 1046 0
-1047 -1048 0
-1047 -1049 0
-1048 -1049 0
1047 1048 1049 0
-1050 -1051 0
-1050 -1052 0
-1051 -1052 0
1050 1051 1052 0
-870 -1053 0
-870 -1054 0
-1053 -1054 0
870 1053 1054 0
-1055 -1056 0
-1055 -1057 0
-1056 -1057 0
1055 1056 1057 0
-1058 -1059 0
-1058 -1060 0
-1059 -1060 0
1058 1059 1060 0
-622 -1061 0
-622 -1062 0
-1061 -1062 0
622 1061 1062 0
-1063 -1064 0
-1063 -1065 0
-1064 -1065 0
1063 1064 1065 0
-234 -1066 0
-234 -1067 0
-1066 -1067 0
234 1066 1067 0
-1068 -1069 0
-1068 -1070 0
-1069 -1070 0
1068 1069 1070 0
-1071 -1072 0
-1071 -1073 0
-1072 -1073 0
1071 1072 1073 0
-1074 -1075 0
-1074 -1076 0
-1075 -1076 0
1074 1075 1076 0
-1077 -1078 0
-1077 -1079 0
-1078 -1079 0
1077 1078 1079 0
-1080 -1081 0
-1080 -1082 0
-1081 -1082 0
1080 1081 1082 0
-1083 -1084 0
-1083 -1085 0
-1084 -1085 0
1083 1084 1085 0
-1086 -1087 0
-1086 -1088 0
-1087 -1088 0
1086 1087 1088 0
-1089 -1090 0
-1089 -1091 0
-1090 -1091 0
1089 1090 1091 0
-1092 -1093 0
-1092 -1094 0
-1093 -1094 0
1092 1093 1094 0
-1095 -1096 0
-1095 -1097 0
-1096 -1097 0
1095 1096 1097 0
-1098 -1099 0
-1098 -1100 0
-1099 -1100 0
1098 1099 1100 0
-1101 -1102 0
-1101 -1103 0
-1102 -1103 0
1101 1102 1103 0
-189 -1104 0
-189 -1105 0
-1104 -1105 0
189 1104 1105 0
-1106 -1107 0
-1106 -1108 0
-1107 -1108 0
1106 1107 1108 0
-1109 -1110 0
-1109 -1111 0
-1110 -1111 0
1109 1110 1111 0
-1112 -1113 0
-1112 -1114 0
-1113 -1114 0
1112 1113 1114 0
-1115 -1116 0
-1115 -1117 0
-1116 -1117 0
1115 1116 1117 0
-1080 -1118 0
-1080 -1119 0
-1118 -1119 0
1080 1118 1119 0
-1120 -1121 0
-1120 -1122 0
-1121 -1122 0
1120 1121 1122 0
-1123 -1124 0
-1123 -1125 0
-1124 -1125 0
1123 1124 1125 0
-1126 -1127 0
-1126 -1128 0
-1127 -1128 0
1126 1127 1128 0
-1129 -1130 0
-1129 -1131 0
-1130 -1131 0
1129 1130 1131 0
-1132 -1133 0
-1132 -1134 0
-1133 -1134 0
1132 1133 1134 0
-1135 -1136 0
-1135 -1137 0
-1136 -1137 0
1135 1136 1137 0
-1138 -1139 0
-1138 -1140 0
-1139 -1140 0
1138 1139 1140 0
-1141 -1142 0
-1141 -1143 0
-1142 -1143 0
1141 1142 1143 0
-1144 -1145 0
-1144 -1146 0
-1145 -1146 0
1144 1145 1146 0
-1147 -1148 0
-1147 -1149 0
-1148 -1149 0
1147 1148 1149 0
-1150 -1151 0
-1150 -1152 0
-1151 -1152 0
1150 1151 1152 0
-1153 -1154 0
-1153 -1155 0
-1154 -1155 0
1153 1154 1155 0
-62 -109 0
-62 -1156 0
-109 -1156 0
62 109 1156 0
-1157 -1158 0
-1157 -1159 0
-1158 -1159 0
1157 1158 1159 0
-1160 -1161 0
-1160 -1162 0
-1161 -1162 0
1160 1161 1162 0
-1163 -1164 0
-1163 -1165 0
-1164 -1165 0
1163 1164 1165 0
-1166 -1167 0
-1166 -1168 0
-1167 -1168 0
1166 1167 1168 0
-1169 -1170 0
-1169 -1171 0
-1170 -1171 0
1169 1170 1171 0
-1172 -1173 0
-1172 -1174 0
-1173 -1174 0
1172 1173 1174 0
-1175 -1176 0
-1175 -1177 0
-1176 -1177 0
1175 1176 1177 0
-1178 -1179 0
-1178 -1180 0
-1179 -1180 0
1178 1179 1180 0
-1181 -1182 0
-1181 -1183 0
-1182 -1183 0
1181 1182 1183 0
-1184 -1185 0
-1184 -1186 0
-1185 -1186 0
1184 1185 1186 0
-1187 -1188 0
-1187 -1189 0
-1188 -1189 0
1187 1188 1189 0
-1190 -1191 0
-1190 -1192 0
-1191 -1192 0
1190 1191 1192 0
-1193 -1194 0
-1193 -1195 0
-1194 -1195 0
1193 1194 1195 0
-1196 -1197 0
-1196 -1198 0
-1197 -1198 0
1196 1197 1198 0
-1199 -1200 0
-1199 -1201 0
-1200 -1201 0
1199 1200 1201 0
-1202 -1203 0
-1202 -1204 0
-1203 -1204 0
1202 1203 1204 0
-1205 -1206 0
-1205 -1207 0
-1206 -1207 0
1205 1206 1207 0
-1208 -1209 0
-1208 -1210 0
-1209 -1210 0
1208 1209 1210 0
-1211 -1212 0
-1211 -1213 0
-1212 -1213 0
1211 1212 1213 0
-1214 -1215 0
-1214 -1216 0
-1215 -1216 0
1214 1215 1216 0
-1217 -1218 0
-1217 -1219 0
-1218 -1219 0
1217 1218 1219 0
-333 -1220 0
-333 -1221 0
-1220 -1221 0
333 1220 1221 0
-1118 -1222 0
-1118 -1223 0
-1222 -1223 0
1118 1222 1223 0
-1224 -1225 0
-1224 -1226 0
-1225 -1226 0
1224 1225 1226 0
-1227 -1228 0
-1227 -1229 0
-1228 -1229 0
1227 1228 1229 0
-1230 -1231 0
-1230 -1232 0
-1231 -1232 0
1230 1231 1232 0
-1233 -1234 0
-1233 -1235 0
-1234 -1235 0
1233 1234 1235 0
-1236 -1237 0
-1236 -1238 0
-1237 -1238 0
1236 1237 1238 0
-1239 -1240 0
-1239 -1241 0
-1240 -1241 0
1239 1240 1241 0
-1242 -1243 0
-1242 -1244 0
-1243 -1244 0
1242 1243 1244 0
-1245 -1246 0
-1245 -1247 0
-1246 -1247 0
1245 1246 1247 0
-661 -1248 0
-661 -1249 0
-1248 -1249 0
661 1248 1249 0
-1250 -1251 0
-1250 -1252 0
-1251 -1252 0
1250 1251 1252 0
-1253 -1254 0
-1253 -1255 0
-1254 -1255 0
1253 1254 1255 0
-1256 -1257 0
-1256 -1258 0
-1257 -1258 0
1256 1257 1258 0
-154 -1259 0
-154 -1260 0
-1259 -1260 0
154 1259 1260 0
-1261 -1262 0
-1261 -1263 0
-1262 -1263 0
1261 1262 1263 0
-1264 -1265 0
-1264 -1266 0
-1265 -1266 0
1264 1265 1266 0
-1267 -1268 0
-1267 -1269 0
-1268 -1269 0
1267 1268 1269 0
-1270 -1271 0
-1270 -1272 0
-1271 -1272 0
1270 1271 1272 0
-1273 -1274 0
-1273 -1275 0
-1274 -1275 0
1273 1274 1275 0
-1276 -1277 0
-1276 -1278 0
-1277 -1278 0
1276 1277 1278 0
-1279 -1280 0
-1279 -1281 0
-1280 -1281 0
1279 1280 1281 0
-1282 -1283 0
-1282 -1284 0
-1283 -1284 0
1282 1283 1284 0
-1285 -1286 0
-1285 -1287 0
-1286 -1287 0
1285 1286 1287 0
-1288 -1289 0
-1288 -1290 0
-1289 -1290 0
1288 1289 1290 0
-1291 -1292 0
-1291 -1293 0
-1292 -1293 0
1291 1292 1293 0
-1294 -1295 0
-1294 -1296 0
-1295 -1296 0
1294 1295 1296 0
-1297 -1298 0
-1297 -1299 0
-1298 -1299 0
1297 1298 1299 0
-476 -1300 0
-476 -1301 0
-1300 -1301 0
476 1300 1301 0
-1302 -1303 0
-1302 -1304 0
-1303 -1304 0
1302 1303 1304 0
-1305 -1306 0
-1305 -1307 0
-1306 -1307 0
1305 1306 1307 0
-1308 -1309 0
-1308 -1310 0
-1309 -1310 0
1308 1309 1310 0
-1311 -1312 0
-1311 -1313 0
-1312 -1313 0
1311 1312 1313 0
-1314 -1315 0
-1314 -1316 0
-1315 -1316 0
1314 1315 1316 0
-1317 -1318 0
-1317 -1319 0
-1318 -1319 0
1317 1318 1319 0
-1320 -1321 0
-1320 -1322 0
-1321 -1322 0
1320 1321 1322 0
-1323 -1324 0
-1323 -1325 0
-1324 -1325 0
1323 1324 1325 0
-1326 -1327 0
-1326 -1328 0
-1327 -1328 0
1326 1327 1328 0
-1329 -1330 0
-1329 -1331 0
-1330 -1331 0
1329 1330 1331 0
-1332 -1333 0
-1332 -1334 0
-1333 -1334 0
1332 1333 1334 0
-1335 -1336 0
-1335 -1337 0
-1336 -1337 0
1335 1336 1337 0
-1338 -1339 0
-1338 -1340 0
-1339 -1340 0
1338 1339 1340 0
-1341 -1342 0
-1341 -1343 0
-1342 -1343 0
1341 1342 1343 0
-1344 -1345 0
-1344 -1346 0
-1345 -1346 0
1344 1345 1346 0
-1347 -1348 0
-1347 -1349 0
-1348 -1349 0
1347 1348 1349 0
-1350 -1351 0
-1350 -1352 0
-1351 -1352 0
1350 1351 1352 0
-1353 -1354 0
-1353 -1355 0
-1354 -1355 0
1353 1354 1355 0
-1356 -1357 0
-1356 -1358 0
-1357 -1358 0
1356 1357 1358 0
-1359 -1360 0
-1359 -1361 0
-1360 -1361 0
1359 1360 1361 0
-1233 -1362 0
-1233 -1363 0
-1362 -1363 0
1233 1362 1363 0
-1364 -1365 0
-1364 -1366 0
-1365 -1366 0
1364 1365 1366 0
-1367 -1368 0
-1367 -1369 0
-1368 -1369 0
1367 1368 1369 0
-1370 -1371 0
-1370 -1372 0
-1371 -1372 0
1370 1371 1372 0
-49 -1373 0
-49 -1374 0
-1373 -1374 0
49 1373 1374 0
-1311 -1375 0
-1311 -1376 0
-1375 -1376 0
1311 1375 1376 0
-1377 -1378 0
-1377 -1379 0
-1378 -1379 0
1377 1378 1379 0
-1129 -1380 0
-1129 -1381 0
-1380 -1381 0
1129 1380 1381 0
-1382 -1383 0
-1382 -1384 0
-1383 -1384 0
1382 1383 1384 0
-1385 -1386 0
-1385 -1387 0
-1386 -1387 0
1385 1386 1387 0
-1388 -1389 0
-1388 -1390 0
-1389 -1390 0
1388 1389 1390 0
-1391 -1392 0
-1391 -1393 0
-1392 -1393 0
1391 1392 1393 0
-1394 -1395 0
-1394 -1396 0
-1395 -1396 0
1394 1395 1396 0
-1397 -1398 0
-1397 -1399 0
-1398 -1399 0
1397 1398 1399 0
-1400 -1401 0
-1400 -1402 0
-1401 -1402 0
1400 1401 1402 0
-1403 -1404 0
-1403 -1405 0
-1404 -1405 0
1403 1404 1405 0
-1406 -1407 0
-1406 -1408 0
-1407 -1408 0
1406 1407 1408 0
-1409 -1410 0
-1409 -1411 0
-1410 -1411 0
1409 1410 1411 0
-511 -1412 0
-511 -1413 0
-1412 -1413 0
511 1412 1413 0
-178 -1414 0
-178 -1415 0
-1414 -1415 0
178 1414 1415 0
-1416 -1417 0
-1416 -1418 0
-1417 -1418 0
1416 1417 1418 0
-1419 -1420 0
-1419 -1421 0
-1420 -1421 0
1419 1420 1421 0
-1422 -1423 0
-1422 -1424 0
-1423 -1424 0
1422 1423 1424 0
-1425 -1426 0
-1425 -1427 0
-1426 -1427 0
1425 1426 1427 0
-1428 -1429 0
-1428 -1430 0
-1429 -1430 0
1428 1429 1430 0
-1431 -1432 0
-1431 -1433 0
-1432 -1433 0
1431 1432 1433 0
-304 -1434 0
-304 -1435 0
-1434 -1435 0
304 1434 1435 0
-1436 -1437 0
-1436 -1438 0
-1437 -1438 0
1436 1437 1438 0
-1439 -1440 0
-1439 -1441 0
-1440 -1441 0
1439 1440 1441 0
-1442 -1443 0
-1442 -1444 0
-1443 -1444 0
1442 1443 1444 0
-1445 -1446 0
-1445 -1447 0
-1446 -1447 0
1445 1446 1447 0
-1448 -1449 0
-1448 -1450 0
-1449 -1450 0
1448 1449 1450 0
-1451 -1452 0
-1451 -1453 0
-1452 -1453 0
1451 1452 1453 0
-1454 -1455 0
-1454 -1456 0
-1455 -1456 0
1454 1455 1456 0
-1457 -1458 0
-1457 -1459 0
-1458 -1459 0
1457 1458 1459 0
-1460 -1461 0
-1460 -1462 0
-1461 -1462 0
1460 1461 1462 0
-1066 -1463 0
-1066 -1464 0
-1463 -1464 0
1066 1463 1464 0
-1465 -1466 0
-1465 -1467 0
-1466 -1467 0
1465 1466 1467 0
-1468 -1469 0
-1468 -1470 0
-1469 -1470 0
1468 1469 1470 0
-1471 -1472 0
-1471 -1473 0
-1472 -1473 0
1471 1472 1473 0
-1474 -1475 0
-1474 -1476 0
-1475 -1476 0
1474 1475 1476 0
-1477 -1478 0
-1477 -1479 0
-1478 -1479 0
1477 1478 1479 0
-1480 -1481 0
-1480 -1482 0
-1481 -1482 0
1480 1481 1482 0
-1483 -1484 0
-1483 -1485 0
-1484 -1485 0
1483 1484 1485 0
-1175 -1486 0
-1175 -1487 0
-1486 -1487 0
1175 1486 1487 0
-1488 -1489 0
-1488 -1490 0
-1489 -1490 0
1488 1489 1490 0
-1491 -1492 0
-1491 -1493 0
-1492 -1493 0
1491 1492 1493 0
-1494 -1495 0
-1494 -1496 0
-1495 -1496 0
1494 1495 1496 0
-1497 -1498 0
-1497 -1499 0
-1498 -1499 0
1497 1498 1499 0
-1500 -1501 0
-1500 -1502 0
-1501 -1502 0
1500 1501 1502 0
-1503 -1504 0
-1503 -1505 0
-1504 -1505 0
1503 1504 1505 0
-1506 -1507 0
-1506 -1508 0
-1507 -1508 0
1506 1507 1508 0
-1509 -1510 0
-1509 -1511 0
-1510 -1511 0
1509 1510 1511 0
-709 -1512 0
-709 -1513 0
-1512 -1513 0
709 1512 1513 0
-1514 -1515 0
-1514 -1516 0
-1515 -1516 0
1514 1515 1516 0
-1517 -1518 0
-1517 -1519 0
-1518 -1519 0
1517 1518 1519 0
-1520 -1521 0
-1520 -1522 0
-1521 -1522 0
1520 1521 1522 0
-1523 -1524 0
-1523 -1525 0
-1524 -1525 0
1523 1524 1525 0
-1526 -1527 0
-1526 -1528 0
-1527 -1528 0
1526 1527 1528 0
-1529 -1530 0
-1529 -1531 0
-1530 -1531 0
1529 1530 1531 0
-1532 -1533 0
-1532 -1534 0
-1533 -1534 0
1532 1533 1534 0
-1535 -1536 0
-1535 -1537 0
-1536 -1537 0
1535 1536 1537 0
-1538 -1539 0
-1538 -1540 0
-1539 -1540 0
1538 1539 1540 0
-1541 -1542 0
-1541 -1543 0
-1542 -1543 0
1541 1542 1543 0
-1544 -1545 0
-1544 -1546 0
-1545 -1546 0
1544 1545 1546 0
-1279 -1547 0
-1279 -1548 0
-1547 -1548 0
1279 1547 1548 0
-1549 -1550 0
-1549 -1551 0
-1550 -1551 0
1549 1550 1551 0
-1552 -1553 0
-1552 -1554 0
-1553 -1554 0
1552 1553 1554 0
-1555 -1556 0
-1555 -1557 0
-1556 -1557 0
1555 1556 1557 0
-1558 -1559 0
-1558 -1560 0
-1559 -1560 0
1558 1559 1560 0
-1561 -1562 0
-1561 -1563 0
-1562 -1563 0
1561 1562 1563 0
-1564 -1565 0
-1564 -1566 0
-1565 -1566 0
1564 1565 1566 0
-1567 -1568 0
-1567 -1569 0
-1568 -1569 0
1567 1568 1569 0
-1570 -1571 0
-1570 -1572 0
-1571 -1572 0
1570 1571 1572 0
-1573 -1574 0
-1573 -1575 0
-1574 -1575 0
1573 1574 1575 0
-1576 -1577 0
-1576 -1578 0
-1577 -1578 0
1576 1577 1578 0
-1579 -1580 0
-1579 -1581 0
-1580 -1581 0
1579 1580 1581 0
-1419 -1582 0
-1419 -1583 0
-1582 -1583 0
1419 1582 1583 0
-1584 -1585 0
-1584 -1586 0
-1585 -1586 0
1584 1585 1586 0
-1587 -1588 0
-1587 -1589 0
-1588 -1589 0
1587 1588 1589 0
-1590 -1591 0
-1590 -1592 0
-1591 -1592 0
1590 1591 1592 0
-1593 -1594 0
-1593 -1595 0
-1594 -1595 0
1593 1594 1595 0
-1596 -1597 0
-1596 -1598 0
-1597 -1598 0
1596 1597 1598 0
-1599 -1600 0
-1599 -1601 0
-1600 -1601 0
1599 1600 1601 0
-1602 -1603 0
-1602 -1604 0
-1603 -1604 0
1602 1603 1604 0
-1605 -1606 0
-1605 -1607 0
-1606 -1607 0
1605 1606 1607 0
-820 -1608 0
-820 -1609 0
-1608 -1609 0
820 1608 1609 0
-1610 -1611 0
-1610 -1612 0
-1611 -1612 0
1610 1611 1612 0
-1613 -1614 0
-1613 -1615 0
-1614 -1615 0
1613 1614 1615 0
-1616 -1617 0
-1616 -1618 0
-1617 -1618 0
1616 1617 1618 0
-1619 -1620 0
-1619 -1621 0
-1620 -1621 0
1619 1620 1621 0
-994 -1622 0
-994 -1623 0
-1622 -1623 0
994 1622 1623 0
-1624 -1625 0
-1624 -1626 0
-1625 -1626 0
1624 1625 1626 0
-13 -1627 0
-13 -1628 0
-1627 -1628 0
13 1627 1628 0
-1629 -1630 0
-1629 -1631 0
-1630 -1631 0
1629 1630 1631 0
-1529 -1632 0
-1529 -1633 0
-1632 -1633 0
1529 1632 1633 0
-1634 -1635 0
-1634 -1636 0
-1635 -1636 0
1634 1635 1636 0
-1637 -1638 0
-1637 -1639 0
-1638 -1639 0
1637 1638 1639 0
-1640 -1641 0
-1640 -1642 0
-1641 -1642 0
1640 1641 1642 0
-1643 -1644 0
-1643 -1645 0
-1644 -1645 0
1643 1644 1645 0
-1646 -1647 0
-1646 -1648 0
-1647 -1648 0
1646 1647 1648 0
-1649 -1650 0
-1649 -1651 0
-1650 -1651 0
1649 1650 1651 0
-1652 -1653 0
-1652 -1654 0
-1653 -1654 0
1652 1653 1654 0
-572 -1655 0
-572 -1656 0
-1655 -1656 0
572 1655 1656 0
-1657 -1658 0
-1657 -1659 0
-1658 -1659 0
1657 1658 1659 0
-973 -1660 0
-973 -1661 0
-1660 -1661 0
973 1660 1661 0
-204 -1662 0
-204 -1663 0
-1662 -1663 0
204 1662 1663 0
-1081 -1664 0
-1081 -1665 0
-1664 -1665 0
1081 1664 1665 0
-1666 -1667 0
-1666 -1668 0
-1667 -1668 0
1666 1667 1668 0
-112 -1669 0
-112 -1670 0
-1669 -1670 0
112 1669 1670 0
-1671 -1672 0
-1671 -1673 0
-1672 -1673 0
1671 1672 1673 0
-1674 -1675 0
-1674 -1676 0
-1675 -1676 0
1674 1675 1676 0
-1677 -1678 0
-1677 -1679 0
-1678 -1679 0
1677 1678 1679 0
-1680 -1681 0
-1680 -1682 0
-1681 -1682 0
1680 1681 1682 0
-1683 -1684 0
-1683 -1685 0
-1684 -1685 0
1683 1684 1685 0
-1686 -1687 0
-1686 -1688 0
-1687 -1688 0
1686 1687 1688 0
-1689 -1690 0
-1689 -1691 0
-1690 -1691 0
1689 1690 1691 0
-1692 -1693 0
-1692 -1694 0
-1693 -1694 0
1692 1693 1694 0
-1695 -1696 0
-1695 -1697 0
-1696 -1697 0
1695 1696 1697 0
-549 -1698 0
-549 -1699 0
-1698 -1699 0
549 1698 1699 0
-1700 -1701 0
-1700 -1702 0
-1701 -1702 0
1700 1701 1702 0
-1703 -1704 0
-1703 -1705 0
-1704 -1705 0
1703 1704 1705 0
-1706 -1707 0
-1706 -1708 0
-1707 -1708 0
1706 1707 1708 0
-1709 -1710 0
-1709 -1711 0
-1710 -1711 0
1709 1710 1711 0
-1712 -1713 0
-1712 -1714 0
-1713 -1714 0
1712 1713 1714 0
-1715 -1716 0
-1715 -1717 0
-1716 -1717 0
1715 1716 1717 0
-1718 -1719 0
-1718 -1720 0
-1719 -1720 0
1718 1719 1720 0
-1721 -1722 0
-1721 -1723 0
-1722 -1723 0
1721 1722 1723 0
-1724 -1725 0
-1724 -1726 0
-1725 -1726 0
1724 1725 1726 0
-1727 -1728 0
-1727 -1729 0
-1728 -1729 0
1727 1728 1729 0
-1730 -1731 0
-1730 -1732 0
-1731 -1732 0
1730 1731 1732 0
-1733 -1734 0
-1733 -1735 0
-1734 -1735 0
1733 1734 1735 0
-1736 -1737 0
-1736 -1738 0
-1737 -1738 0
1736 1737 1738 0
-1739 -1740 0
-1739 -1741 0
-1740 -1741 0
1739 1740 1741 0
-1742 -1743 0
-1742 -1744 0
-1743 -1744 0
1742 1743 1744 0
-1745 -1746 0
-1745 -1747 0
-1746 -1747 0
1745 1746 1747 0
-1748 -1749 0
-1748 -1750 0
-1749 -1750 0
1748 1749 1750 0
-1751 -1752 0
-1751 -1753 0
-1752 -1753 0
1751 1752 1753 0
-277 -1754 0
-277 -1755 0
-1754 -1755 0
277 1754 1755 0
-1756 -1757 0
-1756 -1758 0
-1757 -1758 0
1756 1757 1758 0
-1759 -1760 0
-1759 -1761 0
-1760 -1761 0
1759 1760 1761 0
-1762 -1763 0
-1762 -1764 0
-1763 -1764 0
1762 1763 1764 0
-1765 -1766 0
-1765 -1767 0
-1766 -1767 0
1765 1766 1767 0
-1768 -1769 0
-1768 -1770 0
-1769 -1770 0
1768 1769 1770 0
-1771 -1772 0
-1771 -1773 0
-1772 -1773 0
1771 1772 1773 0
-1774 -1775 0
-1774 -1776 0
-1775 -1776 0
1774 1775 1776 0
-1147 -1777 0
-1147 -1778 0
-1777 -1778 0
1147 1777 1778 0
-1779 -1780 0
-1779 -1781 0
-1780 -1781 0
1779 1780 1781 0
-1782 -1783 0
-1782 -1784 0
-1783 -1784 0
1782 1783 1784 0
-1785 -1786 0
-1785 -1787 0
-1786 -1787 0
1785 1786 1787 0
-1788 -1789 0
-1788 -1790 0
-1789 -1790 0
1788 1789 1790 0
-1791 -1792 0
-1791 -1793 0
-1792 -1793 0
1791 1792 1793 0
-1794 -1795 0
-1794 -1796 0
-1795 -1796 0
1794 1795 1796 0
-1797 -1798 0
-1797 -1799 0
-1798 -1799 0
1797 1798 1799 0
-1800 -1801 0
-1800 -1802 0
-1801 -1802 0
1800 1801 1802 0
-1803 -1804 0
-1803 -1805 0
-1804 -1805 0
1803 1804 1805 0
-1806 -1807 0
-1806 -1808 0
-1807 -1808 0
1806 1807 1808 0
-1809 -1810 0
-1809 -1811 0
-1810 -1811 0
1809 1810 1811 0
-1812 -1813 0
-1812 -1814 0
-1813 -1814 0
1812 1813 1814 0
-1157 -1815 0
-1157 -1816 0
-1815 -1816 0
1157 1815 1816 0
-1817 -1818 0
-1817 -1819 0
-1818 -1819 0
1817 1818 1819 0
-1820 -1821 0
-1820 -1822 0
-1821 -1822 0
1820 1821 1822 0
-1823 -1824 0
-1823 -1825 0
-1824 -1825 0
1823 1824 1825 0
-106 -1826 0
-106 -1827 0
-1826 -1827 0
106 1826 1827 0
-1828 -1829 0
-1828 -1830 0
-1829 -1830 0
1828 1829 1830 0
-1831 -1832 0
-1831 -1833 0
-1832 -1833 0
1831 1832 1833 0
-1834 -1835 0
-1834 -1836 0
-1835 -1836 0
1834 1835 1836 0
-1837 -1838 0
-1837 -1839 0
-1838 -1839 0
1837 1838 1839 0
-1840 -1841 0
-1840 -1842 0
-1841 -1842 0
1840 1841 1842 0
-1843 -1844 0
-1843 -1845 0
-1844 -1845 0
1843 1844 1845 0
-1846 -1847 0
-1846 -1848 0
-1847 -1848 0
1846 1847 1848 0
-1849 -1850 0
-1849 -1851 0
-1850 -1851 0
1849 1850 1851 0
-1852 -1853 0
-1852 -1854 0
-1853 -1854 0
1852 1853 1854 0
-1855 -1856 0
-1855 -1857 0
-1856 -1857 0
1855 1856 1857 0
-1858 -1859 0
-1858 -1860 0
-1859 -1860 0
1858 1859 1860 0
-581 -1861 0
-581 -1862 0
-1861 -1862 0
581 1861 1862 0
-1863 -1864 0
-1863 -1865 0
-1864 -1865 0
1863 1864 1865 0
-1866 -1867 0
-1866 -1868 0
-1867 -1868 0
1866 1867 1868 0
-1869 -1870 0
-1869 -1871 0
-1870 -1871 0
1869 1870 1871 0
-1872 -1873 0
-1872 -1874 0
-1873 -1874 0
1872 1873 1874 0
-1875 -1876 0
-1875 -1877 0
-1876 -1877 0
1875 1876 1877 0
-1878 -1879 0
-1878 -1880 0
-1879 -1880 0
1878 1879 1880 0
-1881 -1882 0
-1881 -1883 0
-1882 -1883 0
1881 1882 1883 0
-1884 -1885 0
-1884 -1886 0
-1885 -1886 0
1884 1885 1886 0
-1887 -1888 0
-1887 -1889 0
-1888 -1889 0
1887 1888 1889 0
-1890 -1891 0
-1890 -1892 0
-1891 -1892 0
1890 1891 1892 0
-1893 -1894 0
-1893 -1895 0
-1894 -1895 0
1893 1894 1895 0
-1896 -1897 0
-1896 -1898 0
-1897 -1898 0
1896 1897 1898 0
-1899 -1900 0
-1899 -1901 0
-1900 -1901 0
1899 1900 1901 0
-1902 -1903 0
-1902 -1904 0
-1903 -1904 0
1902 1903 1904 0
-1905 -1906 0
-1905 -1907 0
-1906 -1907 0
1905 1906 1907 0
-1908 -1909 0
-1908 -1910 0
-1909 -1910 0
1908 1909 1910 0
-1911 -1912 0
-1911 -1913 0
-1912 -1913 0
1911 1912 1913 0
-375 -1914 0
-375 -1915 0
-1914 -1915 0
375 1914 1915 0
-1916 -1917 0
-1916 -1918 0
-1917 -1918 0
1916 1917 1918 0
-1919 -1920 0
-1919 -1921 0
-1920 -1921 0
1919 1920 1921 0
-1922 -1923 0
-1922 -1924 0
-1923 -1924 0
1922 1923 1924 0
-1925 -1926 0
-1925 -1927 0
-1926 -1927 0
1925 1926 1927 0
-1928 -1929 0
-1928 -1930 0
-1929 -1930 0
1928 1929 1930 0
-1931 -1932 0
-1931 -1933 0
-1932 -1933 0
1931 1932 1933 0
-1934 -1935 0
-1934 -1936 0
-1935 -1936 0
1934 1935 1936 0
-1937 -1938 0
-1937 -1939 0
-1938 -1939 0
1937 1938 1939 0
-1940 -1941 0
-1940 -1942 0
-1941 -1942 0
1940 1941 1942 0
-1943 -1944 0
-1943 -1945 0
-1944 -1945 0
1943 1944 1945 0
-1946 -1947 0
-1946 -1948 0
-1947 -1948 0
1946 1947 1948 0
-1751 -1949 0
-1751 -1950 0
-1949 -1950 0
1751 1949 1950 0
-1951 -1952 0
-1951 -1953 0
-1952 -1953 0
1951 1952 1953 0
-1954 -1955 0
-1954 -1956 0
-1955 -1956 0
1954 1955 1956 0
-1957 -1958 0
-1957 -1959 0
-1958 -1959 0
1957 1958 1959 0
-1960 -1961 0
-1960 -1962 0
-1961 -1962 0
1960 1961 1962 0
-1963 -1964 0
-1963 -1965 0
-1964 -1965 0
1963 1964 1965 0
-1966 -1967 0
-1966 -1968 0
-1967 -1968 0
1966 1967 1968 0
-1969 -1970 0
-1969 -1971 0
-1970 -1971 0
1969 1970 1971 0
-1972 -1973 0
-1972 -1974 0
-1973 -1974 0
1972 1973 1974 0
-1975 -1976 0
-1975 -1977 0
-1976 -1977 0
1975 1976 1977 0
-1978 -1979 0
-1978 -1980 0
-1979 -1980 0
1978 1979 1980 0
-1981 -1982 0
-1981 -1983 0
-1982 -1983 0
1981 1982 1983 0
-1984 -1985 0
-1984 -1986 0
-1985 -1986 0
1984 1985 1986 0
-1987 -1988 0
-1987 -1989 0
-1988 -1989 0
1987 1988 1989 0
-1990 -1991 0
-1990 -1992 0
-1991 -1992 0
1990 1991 1992 0
-1993 -1994 0
-1993 -1995 0
-1994 -1995 0
1993 1994 1995 0
-623 -1996 0
-623 -1997 0
-1996 -1997 0
623 1996 1997 0
-1998 -1999 0
-1998 -2000 0
-1999 -2000 0
1998 1999 2000 0
-2001 -2002 0
-2001 -2003 0
-2002 -2003 0
2001 2002 2003 0
-2004 -2005 0
-2004 -2006 0
-2005 -2006 0
2004 2005 2006 0
-2007 -2008 0
-2007 -2009 0
-2008 -2009 0
2007 2008 2009 0
-2010 -2011 0
-2010 -2012 0
-2011 -2012 0
2010 2011 2012 0
-2013 -2014 0
-2013 -2015 0
-2014 -2015 0
2013 2014 2015 0
-2016 -2017 0
-2016 -2018 0
-2017 -2018 0
2016 2017 2018 0
-2019 -2020 0
-2019 -2021 0
-2020 -2021 0
2019 2020 2021 0
-2022 -2023 0
-2022 -2024 0
-2023 -2024 0
2022 2023 2024 0
-2025 -2026 0
-2025 -2027 0
-2026 -2027 0
2025 2026 2027 0
-2028 -2029 0
-2028 -2030 0
-2029 -2030 0
2028 2029 2030 0
-1634 -2031 0
-1634 -2032 0
-2031 -2032 0
1634 2031 2032 0
-2033 -2034 0
-2033 -2035 0
-2034 -2035 0
2033 2034 2035 0
-2036 -2037 0
-2036 -2038 0
-2037 -2038 0
2036 2037 2038 0
-2039 -2040 0
-2039 -2041 0
-2040 -2041 0
2039 2040 2041 0
-1834 -2042 0
-1834 -2043 0
-2042 -2043 0
1834 2042 2043 0
-2044 -2045 0
-2044 -2046 0
-2045 -2046 0
2044 2045 2046 0
-2047 -2048 0
-2047 -2049 0
-2048 -2049 0
2047 2048 2049 0
-2050 -2051 0
-2050 -2052 0
-2051 -2052 0
2050 2051 2052 0
-2053 -2054 0
-2053 -2055 0
-2054 -2055 0
2053 2054 2055 0
-2056 -2057 0
-2056 -2058 0
-2057 -2058 0
2056 2057 2058 0
-2059 -2060 0
-2059 -2061 0
-2060 -2061 0
2059 2060 2061 0
-2062 -2063 0
-2062 -2064 0
-2063 -2064 0
2062 2063 2064 0
-2065 -2066 0
-2065 -2067 0
-2066 -2067 0
2065 2066 2067 0
-2068 -2069 0
-2068 -2070 0
-2069 -2070 0
2068 2069 2070 0
-2071 -2072 0
-2071 -2073 0
-2072 -2073 0
2071 2072 2073 0
-906 -2074 0
-906 -2075 0
-2074 -2075 0
906 2074 2075 0
-2076 -2077 0
-2076 -2078 0
-2077 -2078 0
2076 2077 2078 0
-2079 -2080 0
-2079 -2081 0
-2080 -2081 0
2079 2080 2081 0
-2082 -2083 0
-2082 -2084 0
-2083 -2084 0
2082 2083 2084 0
-2085 -2086 0
-2085 -2087 0
-2086 -2087 0
2085 2086 2087 0
-2088 -2089 0
-2088 -2090 0
-2089 -2090 0
2088 2089 2090 0
-2091 -2092 0
-2091 -2093 0
-2092 -2093 0
2091 2092 2093 0
-2094 -2095 0
-2094 -2096 0
-2095 -2096 0
2094 2095 2096 0
-2097 -2098 0
-2097 -2099 0
-2098 -2099 0
2097 2098 2099 0
-1025 -2100 0
-1025 -2101 0
-2100 -2101 0
1025 2100 2101 0
-2102 -2103 0
-2102 -2104 0
-2103 -2104 0
2102 2103 2104 0
-2105 -2106 0
-2105 -2107 0
-2106 -2107 0
2105 2106 2107 0
-2108 -2109 0
-2108 -2110 0
-2109 -2110 0
2108 2109 2110 0
-2111 -2112 0
-2111 -2113 0
-2112 -2113 0
2111 2112 2113 0
-2114 -2115 0
-2114 -2116 0
-2115 -2116 0
2114 2115 2116 0
-2117 -2118 0
-2117 -2119 0
-2118 -2119 0
2117 2118 2119 0
-2120 -2121 0
-2120 -2122 0
-2121 -2122 0
2120 2121 2122 0
-2123 -2124 0
-2123 -2125 0
-2124 -2125 0
2123 2124 2125 0
-2126 -2127 0
-2126 -2128 0
-2127 -2128 0
2126 2127 2128 0
-2129 -2130 0
-2129 -2131 0
-2130 -2131 0
2129 2130 2131 0
-1823 -2132 0
-1823 -2133 0
-2132 -2133 0
1823 2132 2133 0
-2134 -2135 0
-2134 -2136 0
-2135 -2136 0
2134 2135 2136 0
-2137 -2138 0
-2137 -2139 0
-2138 -2139 0
2137 2138 2139 0
-2140 -2141 0
-2140 -2142 0
-2141 -2142 0
2140 2141 2142 0
-2143 -2144 0
-2143 -2145 0
-2144 -2145 0
2143 2144 2145 0
-2146 -2147 0
-2146 -2148 0
-2147 -2148 0
2146 2147 2148 0
-2149 -2150 0
-2149 -2151 0
-2150 -2151 0
2149 2150 2151 0
-2152 -2153 0
-2152 -2154 0
-2153 -2154 0
2152 2153 2154 0
-2155 -2156 0
-2155 -2157 0
-2156 -2157 0
2155 2156 2157 0
-298 -2158 0
-298 -2159 0
-2158 -2159 0
298 2158 2159 0
-2160 -2161 0
-2160 -2162 0
-2161 -2162 0
2160 2161 2162 0
-2163 -2164 0
-2163 -2165 0
-2164 -2165 0
2163 2164 2165 0
-2166 -2167 0
-2166 -2168 0
-2167 -2168 0
2166 2167 2168 0
-2169 -2170 0
-2169 -2171 0
-2170 -2171 0
2169 2170 2171 0
-321 -2172 0
-321 -2173 0
-2172 -2173 0
321 2172 2173 0
-649 -2174 0
-649 -2175 0
-2174 -2175 0
649 2174 2175 0
-2176 -2177 0
-2176 -2178 0
-2177 -2178 0
2176 2177 2178 0
-2179 -2180 0
-2179 -2181 0
-2180 -2181 0
2179 2180 2181 0
-2182 -2183 0
-2182 -2184 0
-2183 -2184 0
2182 2183 2184 0
-2185 -2186 0
-2185 -2187 0
-2186 -2187 0
2185 2186 2187 0
-2188 -2189 0
-2188 -2190 0
-2189 -2190 0
2188 2189 2190 0
-1027 -2191 0
-1027 -2192 0
-2191 -2192 0
1027 2191 2192 0
-2193 -2194 0
-2193 -2195 0
-2194 -2195 0
2193 2194 2195 0
-2196 -2197 0
-2196 -2198 0
-2197 -2198 0
2196 2197 2198 0
-2199 -2200 0
-2199 -2201 0
-2200 -2201 0
2199 2200 2201 0
-882 -2202 0
-882 -2203 0
-2202 -2203 0
882 2202 2203 0
-2001 -2204 0
-2001 -2205 0
-2204 -2205 0
2001 2204 2205 0
-2206 -2207 0
-2206 -2208 0
-2207 -2208 0
2206 2207 2208 0
-2209 -2210 0
-2209 -2211 0
-2210 -2211 0
2209 2210 2211 0
-210 -2212 0
-210 -2213 0
-2212 -2213 0
210 2212 2213 0
-2214 -2215 0
-2214 -2216 0
-2215 -2216 0
2214 2215 2216 0
-2217 -2218 0
-2217 -2219 0
-2218 -2219 0
2217 2218 2219 0
-11 -2220 0
-11 -2221 0
-2220 -2221 0
11 2220 2221 0
-2222 -2223 0
-2222 -2224 0
-2223 -2224 0
2222 2223 2224 0
-2225 -2226 0
-2225 -2227 0
-2226 -2227 0
2225 2226 2227 0
-2228 -2229 0
-2228 -2230 0
-2229 -2230 0
2228 2229 2230 0
-2231 -2232 0
-2231 -2233 0
-2232 -2233 0
2231 2232 2233 0
-2234 -2235 0
-2234 -2236 0
-2235 -2236 0
2234 2235 2236 0
-508 -2237 0
-508 -2238 0
-2237 -2238 0
508 2237 2238 0
-2239 -2240 0
-2239 -2241 0
-2240 -2241 0
2239 2240 2241 0
-2242 -2243 0
-2242 -2244 0
-2243 -2244 0
2242 2243 2244 0
-2245 -2246 0
-2245 -2247 0
-2246 -2247 0
2245 2246 2247 0
-578 -2248 0
-578 -2249 0
-2248 -2249 0
578 2248 2249 0
-594 -2250 0
-594 -2251 0
-2250 -2251 0
594 2250 2251 0
-2252 -2253 0
-2252 -2254 0
-2253 -2254 0
2252 2253 2254 0
-2255 -2256 0
-2255 -2257 0
-2256 -2257 0
2255 2256 2257 0
-2258 -2259 0
-2258 -2260 0
-2259 -2260 0
2258 2259 2260 0
-2261 -2262 0
-2261 -2263 0
-2262 -2263 0
2261 2262 2263 0
-2264 -2265 0
-2264 -2266 0
-2265 -2266 0
2264 2265 2266 0
-2267 -2268 0
-2267 -2269 0
-2268 -2269 0
2267 2268 2269 0
-2270 -2271 0
-2270 -2272 0
-2271 -2272 0
2270 2271 2272 0
-7 -2273 0
-7 -2274 0
-2273 -2274 0
7 2273 2274 0
-2275 -2276 0
-2275 -2277 0
-2276 -2277 0
2275 2276 2277 0
-2278 -2279 0
-2278 -2280 0
-2279 -2280 0
2278 2279 2280 0
-88 -2281 0
-88 -2282 0
-2281 -2282 0
88 2281 2282 0
-2283 -2284 0
-2283 -2285 0
-2284 -2285 0
2283 2284 2285 0
-2264 -2286 0
-2264 -2287 0
-2286 -2287 0
2264 2286 2287 0
-2288 -2289 0
-2288 -2290 0
-2289 -2290 0
2288 2289 2290 0
-2291 -2292 0
-2291 -2293 0
-2292 -2293 0
2291 2292 2293 0
-1095 -2294 0
-1095 -2295 0
-2294 -2295 0
1095 2294 2295 0
-1442 -2296 0
-1442 -2297 0
-2296 -2297 0
1442 2296 2297 0
-2298 -2299 0
-2298 -2300 0
-2299 -2300 0
2298 2299 2300 0
-121 -2301 0
-121 -2302 0
-2301 -2302 0
121 2301 2302 0
-2303 -2304 0
-2303 -2305 0
-2304 -2305 0
2303 2304 2305 0
-2306 -2307 0
-2306 -2308 0
-2307 -2308 0
2306 2307 2308 0
-2309 -2310 0
-2309 -2311 0
-2310 -2311 0
2309 2310 2311 0
-2312 -2313 0
-2312 -2314 0
-2313 -2314 0
2312 2313 2314 0
-2315 -2316 0
-2315 -2317 0
-2316 -2317 0
2315 2316 2317 0
-1671 -2318 0
-1671 -2319 0
-2318 -2319 0
1671 2318 2319 0
-2320 -2321 0
-2320 -2322 0
-2321 -2322 0
2320 2321 2322 0
-1086 -2323 0
-1086 -2324 0
-2323 -2324 0
1086 2323 2324 0
-738 -1217 0
-738 -2325 0
-1217 -2325 0
738 1217 2325 0
-1135 -2326 0
-1135 -2327 0
-2326 -2327 0
1135 2326 2327 0
-2222 -2328 0
-2222 -2329 0
-2328 -2329 0
2222 2328 2329 0
-1573 -2330 0
-1573 -2331 0
-2330 -2331 0
1573 2330 2331 0
-2332 -2333 0
-2332 -2334 0
-2333 -2334 0
2332 2333 2334 0
-2335 -2336 0
-2335 -2337 0
-2336 -2337 0
2335 2336 2337 0
-2338 -2339 0
-2338 -2340 0
-2339 -2340 0
2338 2339 2340 0
-2341 -2342 0
-2341 -2343 0
-2342 -2343 0
2341 2342 2343 0
-2344 -2345 0
-2344 -2346 0
-2345 -2346 0
2344 2345 2346 0
-2347 -2348 0
-2347 -2349 0
-2348 -2349 0
2347 2348 2349 0
-1587 -2350 0
-1587 -2351 0
-2350 -2351 0
1587 2350 2351 0
-2352 -2353 0
-2352 -2354 0
-2353 -2354 0
2352 2353 2354 0
-2355 -2356 0
-2355 -2357 0
-2356 -2357 0
2355 2356 2357 0
-2358 -2359 0
-2358 -2360 0
-2359 -2360 0
2358 2359 2360 0
-2361 -2362 0
-2361 -2363 0
-2362 -2363 0
2361 2362 2363 0
-1050 -2364 0
-1050 -2365 0
-2364 -2365 0
1050 2364 2365 0
-2366 -2367 0
-2366 -2368 0
-2367 -2368 0
2366 2367 2368 0
-2369 -2370 0
-2369 -2371 0
-2370 -2371 0
2369 2370 2371 0
-2372 -2373 0
-2372 -2374 0
-2373 -2374 0
2372 2373 2374 0
-2375 -2376 0
-2375 -2377 0
-2376 -2377 0
2375 2376 2377 0
-2378 -2379 0
-2378 -2380 0
-2379 -2380 0
2378 2379 2380 0
-2381 -2382 0
-2381 -2383 0
-2382 -2383 0
2381 2382 2383 0
-2384 -2385 0
-2384 -2386 0
-2385 -2386 0
2384 2385 2386 0
-2120 -2387 0
-2120 -2388 0
-2387 -2388 0
2120 2387 2388 0
-2389 -2390 0
-2389 -2391 0
-2390 -2391 0
2389 2390 2391 0
-2392 -2393 0
-2392 -2394 0
-2393 -2394 0
2392 2393 2394 0
-2395 -2396 0
-2395 -2397 0
-2396 -2397 0
2395 2396 2397 0
-2398 -2399 0
-2398 -2400 0
-2399 -2400 0
2398 2399 2400 0
-2401 -2402 0
-2401 -2403 0
-2402 -2403 0
2401 2402 2403 0
-471 -2404 0
-471 -2405 0
-2404 -2405 0
471 2404 2405 0
-2406 -2407 0
-2406 -2408 0
-2407 -2408 0
2406 2407 2408 0
-2409 -2410 0
-2409 -2411 0
-2410 -2411 0
2409 2410 2411 0
-2412 -2413 0
-2412 -2414 0
-2413 -2414 0
2412 2413 2414 0
-2415 -2416 0
-2415 -2417 0
-2416 -2417 0
2415 2416 2417 0
-2418 -2419 0
-2418 -2420 0
-2419 -2420 0
2418 2419 2420 0
-2421 -2422 0
-2421 -2423 0
-2422 -2423 0
2421 2422 2423 0
-2424 -2425 0
-2424 -2426 0
-2425 -2426 0
2424 2425 2426 0
-2427 -2428 0
-2427 -2429 0
-2428 -2429 0
2427 2428 2429 0
-2430 -2431 0
-2430 -2432 0
-2431 -2432 0
2430 2431 2432 0
-2433 -2434 0
-2433 -2435 0
-2434 -2435 0
2433 2434 2435 0
-2436 -2437 0
-2436 -2438 0
-2437 -2438 0
2436 2437 2438 0
-2439 -2440 0
-2439 -2441 0
-2440 -2441 0
2439 2440 2441 0
-2442 -2443 0
-2442 -2444 0
-2443 -2444 0
2442 2443 2444 0
-2445 -2446 0
-2445 -2447 0
-2446 -2447 0
2445 2446 2447 0
-169 -1709 0
-169 -2448 0
-1709 -2448 0
169 1709 2448 0
-935 -2449 0
-935 -2450 0
-2449 -2450 0
935 2449 2450 0
-2451 -2452 0
-2451 -2453 0
-2452 -2453 0
2451 2452 2453 0
-2454 -2455 0
-2454 -2456 0
-2455 -2456 0
2454 2455 2456 0
-2457 -2458 0
-2457 -2459 0
-2458 -2459 0
2457 2458 2459 0
-2460 -2461 0
-2460 -2462 0
-2461 -2462 0
2460 2461 2462 0
-2463 -2464 0
-2463 -2465 0
-2464 -2465 0
2463 2464 2465 0
-2466 -2467 0
-2466 -2468 0
-2467 -2468 0
2466 2467 2468 0
-2469 -2470 0
-2469 -2471 0
-2470 -2471 0
2469 2470 2471 0
-2472 -2473 0
-2472 -2474 0
-2473 -2474 0
2472 2473 2474 0
-2475 -2476 0
-2475 -2477 0
-2476 -2477 0
2475 2476 2477 0
-342 -2478 0
-342 -2479 0
-2478 -2479 0
342 2478 2479 0
-2480 -2481 0
-2480 -2482 0
-2481 -2482 0
2480 2481 2482 0
-1422 -2483 0
-1422 -2484 0
-2483 -2484 0
1422 2483 2484 0
-2485 -2486 0
-2485 -2487 0
-2486 -2487 0
2485 2486 2487 0
-2488 -2489 0
-2488 -2490 0
-2489 -2490 0
2488 2489 2490 0
-2491 -2492 0
-2491 -2493 0
-2492 -2493 0
2491 2492 2493 0
-2494 -2495 0
-2494 -2496 0
-2495 -2496 0
2494 2495 2496 0
-1567 -2497 0
-1567 -2498 0
-2497 -2498 0
1567 2497 2498 0
-2499 -2500 0
-2499 -2501 0
-2500 -2501 0
2499 2500 2501 0
-2502 -2503 0
-2502 -2504 0
-2503 -2504 0
2502 2503 2504 0
-2505 -2506 0
-2505 -2507 0
-2506 -2507 0
2505 2506 2507 0
-2508 -2509 0
-2508 -2510 0
-2509 -2510 0
2508 2509 2510 0
-2511 -2512 0
-2511 -2513 0
-2512 -2513 0
2511 2512 2513 0
-786 -2514 0
-786 -2515 0
-2514 -2515 0
786 2514 2515 0
-2516 -2517 0
-2516 -2518 0
-2517 -2518 0
2516 2517 2518 0
-2519 -2520 0
-2519 -2521 0
-2520 -2521 0
2519 2520 2521 0
-2100 -2522 0
-2100 -2523 0
-2522 -2523 0
2100 2522 2523 0
-1055 -2524 0
-1055 -2525 0
-2524 -2525 0
1055 2524 2525 0
-2526 -2527 0
-2526 -2528 0
-2527 -2528 0
2526 2527 2528 0
-2529 -2530 0
-2529 -2531 0
-2530 -2531 0
2529 2530 2531 0
-2532 -2533 0
-2532 -2534 0
-2533 -2534 0
2532 2533 2534 0
-166 -2535 0
-166 -2536 0
-2535 -2536 0
166 2535 2536 0
-2537 -2538 0
-2537 -2539 0
-2538 -2539 0
2537 2538 2539 0
-2540 -2541 0
-2540 -2542 0
-2541 -2542 0
2540 2541 2542 0
-2543 -2544 0
-2543 -2545 0
-2544 -2545 0
2543 2544 2545 0
-1624 -2546 0
-1624 -2547 0
-2546 -2547 0
1624 2546 2547 0
-2548 -2549 0
-2548 -2550 0
-2549 -2550 0
2548 2549 2550 0
-2551 -2552 0
-2551 -2553 0
-2552 -2553 0
2551 2552 2553 0
-1380 -2554 0
-1380 -2555 0
-2554 -2555 0
1380 2554 2555 0
-2556 -2557 0
-2556 -2558 0
-2557 -2558 0
2556 2557 2558 0
-2559 -2560 0
-2559 -2561 0
-2560 -2561 0
2559 2560 2561 0
-2562 -2563 0
-2562 -2564 0
-2563 -2564 0
2562 2563 2564 0
-2565 -2566 0
-2565 -2567 0
-2566 -2567 0
2565 2566 2567 0
-2568 -2569 0
-2568 -2570 0
-2569 -2570 0
2568 2569 2570 0
-2571 -2572 0
-2571 -2573 0
-2572 -2573 0
2571 2572 2573 0
-2574 -2575 0
-2574 -2576 0
-2575 -2576 0
2574 2575 2576 0
-2577 -2578 0
-2577 -2579 0
-2578 -2579 0
2577 2578 2579 0
-2580 -2581 0
-2580 -2582 0
-2581 -2582 0
2580 2581 2582 0
-2583 -2584 0
-2583 -2585 0
-2584 -2585 0
2583 2584 2585 0
-2270 -2586 0
-2270 -2587 0
-2586 -2587 0
2270 2586 2587 0
-2588 -2589 0
-2588 -2590 0
-2589 -2590 0
2588 2589 2590 0
-2591 -2592 0
-2591 -2593 0
-2592 -2593 0
2591 2592 2593 0
-2594 -2595 0
-2594 -2596 0
-2595 -2596 0
2594 2595 2596 0
-2597 -2598 0
-2597 -2599 0
-2598 -2599 0
2597 2598 2599 0
-2600 -2601 0
-2600 -2602 0
-2601 -2602 0
2600 2601 2602 0
-1855 -2603 0
-1855 -2604 0
-2603 -2604 0
1855 2603 2604 0
-789 -2605 0
-789 -2606 0
-2605 -2606 0
789 2605 2606 0
-225 -2607 0
-225 -2608 0
-2607 -2608 0
225 2607 2608 0
-2609 -2610 0
-2609 -2611 0
-2610 -2611 0
2609 2610 2611 0
-2612 -2613 0
-2612 -2614 0
-2613 -2614 0
2612 2613 2614 0
-1465 -2615 0
-1465 -2616 0
-2615 -2616 0
1465 2615 2616 0
-2617 -2618 0
-2617 -2619 0
-2618 -2619 0
2617 2618 2619 0
-2620 -2621 0
-2620 -2622 0
-2621 -2622 0
2620 2621 2622 0
-2623 -2624 0
-2623 -2625 0
-2624 -2625 0
2623 2624 2625 0
-2626 -2627 0
-2626 -2628 0
-2627 -2628 0
2626 2627 2628 0
-2483 -2629 0
-2483 -2630 0
-2629 -2630 0
2483 2629 2630 0
-2631 -2632 0
-2631 -2633 0
-2632 -2633 0
2631 2632 2633 0
-2634 -2635 0
-2634 -2636 0
-2635 -2636 0
2634 2635 2636 0
-2637 -2638 0
-2637 -2639 0
-2638 -2639 0
2637 2638 2639 0
-2640 -2641 0
-2640 -2642 0
-2641 -2642 0
2640 2641 2642 0
-2643 -2644 0
-2643 -2645 0
-2644 -2645 0
2643 2644 2645 0
-46 -2646 0
-46 -2647 0
-2646 -2647 0
46 2646 2647 0
-2648 -2649 0
-2648 -2650 0
-2649 -2650 0
2648 2649 2650 0
-2651 -2652 0
-2651 -2653 0
-2652 -2653 0
2651 2652 2653 0
-2654 -2655 0
-2654 -2656 0
-2655 -2656 0
2654 2655 2656 0
-2146 -2657 0
-2146 -2658 0
-2657 -2658 0
2146 2657 2658 0
-2659 -2660 0
-2659 -2661 0
-2660 -2661 0
2659 2660 2661 0
-2662 -2663 0
-2662 -2664 0
-2663 -2664 0
2662 2663 2664 0
-892 -2665 0
-892 -2666 0
-2665 -2666 0
892 2665 2666 0
-2667 -2668 0
-2667 -2669 0
-2668 -2669 0
2667 2668 2669 0
-2670 -2671 0
-2670 -2672 0
-2671 -2672 0
2670 2671 2672 0
-2673 -2674 0
-2673 -2675 0
-2674 -2675 0
2673 2674 2675 0
-2676 -2677 0
-2676 -2678 0
-2677 -2678 0
2676 2677 2678 0
-2679 -2680 0
-2679 -2681 0
-2680 -2681 0
2679 2680 2681 0
-2682 -2683 0
-2682 -2684 0
-2683 -2684 0
2682 2683 2684 0
-2685 -2686 0
-2685 -2687 0
-2686 -2687 0
2685 2686 2687 0
-2688 -2689 0
-2688 -2690 0
-2689 -2690 0
2688 2689 2690 0
-1245 -2691 0
-1245 -2692 0
-2691 -2692 0
1245 2691 2692 0
-124 -2693 0
-124 -2694 0
-2693 -2694 0
124 2693 2694 0
-2695 -2696 0
-2695 -2697 0
-2696 -2697 0
2695 2696 2697 0
-2698 -2699 0
-2698 -2700 0
-2699 -2700 0
2698 2699 2700 0
-2701 -2702 0
-2701 -2703 0
-2702 -2703 0
2701 2702 2703 0
-2704 -2705 0
-2704 -2706 0
-2705 -2706 0
2704 2705 2706 0
-929 -2707 0
-929 -2708 0
-2707 -2708 0
929 2707 2708 0
-2709 -2710 0
-2709 -2711 0
-2710 -2711 0
2709 2710 2711 0
-2712 -2713 0
-2712 -2714 0
-2713 -2714 0
2712 2713 2714 0
-985 -2715 0
-985 -2716 0
-2715 -2716 0
985 2715 2716 0
-2717 -2718 0
-2717 -2719 0
-2718 -2719 0
2717 2718 2719 0
-55 -2720 0
-55 -2721 0
-2720 -2721 0
55 2720 2721 0
-2722 -2723 0
-2722 -2724 0
-2723 -2724 0
2722 2723 2724 0
-2725 -2726 0
-2725 -2727 0
-2726 -2727 0
2725 2726 2727 0
-2728 -2729 0
-2728 -2730 0
-2729 -2730 0
2728 2729 2730 0
-2731 -2732 0
-2731 -2733 0
-2732 -2733 0
2731 2732 2733 0
-2734 -2735 0
-2734 -2736 0
-2735 -2736 0
2734 2735 2736 0
-1771 -2737 0
-1771 -2738 0
-2737 -2738 0
1771 2737 2738 0
-1267 -2739 0
-1267 -2740 0
-2739 -2740 0
1267 2739 2740 0
-2741 -2742 0
-2741 -2743 0
-2742 -2743 0
2741 2742 2743 0
-2744 -2745 0
-2744 -2746 0
-2745 -2746 0
2744 2745 2746 0
-2747 -2748 0
-2747 -2749 0
-2748 -2749 0
2747 2748 2749 0
-2750 -2751 0
-2750 -2752 0
-2751 -2752 0
2750 2751 2752 0
-2753 -2754 0
-2753 -2755 0
-2754 -2755 0
2753 2754 2755 0
-2756 -2757 0
-2756 -2758 0
-2757 -2758 0
2756 2757 2758 0
-2759 -2760 0
-2759 -2761 0
-2760 -2761 0
2759 2760 2761 0
-2762 -2763 0
-2762 -2764 0
-2763 -2764 0
2762 2763 2764 0
-2765 -2766 0
-2765 -2767 0
-2766 -2767 0
2765 2766 2767 0
-2768 -2769 0
-2768 -2770 0
-2769 -2770 0
2768 2769 2770 0
-139 -2771 0
-139 -2772 0
-2771 -2772 0
139 2771 2772 0
-2773 -2774 0
-2773 -2775 0
-2774 -2775 0
2773 2774 2775 0
-1494 -2776 0
-1494 -2777 0
-2776 -2777 0
1494 2776 2777 0
-2217 -2778 0
-2217 -2779 0
-2778 -2779 0
2217 2778 2779 0
-1032 -2780 0
-1032 -2781 0
-2780 -2781 0
1032 2780 2781 0
-2782 -2783 0
-2782 -2784 0
-2783 -2784 0
2782 2783 2784 0
-2785 -2786 0
-2785 -2787 0
-2786 -2787 0
2785 2786 2787 0
-2788 -2789 0
-2788 -2790 0
-2789 -2790 0
2788 2789 2790 0
-2791 -2792 0
-2791 -2793 0
-2792 -2793 0
2791 2792 2793 0
-2794 -2795 0
-2794 -2796 0
-2795 -2796 0
2794 2795 2796 0
-1652 -2797 0
-1652 -2798 0
-2797 -2798 0
1652 2797 2798 0
-2799 -2800 0
-2799 -2801 0
-2800 -2801 0
2799 2800 2801 0
-1074 -2802 0
-1074 -2803 0
-2802 -2803 0
1074 2802 2803 0
-2341 -2804 0
-2341 -2805 0
-2804 -2805 0
2341 2804 2805 0
-2806 -2807 0
-2806 -2808 0
-2807 -2808 0
2806 2807 2808 0
-2809 -2810 0
-2809 -2811 0
-2810 -2811 0
2809 2810 2811 0
-2812 -2813 0
-2812 -2814 0
-2813 -2814 0
2812 2813 2814 0
-2204 -2815 0
-2204 -2816 0
-2815 -2816 0
2204 2815 2816 0
-1672 -2817 0
-1672 -2818 0
-2817 -2818 0
1672 2817 2818 0
-2819 -2820 0
-2819 -2821 0
-2820 -2821 0
2819 2820 2821 0
-2822 -2823 0
-2822 -2824 0
-2823 -2824 0
2822 2823 2824 0
-2825 -2826 0
-2825 -2827 0
-2826 -2827 0
2825 2826 2827 0
-2828 -2829 0
-2828 -2830 0
-2829 -2830 0
2828 2829 2830 0
-2831 -2832 0
-2831 -2833 0
-2832 -2833 0
2831 2832 2833 0
-1370 -2834 0
-1370 -2835 0
-2834 -2835 0
1370 2834 2835 0
-2836 -2837 0
-2836 -2838 0
-2837 -2838 0
2836 2837 2838 0
-2839 -2840 0
-2839 -2841 0
-2840 -2841 0
2839 2840 2841 0
-2842 -2843 0
-2842 -2844 0
-2843 -2844 0
2842 2843 2844 0
-2845 -2846 0
-2845 -2847 0
-2846 -2847 0
2845 2846 2847 0
-2848 -2849 0
-2848 -2850 0
-2849 -2850 0
2848 2849 2850 0
-2851 -2852 0
-2851 -2853 0
-2852 -2853 0
2851 2852 2853 0
-2854 -2855 0
-2854 -2856 0
-2855 -2856 0
2854 2855 2856 0
-2857 -2858 0
-2857 -2859 0
-2858 -2859 0
2857 2858 2859 0
-2860 -2861 0
-2860 -2862 0
-2861 -2862 0
2860 2861 2862 0
-2863 -2864 0
-2863 -2865 0
-2864 -2865 0
2863 2864 2865 0
-2866 -2867 0
-2866 -2868 0
-2867 -2868 0
2866 2867 2868 0
-2869 -2870 0
-2869 -2871 0
-2870 -2871 0
2869 2870 2871 0
-2872 -2873 0
-2872 -2874 0
-2873 -2874 0
2872 2873 2874 0
-2875 -2876 0
-2875 -2877 0
-2876 -2877 0
2875 2876 2877 0
-2878 -2879 0
-2878 -2880 0
-2879 -2880 0
2878 2879 2880 0
-348 -2881 0
-348 -2882 0
-2881 -2882 0
348 2881 2882 0
-835 -2883 0
-835 -2884 0
-2883 -2884 0
835 2883 2884 0
-2885 -2886 0
-2885 -2887 0
-2886 -2887 0
2885 2886 2887 0
-2275 -2888 0
-2275 -2889 0
-2888 -2889 0
2275 2888 2889 0
-2890 -2891 0
-2890 -2892 0
-2891 -2892 0
2890 2891 2892 0
-1627 -2893 0
-1627 -2894 0
-2893 -2894 0
1627 2893 2894 0
-979 -2895 0
-979 -2896 0
-2895 -2896 0
979 2895 2896 0
-840 -2897 0
-840 -2898 0
-2897 -2898 0
840 2897 2898 0
-2899 -2900 0
-2899 -2901 0
-2900 -2901 0
2899 2900 2901 0
-2902 -2903 0
-2902 -2904 0
-2903 -2904 0
2902 2903 2904 0
-2050 -2267 0
-2050 -2905 0
-2267 -2905 0
2050 2267 2905 0
-2906 -2907 0
-2906 -2908 0
-2907 -2908 0
2906 2907 2908 0
-2909 -2910 0
-2909 -2911 0
-2910 -2911 0
2909 2910 2911 0
-1934 -2912 0
-1934 -2913 0
-2912 -2913 0
1934 2912 2913 0
-2914 -2915 0
-2914 -2916 0
-2915 -2916 0
2914 2915 2916 0
-2917 -2918 0
-2917 -2919 0
-2918 -2919 0
2917 2918 2919 0
-2920 -2921 0
-2920 -2922 0
-2921 -2922 0
2920 2921 2922 0
-2923 -2924 0
-2923 -2925 0
-2924 -2925 0
2923 2924 2925 0
-2926 -2927 0
-2926 -2928 0
-2927 -2928 0
2926 2927 2928 0
-2929 -2930 0
-2929 -2931 0
-2930 -2931 0
2929 2930 2931 0
-2932 -2933 0
-2932 -2934 0
-2933 -2934 0
2932 2933 2934 0
-2935 -2936 0
-2935 -2937 0
-2936 -2937 0
2935 2936 2937 0
-2938 -2939 0
-2938 -2940 0
-2939 -2940 0
2938 2939 2940 0
-2941 -2942 0
-2941 -2943 0
-2942 -2943 0
2941 2942 2943 0
-2944 -2945 0
-2944 -2946 0
-2945 -2946 0
2944 2945 2946 0
-2947 -2948 0
-2947 -2949 0
-2948 -2949 0
2947 2948 2949 0
-2950 -2951 0
-2950 -2952 0
-2951 -2952 0
2950 2951 2952 0
-2076 -2953 0
-2076 -2954 0
-2953 -2954 0
2076 2953 2954 0
-431 -1364 0
-431 -2955 0
-1364 -2955 0
431 1364 2955 0
-2956 -2957 0
-2956 -2958 0
-2957 -2958 0
2956 2957 2958 0
-2959 -2960 0
-2959 -2961 0
-2960 -2961 0
2959 2960 2961 0
-2962 -2963 0
-2962 -2964 0
-2963 -2964 0
2962 2963 2964 0
-1332 -2965 0
-1332 -2966 0
-2965 -2966 0
1332 2965 2966 0
-2967 -2968 0
-2967 -2969 0
-2968 -2969 0
2967 2968 2969 0
-2970 -2971 0
-2970 -2972 0
-2971 -2972 0
2970 2971 2972 0
-2973 -2974 0
-2973 -2975 0
-2974 -2975 0
2973 2974 2975 0
-2976 -2977 0
-2976 -2978 0
-2977 -2978 0
2976 2977 2978 0
-2979 -2980 0
-2979 -2981 0
-2980 -2981 0
2979 2980 2981 0
-2982 -2983 0
-2982 -2984 0
-2983 -2984 0
2982 2983 2984 0
-2985 -2986 0
-2985 -2987 0
-2986 -2987 0
2985 2986 2987 0
-2988 -2989 0
-2988 -2990 0
-2989 -2990 0
2988 2989 2990 0
-2991 -2992 0
-2991 -2993 0
-2992 -2993 0
2991 2992 2993 0
-2994 -2995 0
-2994 -2996 0
-2995 -2996 0
2994 2995 2996 0
-2350 -2997 0
-2350 -2998 0
-2997 -2998 0
2350 2997 2998 0
-2999 -3000 0
-2999 -3001 0
-3000 -3001 0
2999 3000 3001 0
-3002 -3003 0
-3002 -3004 0
-3003 -3004 0
3002 3003 3004 0
-3005 -3006 0
-3005 -3007 0
-3006 -3007 0
3005 3006 3007 0
-3008 -3009 0
-3008 -3010 0
-3009 -3010 0
3008 3009 3010 0
-3011 -3012 0
-3011 -3013 0
-3012 -3013 0
3011 3012 3013 0
-3014 -3015 0
-3014 -3016 0
-3015 -3016 0
3014 3015 3016 0
-3017 -3018 0
-3017 -3019 0
-3018 -3019 0
3017 3018 3019 0
-434 -3020 0
-434 -3021 0
-3020 -3021 0
434 3020 3021 0
-3022 -3023 0
-3022 -3024 0
-3023 -3024 0
3022 3023 3024 0
-366 -3025 0
-366 -3026 0
-3025 -3026 0
366 3025 3026 0
-3027 -3028 0
-3027 -3029 0
-3028 -3029 0
3027 3028 3029 0
-3030 -3031 0
-3030 -3032 0
-3031 -3032 0
3030 3031 3032 0
-3033 -3034 0
-3033 -3035 0
-3034 -3035 0
3033 3034 3035 0
-988 -3036 0
-988 -3037 0
-3036 -3037 0
988 3036 3037 0
-3038 -3039 0
-3038 -3040 0
-3039 -3040 0
3038 3039 3040 0
-3041 -3042 0
-3041 -3043 0
-3042 -3043 0
3041 3042 3043 0
-3044 -3045 0
-3044 -3046 0
-3045 -3046 0
3044 3045 3046 0
-3047 -3048 0
-3047 -3049 0
-3048 -3049 0
3047 3048 3049 0
-3050 -3051 0
-3050 -3052 0
-3051 -3052 0
3050 3051 3052 0
-3053 -3054 0
-3053 -3055 0
-3054 -3055 0
3053 3054 3055 0
-3056 -3057 0
-3056 -3058 0
-3057 -3058 0
3056 3057 3058 0
-3059 -3060 0
-3059 -3061 0
-3060 -3061 0
3059 3060 3061 0
-3062 -3063 0
-3062 -3064 0
-3063 -3064 0
3062 3063 3064 0
-3065 -3066 0
-3065 -3067 0
-3066 -3067 0
3065 3066 3067 0
-2657 -3068 0
-2657 -3069 0
-3068 -3069 0
2657 3068 3069 0
-3070 -3071 0
-3070 -3072 0
-3071 -3072 0
3070 3071 3072 0
-3073 -3074 0
-3073 -3075 0
-3074 -3075 0
3073 3074 3075 0
-3076 -3077 0
-3076 -3078 0
-3077 -3078 0
3076 3077 3078 0
-2662 -3079 0
-2662 -3080 0
-3079 -3080 0
2662 3079 3080 0
-3081 -3082 0
-3081 -3083 0
-3082 -3083 0
3081 3082 3083 0
-3084 -3085 0
-3084 -3086 0
-3085 -3086 0
3084 3085 3086 0
-1899 -3087 0
-1899 -3088 0
-3087 -3088 0
1899 3087 3088 0
-3089 -3090 0
-3089 -3091 0
-3090 -3091 0
3089 3090 3091 0
-1353 -3092 0
-1353 -3093 0
-3092 -3093 0
1353 3092 3093 0
-3094 -3095 0
-3094 -3096 0
-3095 -3096 0
3094 3095 3096 0
-2878 -3097 0
-2878 -3098 0
-3097 -3098 0
2878 3097 3098 0
-3099 -3100 0
-3099 -3101 0
-3100 -3101 0
3099 3100 3101 0
-3102 -3103 0
-3102 -3104 0
-3103 -3104 0
3102 3103 3104 0
-3105 -3106 0
-3105 -3107 0
-3106 -3107 0
3105 3106 3107 0
-2318 -3108 0
-2318 -3109 0
-3108 -3109 0
2318 3108 3109 0
-3110 -3111 0
-3110 -3112 0
-3111 -3112 0
3110 3111 3112 0
-596 -3113 0
-596 -3114 0
-3113 -3114 0
596 3113 3114 0
-3115 -3116 0
-3115 -3117 0
-3116 -3117 0
3115 3116 3117 0
-3118 -3119 0
-3118 -3120 0
-3119 -3120 0
3118 3119 3120 0
-3121 -3122 0
-3121 -3123 0
-3122 -3123 0
3121 3122 3123 0
-3124 -3125 0
-3124 -3126 0
-3125 -3126 0
3124 3125 3126 0
-2782 -3127 0
-2782 -3128 0
-3127 -3128 0
2782 3127 3128 0
-569 -3129 0
-569 -3130 0
-3129 -3130 0
569 3129 3130 0
-3131 -3132 0
-3131 -3133 0
-3132 -3133 0
3131 3132 3133 0
-3134 -3135 0
-3134 -3136 0
-3135 -3136 0
3134 3135 3136 0
-3137 -3138 0
-3137 -3139 0
-3138 -3139 0
3137 3138 3139 0
-3140 -3141 0
-3140 -3142 0
-3141 -3142 0
3140 3141 3142 0
-3143 -3144 0
-3143 -3145 0
-3144 -3145 0
3143 3144 3145 0
-3146 -3147 0
-3146 -3148 0
-3147 -3148 0
3146 3147 3148 0
-3149 -3150 0
-3149 -3151 0
-3150 -3151 0
3149 3150 3151 0
-3152 -3153 0
-3152 -3154 0
-3153 -3154 0
3152 3153 3154 0
-3155 -3156 0
-3155 -3157 0
-3156 -3157 0
3155 3156 3157 0
-3158 -3159 0
-3158 -3160 0
-3159 -3160 0
3158 3159 3160 0
-3161 -3162 0
-3161 -3163 0
-3162 -3163 0
3161 3162 3163 0
-3164 -3165 0
-3164 -3166 0
-3165 -3166 0
3164 3165 3166 0
-3167 -3168 0
-3167 -3169 0
-3168 -3169 0
3167 3168 3169 0
-3170 -3171 0
-3170 -3172 0
-3171 -3172 0
3170 3171 3172 0
-3173 -3174 0
-3173 -3175 0
-3174 -3175 0
3173 3174 3175 0
-520 -3176 0
-520 -3177 0
-3176 -3177 0
520 3176 3177 0
-3178 -3179 0
-3178 -3180 0
-3179 -3180 0
3178 3179 3180 0
-3181 -3182 0
-3181 -3183 0
-3182 -3183 0
3181 3182 3183 0
-3184 -3185 0
-3184 -3186 0
-3185 -3186 0
3184 3185 3186 0
-3187 -3188 0
-3187 -3189 0
-3188 -3189 0
3187 3188 3189 0
-3190 -3191 0
-3190 -3192 0
-3191 -3192 0
3190 3191 3192 0
-3193 -3194 0
-3193 -3195 0
-3194 -3195 0
3193 3194 3195 0
-3196 -3197 0
-3196 -3198 0
-3197 -3198 0
3196 3197 3198 0
-3199 -3200 0
-3199 -3201 0
-3200 -3201 0
3199 3200 3201 0
-3202 -3203 0
-3202 -3204 0
-3203 -3204 0
3202 3203 3204 0
-3205 -3206 0
-3205 -3207 0
-3206 -3207 0
3205 3206 3207 0
-964 -3208 0
-964 -3209 0
-3208 -3209 0
964 3208 3209 0
-3210 -3211 0
-3210 -3212 0
-3211 -3212 0
3210 3211 3212 0
-3213 -3214 0
-3213 -3215 0
-3214 -3215 0
3213 3214 3215 0
-2588 -3216 0
-2588 -3217 0
-3216 -3217 0
2588 3216 3217 0
-3218 -3219 0
-3218 -3220 0
-3219 -3220 0
3218 3219 3220 0
-1503 -3221 0
-1503 -3222 0
-3221 -3222 0
1503 3221 3222 0
-550 -3223 0
-550 -3224 0
-3223 -3224 0
550 3223 3224 0
-3225 -3226 0
-3225 -3227 0
-3226 -3227 0
3225 3226 3227 0
-3228 -3229 0
-3228 -3230 0
-3229 -3230 0
3228 3229 3230 0
-3231 -3232 0
-3231 -3233 0
-3232 -3233 0
3231 3232 3233 0
-3234 -3235 0
-3234 -3236 0
-3235 -3236 0
3234 3235 3236 0
-3237 -3238 0
-3237 -3239 0
-3238 -3239 0
3237 3238 3239 0
-3143 -3240 0
-3143 -3241 0
-3240 -3241 0
3143 3240 3241 0
-2857 -3242 0
-2857 -3243 0
-3242 -3243 0
2857 3242 3243 0
-2899 -3244 0
-2899 -3245 0
-3244 -3245 0
2899 3244 3245 0
-3246 -3247 0
-3246 -3248 0
-3247 -3248 0
3246 3247 3248 0
-3249 -3250 0
-3249 -3251 0
-3250 -3251 0
3249 3250 3251 0
-3252 -3253 0
-3252 -3254 0
-3253 -3254 0
3252 3253 3254 0
-3255 -3256 0
-3255 -3257 0
-3256 -3257 0
3255 3256 3257 0
-1925 -3258 0
-1925 -3259 0
-3258 -3259 0
1925 3258 3259 0
-1026 -3260 0
-1026 -3261 0
-3260 -3261 0
1026 3260 3261 0
-3262 -3263 0
-3262 -3264 0
-3263 -3264 0
3262 3263 3264 0
-1371 -2330 0
-1371 -3265 0
-2330 -3265 0
1371 2330 3265 0
-3266 -3267 0
-3266 -3268 0
-3267 -3268 0
3266 3267 3268 0
-1673 -3269 0
-1673 -3270 0
-3269 -3270 0
1673 3269 3270 0
-3271 -3272 0
-3271 -3273 0
-3272 -3273 0
3271 3272 3273 0
-3274 -3275 0
-3274 -3276 0
-3275 -3276 0
3274 3275 3276 0
-3277 -3278 0
-3277 -3279 0
-3278 -3279 0
3277 3278 3279 0
-3280 -3281 0
-3280 -3282 0
-3281 -3282 0
3280 3281 3282 0
-3283 -3284 0
-3283 -3285 0
-3284 -3285 0
3283 3284 3285 0
-2695 -3286 0
-2695 -3287 0
-3286 -3287 0
2695 3286 3287 0
-3288 -3289 0
-3288 -3290 0
-3289 -3290 0
3288 3289 3290 0
-3291 -3292 0
-3291 -3293 0
-3292 -3293 0
3291 3292 3293 0
-3294 -3295 0
-3294 -3296 0
-3295 -3296 0
3294 3295 3296 0
-3297 -3298 0
-3297 -3299 0
-3298 -3299 0
3297 3298 3299 0
-2985 -3300 0
-2985 -3301 0
-3300 -3301 0
2985 3300 3301 0
-3302 -3303 0
-3302 -3304 0
-3303 -3304 0
3302 3303 3304 0
-1785 -3305 0
-1785 -3306 0
-3305 -3306 0
1785 3305 3306 0
-3307 -3308 0
-3307 -3309 0
-3308 -3309 0
3307 3308 3309 0
-3310 -3311 0
-3310 -3312 0
-3311 -3312 0
3310 3311 3312 0
-3313 -3314 0
-3313 -3315 0
-3314 -3315 0
3313 3314 3315 0
-3316 -3317 0
-3316 -3318 0
-3317 -3318 0
3316 3317 3318 0
-3319 -3320 0
-3319 -3321 0
-3320 -3321 0
3319 3320 3321 0
-3322 -3323 0
-3322 -3324 0
-3323 -3324 0
3322 3323 3324 0
-3325 -3326 0
-3325 -3327 0
-3326 -3327 0
3325 3326 3327 0
-690 -3328 0
-690 -3329 0
-3328 -3329 0
690 3328 3329 0
-3330 -3331 0
-3330 -3332 0
-3331 -3332 0
3330 3331 3332 0
-1966 -3333 0
-1966 -3334 0
-3333 -3334 0
1966 3333 3334 0
-3335 -3336 0
-3335 -3337 0
-3336 -3337 0
3335 3336 3337 0
-3338 -3339 0
-3338 -3340 0
-3339 -3340 0
3338 3339 3340 0
-3121 -3341 0
-3121 -3342 0
-3341 -3342 0
3121 3341 3342 0
-3343 -3344 0
-3343 -3345 0
-3344 -3345 0
3343 3344 3345 0
-3346 -3347 0
-3346 -3348 0
-3347 -3348 0
3346 3347 3348 0
-3349 -3350 0
-3349 -3351 0
-3350 -3351 0
3349 3350 3351 0
-3352 -3353 0
-3352 -3354 0
-3353 -3354 0
3352 3353 3354 0
-3355 -3356 0
-3355 -3357 0
-3356 -3357 0
3355 3356 3357 0
-3358 -3359 0
-3358 -3360 0
-3359 -3360 0
3358 3359 3360 0
-3361 -3362 0
-3361 -3363 0
-3362 -3363 0
3361 3362 3363 0
-3364 -3365 0
-3364 -3366 0
-3365 -3366 0
3364 3365 3366 0
-3367 -3368 0
-3367 -3369 0
-3368 -3369 0
3367 3368 3369 0
-3370 -3371 0
-3370 -3372 0
-3371 -3372 0
3370 3371 3372 0
-3373 -3374 0
-3373 -3375 0
-3374 -3375 0
3373 3374 3375 0
-3271 -3376 0
-3271 -3377 0
-3376 -3377 0
3271 3376 3377 0
-3378 -3379 0
-3378 -3380 0
-3379 -3380 0
3378 3379 3380 0
-3381 -3382 0
-3381 -3383 0
-3382 -3383 0
3381 3382 3383 0
-3384 -3385 0
-3384 -3386 0
-3385 -3386 0
3384 3385 3386 0
-3387 -3388 0
-3387 -3389 0
-3388 -3389 0
3387 3388 3389 0
-3390 -3391 0
-3390 -3392 0
-3391 -3392 0
3390 3391 3392 0
-3089 -3393 0
-3089 -3394 0
-3393 -3394 0
3089 3393 3394 0
-3395 -3396 0
-3395 -3397 0
-3396 -3397 0
3395 3396 3397 0
-3398 -3399 0
-3398 -3400 0
-3399 -3400 0
3398 3399 3400 0
-2759 -3401 0
-2759 -3402 0
-3401 -3402 0
2759 3401 3402 0
-3403 -3404 0
-3403 -3405 0
-3404 -3405 0
3403 3404 3405 0
-3406 -3407 0
-3406 -3408 0
-3407 -3408 0
3406 3407 3408 0
-3409 -3410 0
-3409 -3411 0
-3410 -3411 0
3409 3410 3411 0
-3412 -3413 0
-3412 -3414 0
-3413 -3414 0
3412 3413 3414 0
-2457 -3415 0
-2457 -3416 0
-3415 -3416 0
2457 3415 3416 0
-1056 -1640 0
-1056 -3417 0
-1640 -3417 0
1056 1640 3417 0
-1800 -3418 0
-1800 -3419 0
-3418 -3419 0
1800 3418 3419 0
-562 -3420 0
-562 -3421 0
-3420 -3421 0
562 3420 3421 0
-3422 -3423 0
-3422 -3424 0
-3423 -3424 0
3422 3423 3424 0
-3425 -3426 0
-3425 -3427 0
-3426 -3427 0
3425 3426 3427 0
-3428 -3429 0
-3428 -3430 0
-3429 -3430 0
3428 3429 3430 0
-3431 -3432 0
-3431 -3433 0
-3432 -3433 0
3431 3432 3433 0
-3434 -3435 0
-3434 -3436 0
-3435 -3436 0
3434 3435 3436 0
-1951 -3437 0
-1951 -3438 0
-3437 -3438 0
1951 3437 3438 0
-3439 -3440 0
-3439 -3441 0
-3440 -3441 0
3439 3440 3441 0
-3442 -3443 0
-3442 -3444 0
-3443 -3444 0
3442 3443 3444 0
-3445 -3446 0
-3445 -3447 0
-3446 -3447 0
3445 3446 3447 0
-3448 -3449 0
-3448 -3450 0
-3449 -3450 0
3448 3449 3450 0
-3451 -3452 0
-3451 -3453 0
-3452 -3453 0
3451 3452 3453 0
-3454 -3455 0
-3454 -3456 0
-3455 -3456 0
3454 3455 3456 0
-2191 -2469 0
-2191 -3457 0
-2469 -3457 0
2191 2469 3457 0
-3458 -3459 0
-3458 -3460 0
-3459 -3460 0
3458 3459 3460 0
-3461 -3462 0
-3461 -3463 0
-3462 -3463 0
3461 3462 3463 0
-3464 -3465 0
-3464 -3466 0
-3465 -3466 0
3464 3465 3466 0
-3467 -3468 0
-3467 -3469 0
-3468 -3469 0
3467 3468 3469 0
-2205 -3470 0
-2205 -3471 0
-3470 -3471 0
2205 3470 3471 0
-3472 -3473 0
-3472 -3474 0
-3473 -3474 0
3472 3473 3474 0
-3475 -3476 0
-3475 -3477 0
-3476 -3477 0
3475 3476 3477 0
-3478 -3479 0
-3478 -3480 0
-3479 -3480 0
3478 3479 3480 0
-3330 -3481 0
-3330 -3482 0
-3481 -3482 0
3330 3481 3482 0
-1202 -3483 0
-1202 -3484 0
-3483 -3484 0
1202 3483 3484 0
-3485 -3486 0
-3485 -3487 0
-3486 -3487 0
3485 3486 3487 0
-3488 -3489 0
-3488 -3490 0
-3489 -3490 0
3488 3489 3490 0
-3491 -3492 0
-3491 -3493 0
-3492 -3493 0
3491 3492 3493 0
-3494 -3495 0
-3494 -3496 0
-3495 -3496 0
3494 3495 3496 0
-3497 -3498 0
-3497 -3499 0
-3498 -3499 0
3497 3498 3499 0
-1359 -3500 0
-1359 -3501 0
-3500 -3501 0
1359 3500 3501 0
-3502 -3503 0
-3502 -3504 0
-3503 -3504 0
3502 3503 3504 0
-3505 -3506 0
-3505 -3507 0
-3506 -3507 0
3505 3506 3507 0
-3508 -3509 0
-3508 -3510 0
-3509 -3510 0
3508 3509 3510 0
-3511 -3512 0
-3511 -3513 0
-3512 -3513 0
3511 3512 3513 0
-1523 -3514 0
-1523 -3515 0
-3514 -3515 0
1523 3514 3515 0
-3516 -3517 0
-3516 -3518 0
-3517 -3518 0
3516 3517 3518 0
-3519 -3520 0
-3519 -3521 0
-3520 -3521 0
3519 3520 3521 0
-3522 -3523 0
-3522 -3524 0
-3523 -3524 0
3522 3523 3524 0
-2612 -3525 0
-2612 -3526 0
-3525 -3526 0
2612 3525 3526 0
-3508 -3527 0
-3508 -3528 0
-3527 -3528 0
3508 3527 3528 0
-3529 -3530 0
-3529 -3531 0
-3530 -3531 0
3529 3530 3531 0
-3333 -3532 0
-3333 -3533 0
-3532 -3533 0
3333 3532 3533 0
-1996 -3534 0
-1996 -3535 0
-3534 -3535 0
1996 3534 3535 0
-3536 -3537 0
-3536 -3538 0
-3537 -3538 0
3536 3537 3538 0
-1772 -3539 0
-1772 -3540 0
-3539 -3540 0
1772 3539 3540 0
-3541 -3542 0
-3541 -3543 0
-3542 -3543 0
3541 3542 3543 0
-3544 -3545 0
-3544 -3546 0
-3545 -3546 0
3544 3545 3546 0
-3547 -3548 0
-3547 -3549 0
-3548 -3549 0
3547 3548 3549 0
-2626 -3550 0
-2626 -3551 0
-3550 -3551 0
2626 3550 3551 0
-1812 -3552 0
-1812 -3553 0
-3552 -3553 0
1812 3552 3553 0
-1203 -3554 0
-1203 -3555 0
-3554 -3555 0
1203 3554 3555 0
-3556 -3557 0
-3556 -3558 0
-3557 -3558 0
3556 3557 3558 0
-3559 -3560 0
-3559 -3561 0
-3560 -3561 0
3559 3560 3561 0
-3562 -3563 0
-3562 -3564 0
-3563 -3564 0
3562 3563 3564 0
-941 -2406 0
-941 -3565 0
-2406 -3565 0
941 2406 3565 0
-2010 -3566 0
-2010 -3567 0
-3566 -3567 0
2010 3566 3567 0
-2682 -3568 0
-2682 -3569 0
-3568 -3569 0
2682 3568 3569 0
-3570 -3571 0
-3570 -3572 0
-3571 -3572 0
3570 3571 3572 0
-1181 -3573 0
-1181 -3574 0
-3573 -3574 0
1181 3573 3574 0
-3575 -3576 0
-3575 -3577 0
-3576 -3577 0
3575 3576 3577 0
-976 -3578 0
-976 -3579 0
-3578 -3579 0
976 3578 3579 0
-3580 -3581 0
-3580 -3582 0
-3581 -3582 0
3580 3581 3582 0
-3583 -3584 0
-3583 -3585 0
-3584 -3585 0
3583 3584 3585 0
-836 -3586 0
-836 -3587 0
-3586 -3587 0
836 3586 3587 0
-3588 -3589 0
-3588 -3590 0
-3589 -3590 0
3588 3589 3590 0
-2970 -3591 0
-2970 -3592 0
-3591 -3592 0
2970 3591 3592 0
-1391 -3593 0
-1391 -3594 0
-3593 -3594 0
1391 3593 3594 0
-3595 -3596 0
-3595 -3597 0
-3596 -3597 0
3595 3596 3597 0
-3598 -3599 0
-3598 -3600 0
-3599 -3600 0
3598 3599 3600 0
-765 -3601 0
-765 -3602 0
-3601 -3602 0
765 3601 3602 0
-3603 -3604 0
-3603 -3605 0
-3604 -3605 0
3603 3604 3605 0
-2352 -3606 0
-2352 -3607 0
-3606 -3607 0
2352 3606 3607 0
-3608 -3609 0
-3608 -3610 0
-3609 -3610 0
3608 3609 3610 0
-3611 -3612 0
-3611 -3613 0
-3612 -3613 0
3611 3612 3613 0
-3050 -3614 0
-3050 -3615 0
-3614 -3615 0
3050 3614 3615 0
-3451 -3616 0
-3451 -3617 0
-3616 -3617 0
3451 3616 3617 0
-2514 -3618 0
-2514 -3619 0
-3618 -3619 0
2514 3618 3619 0
-3620 -3621 0
-3620 -3622 0
-3621 -3622 0
3620 3621 3622 0
-330 -3355 0
-330 -3620 0
-3355 -3620 0
330 3355 3620 0
-3623 -3624 0
-3623 -3625 0
-3624 -3625 0
3623 3624 3625 0
-3626 -3627 0
-3626 -3628 0
-3627 -3628 0
3626 3627 3628 0
-3629 -3630 0
-3629 -3631 0
-3630 -3631 0
3629 3630 3631 0
-3632 -3633 0
-3632 -3634 0
-3633 -3634 0
3632 3633 3634 0
-3635 -3636 0
-3635 -3637 0
-3636 -3637 0
3635 3636 3637 0
-1193 -3638 0
-1193 -3639 0
-3638 -3639 0
1193 3638 3639 0
-3640 -3641 0
-3640 -3642 0
-3641 -3642 0
3640 3641 3642 0
-3643 -3644 0
-3643 -3645 0
-3644 -3645 0
3643 3644 3645 0
-3646 -3647 0
-3646 -3648 0
-3647 -3648 0
3646 3647 3648 0
-2158 -2301 0
-2158 -3649 0
-2301 -3649 0
2158 2301 3649 0
-3650 -3651 0
-3650 -3652 0
-3651 -3652 0
3650 3651 3652 0
-790 -3653 0
-790 -3654 0
-3653 -3654 0
790 3653 3654 0
-3655 -3656 0
-3655 -3657 0
-3656 -3657 0
3655 3656 3657 0
-3658 -3659 0
-3658 -3660 0
-3659 -3660 0
3658 3659 3660 0
-2053 -3661 0
-2053 -3662 0
-3661 -3662 0
2053 3661 3662 0
-3663 -3664 0
-3663 -3665 0
-3664 -3665 0
3663 3664 3665 0
-2335 -3666 0
-2335 -3667 0
-3666 -3667 0
2335 3666 3667 0
-3668 -3669 0
-3668 -3670 0
-3669 -3670 0
3668 3669 3670 0
-444 -3671 0
-444 -3672 0
-3671 -3672 0
444 3671 3672 0
-3673 -3674 0
-3673 -3675 0
-3674 -3675 0
3673 3674 3675 0
-3676 -3677 0
-3676 -3678 0
-3677 -3678 0
3676 3677 3678 0
-3158 -3679 0
-3158 -3680 0
-3679 -3680 0
3158 3679 3680 0
-3681 -3682 0
-3681 -3683 0
-3682 -3683 0
3681 3682 3683 0
-3684 -3685 0
-3684 -3686 0
-3685 -3686 0
3684 3685 3686 0
-3687 -3688 0
-3687 -3689 0
-3688 -3689 0
3687 3688 3689 0
-73 -3690 0
-73 -3691 0
-3690 -3691 0
73 3690 3691 0
-3692 -3693 0
-3692 -3694 0
-3693 -3694 0
3692 3693 3694 0
-3695 -3696 0
-3695 -3697 0
-3696 -3697 0
3695 3696 3697 0
-3698 -3699 0
-3698 -3700 0
-3699 -3700 0
3698 3699 3700 0
-2097 -2179 0
-2097 -3701 0
-2179 -3701 0
2097 2179 3701 0
-3702 -3703 0
-3702 -3704 0
-3703 -3704 0
3702 3703 3704 0
-3705 -3706 0
-3705 -3707 0
-3706 -3707 0
3705 3706 3707 0
-3708 -3709 0
-3708 -3710 0
-3709 -3710 0
3708 3709 3710 0
-3711 -3712 0
-3711 -3713 0
-3712 -3713 0
3711 3712 3713 0
-3714 -3715 0
-3714 -3716 0
-3715 -3716 0
3714 3715 3716 0
-3717 -3718 0
-3717 -3719 0
-3718 -3719 0
3717 3718 3719 0
-3720 -3721 0
-3720 -3722 0
-3721 -3722 0
3720 3721 3722 0
-3723 -3724 0
-3723 -3725 0
-3724 -3725 0
3723 3724 3725 0
-3726 -3727 0
-3726 -3728 0
-3727 -3728 0
3726 3727 3728 0
-938 -1259 0
-938 -3729 0
-1259 -3729 0
938 1259 3729 0
-1902 -3730 0
-1902 -3731 0
-3730 -3731 0
1902 3730 3731 0
-3732 -3733 0
-3732 -3734 0
-3733 -3734 0
3732 3733 3734 0
-1326 -3735 0
-1326 -3736 0
-3735 -3736 0
1326 3735 3736 0
-3737 -3738 0
-3737 -3739 0
-3738 -3739 0
3737 3738 3739 0
-3740 -3741 0
-3740 -3742 0
-3741 -3742 0
3740 3741 3742 0
-3743 -3744 0
-3743 -3745 0
-3744 -3745 0
3743 3744 3745 0
-783 -3746 0
-783 -3747 0
-3746 -3747 0
783 3746 3747 0
-2863 -3748 0
-2863 -3749 0
-3748 -3749 0
2863 3748 3749 0
-2717 -3750 0
-2717 -3751 0
-3750 -3751 0
2717 3750 3751 0
-3752 -3753 0
-3752 -3754 0
-3753 -3754 0
3752 3753 3754 0
-3755 -3756 0
-3755 -3757 0
-3756 -3757 0
3755 3756 3757 0
-3758 -3759 0
-3758 -3760 0
-3759 -3760 0
3758 3759 3760 0
-3761 -3762 0
-3761 -3763 0
-3762 -3763 0
3761 3762 3763 0
-2559 -3764 0
-2559 -3765 0
-3764 -3765 0
2559 3764 3765 0
-3766 -3767 0
-3766 -3768 0
-3767 -3768 0
3766 3767 3768 0
-3769 -3770 0
-3769 -3771 0
-3770 -3771 0
3769 3770 3771 0
-3772 -3773 0
-3772 -3774 0
-3773 -3774 0
3772 3773 3774 0
-3775 -3776 0
-3775 -3777 0
-3776 -3777 0
3775 3776 3777 0
-3778 -3779 0
-3778 -3780 0
-3779 -3780 0
3778 3779 3780 0
-2768 -3781 0
-2768 -3782 0
-3781 -3782 0
2768 3781 3782 0
-3687 -3783 0
-3687 -3784 0
-3783 -3784 0
3687 3783 3784 0
-3785 -3786 0
-3785 -3787 0
-3786 -3787 0
3785 3786 3787 0
-3788 -3789 0
-3788 -3790 0
-3789 -3790 0
3788 3789 3790 0
-1220 -3791 0
-1220 -3792 0
-3791 -3792 0
1220 3791 3792 0
-3793 -3794 0
-3793 -3795 0
-3794 -3795 0
3793 3794 3795 0
-3796 -3797 0
-3796 -3798 0
-3797 -3798 0
3796 3797 3798 0
-1568 -3799 0
-1568 -3800 0
-3799 -3800 0
1568 3799 3800 0
-3623 -3801 0
-3623 -3802 0
-3801 -3802 0
3623 3801 3802 0
-3803 -3804 0
-3803 -3805 0
-3804 -3805 0
3803 3804 3805 0
-3806 -3807 0
-3806 -3808 0
-3807 -3808 0
3806 3807 3808 0
-1831 -3809 0
-1831 -3810 0
-3809 -3810 0
1831 3809 3810 0
-3811 -3812 0
-3811 -3813 0
-3812 -3813 0
3811 3812 3813 0
-3575 -3814 0
-3575 -3815 0
-3814 -3815 0
3575 3814 3815 0
-3816 -3817 0
-3816 -3818 0
-3817 -3818 0
3816 3817 3818 0
-248 -3819 0
-248 -3820 0
-3819 -3820 0
248 3819 3820 0
-3821 -3822 0
-3821 -3823 0
-3822 -3823 0
3821 3822 3823 0
-3824 -3825 0
-3824 -3826 0
-3825 -3826 0
3824 3825 3826 0
-3827 -3828 0
-3827 -3829 0
-3828 -3829 0
3827 3828 3829 0
-681 -3698 0
-681 -3830 0
-3698 -3830 0
681 3698 3830 0
-3831 -3832 0
-3831 -3833 0
-3832 -3833 0
3831 3832 3833 0
-3834 -3835 0
-3834 -3836 0
-3835 -3836 0
3834 3835 3836 0
-3837 -3838 0
-3837 -3839 0
-3838 -3839 0
3837 3838 3839 0
-1765 -3840 0
-1765 -3841 0
-3840 -3841 0
1765 3840 3841 0
-1646 -3842 0
-1646 -3843 0
-3842 -3843 0
1646 3842 3843 0
-3844 -3845 0
-3844 -3846 0
-3845 -3846 0
3844 3845 3846 0
-3847 -3848 0
-3847 -3849 0
-3848 -3849 0
3847 3848 3849 0
-2094 -3850 0
-2094 -3851 0
-3850 -3851 0
2094 3850 3851 0
-3852 -3853 0
-3852 -3854 0
-3853 -3854 0
3852 3853 3854 0
-3187 -3855 0
-3187 -3856 0
-3855 -3856 0
3187 3855 3856 0
-3857 -3858 0
-3857 -3859 0
-3858 -3859 0
3857 3858 3859 0
-1535 -1739 0
-1535 -3860 0
-1739 -3860 0
1535 1739 3860 0
-3861 -3862 0
-3861 -3863 0
-3862 -3863 0
3861 3862 3863 0
-3864 -3865 0
-3864 -3866 0
-3865 -3866 0
3864 3865 3866 0
-3084 -3867 0
-3084 -3868 0
-3867 -3868 0
3084 3867 3868 0
-3869 -3870 0
-3869 -3871 0
-3870 -3871 0
3869 3870 3871 0
-3872 -3873 0
-3872 -3874 0
-3873 -3874 0
3872 3873 3874 0
-3875 -3876 0
-3875 -3877 0
-3876 -3877 0
3875 3876 3877 0
-1866 -3878 0
-1866 -3879 0
-3878 -3879 0
1866 3878 3879 0
-1250 -3880 0
-1250 -3881 0
-3880 -3881 0
1250 3880 3881 0
-3882 -3883 0
-3882 -3884 0
-3883 -3884 0
3882 3883 3884 0
-3885 -3886 0
-3885 -3887 0
-3886 -3887 0
3885 3886 3887 0
-3888 -3889 0
-3888 -3890 0
-3889 -3890 0
3888 3889 3890 0
-3891 -3892 0
-3891 -3893 0
-3892 -3893 0
3891 3892 3893 0
-3497 -3894 0
-3497 -3895 0
-3894 -3895 0
3497 3894 3895 0
-3896 -3897 0
-3896 -3898 0
-3897 -3898 0
3896 3897 3898 0
-2709 -3266 0
-2709 -3899 0
-3266 -3899 0
2709 3266 3899 0
-2255 -3900 0
-2255 -3901 0
-3900 -3901 0
2255 3900 3901 0
-3902 -3903 0
-3902 -3904 0
-3903 -3904 0
3902 3903 3904 0
-747 -3905 0
-747 -3906 0
-3905 -3906 0
747 3905 3906 0
-3907 -3908 0
-3907 -3909 0
-3908 -3909 0
3907 3908 3909 0
-3910 -3911 0
-3910 -3912 0
-3911 -3912 0
3910 3911 3912 0
-3913 -3914 0
-3913 -3915 0
-3914 -3915 0
3913 3914 3915 0
-2756 -3916 0
-2756 -3917 0
-3916 -3917 0
2756 3916 3917 0
-864 -3918 0
-864 -3919 0
-3918 -3919 0
864 3918 3919 0
-1625 -1773 0
-1625 -3920 0
-1773 -3920 0
1625 1773 3920 0
-3921 -3922 0
-3921 -3923 0
-3922 -3923 0
3921 3922 3923 0
-3924 -3925 0
-3924 -3926 0
-3925 -3926 0
3924 3925 3926 0
-3927 -3928 0
-3927 -3929 0
-3928 -3929 0
3927 3928 3929 0
-3930 -3931 0
-3930 -3932 0
-3931 -3932 0
3930 3931 3932 0
-3933 -3934 0
-3933 -3935 0
-3934 -3935 0
3933 3934 3935 0
-712 -2627 0
-712 -3936 0
-2627 -3936 0
712 2627 3936 0
-3937 -3938 0
-3937 -3939 0
-3938 -3939 0
3937 3938 3939 0
-1582 -3373 0
-1582 -3940 0
-3373 -3940 0
1582 3373 3940 0
-3941 -3942 0
-3941 -3943 0
-3942 -3943 0
3941 3942 3943 0
-3944 -3945 0
-3944 -3946 0
-3945 -3946 0
3944 3945 3946 0
-3947 -3948 0
-3947 -3949 0
-3948 -3949 0
3947 3948 3949 0
-1512 -3950 0
-1512 -3951 0
-3950 -3951 0
1512 3950 3951 0
-3952 -3953 0
-3952 -3954 0
-3953 -3954 0
3952 3953 3954 0
-3955 -3956 0
-3955 -3957 0
-3956 -3957 0
3955 3956 3957 0
-3958 -3959 0
-3958 -3960 0
-3959 -3960 0
3958 3959 3960 0
-3961 -3962 0
-3961 -3963 0
-3962 -3963 0
3961 3962 3963 0
-3964 -3965 0
-3964 -3966 0
-3965 -3966 0
3964 3965 3966 0
-3967 -3968 0
-3967 -3969 0
-3968 -3969 0
3967 3968 3969 0
-237 -1261 0
-237 -3970 0
-1261 -3970 0
237 1261 3970 0
-2398 -3971 0
-2398 -3972 0
-3971 -3972 0
2398 3971 3972 0
-3973 -3974 0
-3973 -3975 0
-3974 -3975 0
3973 3974 3975 0
-238 -2819 0
-238 -3134 0
-2819 -3134 0
238 2819 3134 0
-3976 -3977 0
-3976 -3978 0
-3977 -3978 0
3976 3977 3978 0
-3979 -3980 0
-3979 -3981 0
-3980 -3981 0
3979 3980 3981 0
-3982 -3983 0
-3982 -3984 0
-3983 -3984 0
3982 3983 3984 0
-3985 -3986 0
-3985 -3987 0
-3986 -3987 0
3985 3986 3987 0
-3246 -3988 0
-3246 -3989 0
-3988 -3989 0
3246 3988 3989 0
-3990 -3991 0
-3990 -3992 0
-3991 -3992 0
3990 3991 3992 0
-3993 -3994 0
-3993 -3995 0
-3994 -3995 0
3993 3994 3995 0
-3996 -3997 0
-3996 -3998 0
-3997 -3998 0
3996 3997 3998 0
-3999 -4000 0
-3999 -4001 0
-4000 -4001 0
3999 4000 4001 0
-4002 -4003 0
-4002 -4004 0
-4003 -4004 0
4002 4003 4004 0
-4005 -4006 0
-4005 -4007 0
-4006 -4007 0
4005 4006 4007 0
-4008 -4009 0
-4008 -4010 0
-4009 -4010 0
4008 4009 4010 0
-4011 -4012 0
-4011 -4013 0
-4012 -4013 0
4011 4012 4013 0
-4014 -4015 0
-4014 -4016 0
-4015 -4016 0
4014 4015 4016 0
-4017 -4018 0
-4017 -4019 0
-4018 -4019 0
4017 4018 4019 0
-3844 -4020 0
-3844 -4021 0
-4020 -4021 0
3844 4020 4021 0
-4022 -4023 0
-4022 -4024 0
-4023 -4024 0
4022 4023 4024 0
-4025 -4026 0
-4025 -4027 0
-4026 -4027 0
4025 4026 4027 0
-1905 -4028 0
-1905 -4029 0
-4028 -4029 0
1905 4028 4029 0
-2044 -4030 0
-2044 -4031 0
-4030 -4031 0
2044 4030 4031 0
-4032 -4033 0
-4032 -4034 0
-4033 -4034 0
4032 4033 4034 0
-372 -1837 0
-372 -4035 0
-1837 -4035 0
372 1837 4035 0
-1454 -4036 0
-1454 -4037 0
-4036 -4037 0
1454 4036 4037 0
-4038 -4039 0
-4038 -4040 0
-4039 -4040 0
4038 4039 4040 0
-4041 -4042 0
-4041 -4043 0
-4042 -4043 0
4041 4042 4043 0
-56 -4044 0
-56 -4045 0
-4044 -4045 0
56 4044 4045 0
-4046 -4047 0
-4046 -4048 0
-4047 -4048 0
4046 4047 4048 0
-1297 -3044 0
-1297 -4049 0
-3044 -4049 0
1297 3044 4049 0
-1468 -4050 0
-1468 -4051 0
-4050 -4051 0
1468 4050 4051 0
-4052 -4053 0
-4052 -4054 0
-4053 -4054 0
4052 4053 4054 0
-4055 -4056 0
-4055 -4057 0
-4056 -4057 0
4055 4056 4057 0
-4058 -4059 0
-4058 -4060 0
-4059 -4060 0
4058 4059 4060 0
-797 -4061 0
-797 -4062 0
-4061 -4062 0
797 4061 4062 0
-4063 -4064 0
-4063 -4065 0
-4064 -4065 0
4063 4064 4065 0
-4066 -4067 0
-4066 -4068 0
-4067 -4068 0
4066 4067 4068 0
-4069 -4070 0
-4069 -4071 0
-4070 -4071 0
4069 4070 4071 0
-4072 -4073 0
-4072 -4074 0
-4073 -4074 0
4072 4073 4074 0
-4075 -4076 0
-4075 -4077 0
-4076 -4077 0
4075 4076 4077 0
-4078 -4079 0
-4078 -4080 0
-4079 -4080 0
4078 4079 4080 0
-4081 -4082 0
-4081 -4083 0
-4082 -4083 0
4081 4082 4083 0
-4084 -4085 0
-4084 -4086 0
-4085 -4086 0
4084 4085 4086 0
-4087 -4088 0
-4087 -4089 0
-4088 -4089 0
4087 4088 4089 0
-4090 -4091 0
-4090 -4092 0
-4091 -4092 0
4090 4091 4092 0
-1928 -4093 0
-1928 -4094 0
-4093 -4094 0
1928 4093 4094 0
-3941 -4095 0
-3941 -4096 0
-4095 -4096 0
3941 4095 4096 0
-4097 -4098 0
-4097 -4099 0
-4098 -4099 0
4097 4098 4099 0
-3532 -4100 0
-3532 -4101 0
-4100 -4101 0
3532 4100 4101 0
-991 -4102 0
-991 -4103 0
-4102 -4103 0
991 4102 4103 0
-4104 -4105 0
-4104 -4106 0
-4105 -4106 0
4104 4105 4106 0
-4107 -4108 0
-4107 -4109 0
-4108 -4109 0
4107 4108 4109 0
-3262 -4110 0
-3262 -4111 0
-4110 -4111 0
3262 4110 4111 0
-4112 -4113 0
-4112 -4114 0
-4113 -4114 0
4112 4113 4114 0
-4115 -4116 0
-4115 -4117 0
-4116 -4117 0
4115 4116 4117 0
-1869 -4118 0
-1869 -4119 0
-4118 -4119 0
1869 4118 4119 0
-3181 -4120 0
-3181 -4121 0
-4120 -4121 0
3181 4120 4121 0
-4122 -4123 0
-4122 -4124 0
-4123 -4124 0
4122 4123 4124 0
-4125 -4126 0
-4125 -4127 0
-4126 -4127 0
4125 4126 4127 0
-4128 -4129 0
-4128 -4130 0
-4129 -4130 0
4128 4129 4130 0
-4131 -4132 0
-4131 -4133 0
-4132 -4133 0
4131 4132 4133 0
-3498 -4134 0
-3498 -4135 0
-4134 -4135 0
3498 4134 4135 0
-4136 -4137 0
-4136 -4138 0
-4137 -4138 0
4136 4137 4138 0
-4139 -4140 0
-4139 -4141 0
-4140 -4141 0
4139 4140 4141 0
-4142 -4143 0
-4142 -4144 0
-4143 -4144 0
4142 4143 4144 0
-127 -4145 0
-127 -4146 0
-4145 -4146 0
127 4145 4146 0
-2909 -4147 0
-2909 -4148 0
-4147 -4148 0
2909 4147 4148 0
-4149 -4150 0
-4149 -4151 0
-4150 -4151 0
4149 4150 4151 0
-2342 -4152 0
-2342 -4153 0
-4152 -4153 0
2342 4152 4153 0
-4154 -4155 0
-4154 -4156 0
-4155 -4156 0
4154 4155 4156 0
-231 -4157 0
-231 -4158 0
-4157 -4158 0
231 4157 4158 0
-428 -4159 0
-428 -4160 0
-4159 -4160 0
428 4159 4160 0
-4161 -4162 0
-4161 -4163 0
-4162 -4163 0
4161 4162 4163 0
-4164 -4165 0
-4164 -4166 0
-4165 -4166 0
4164 4165 4166 0
-1801 -1922 0
-1801 -4167 0
-1922 -4167 0
1801 1922 4167 0
-4168 -4169 0
-4168 -4170 0
-4169 -4170 0
4168 4169 4170 0
-4171 -4172 0
-4171 -4173 0
-4172 -4173 0
4171 4172 4173 0
-1782 -4174 0
-1782 -4175 0
-4174 -4175 0
1782 4174 4175 0
-4176 -4177 0
-4176 -4178 0
-4177 -4178 0
4176 4177 4178 0
-4179 -4180 0
-4179 -4181 0
-4180 -4181 0
4179 4180 4181 0
-3913 -4182 0
-3913 -4183 0
-4182 -4183 0
3913 4182 4183 0
-1184 -4184 0
-1184 -4185 0
-4184 -4185 0
1184 4184 4185 0
-625 -1477 0
-625 -4186 0
-1477 -4186 0
625 1477 4186 0
-4187 -4188 0
-4187 -4189 0
-4188 -4189 0
4187 4188 4189 0
-1963 -4190 0
-1963 -4191 0
-4190 -4191 0
1963 4190 4191 0
-4192 -4193 0
-4192 -4194 0
-4193 -4194 0
4192 4193 4194 0
-1148 -4195 0
-1148 -4196 0
-4195 -4196 0
1148 4195 4196 0
-4197 -4198 0
-4197 -4199 0
-4198 -4199 0
4197 4198 4199 0
-1643 -4200 0
-1643 -4201 0
-4200 -4201 0
1643 4200 4201 0
-684 -4202 0
-684 -4203 0
-4202 -4203 0
684 4202 4203 0
-4204 -4205 0
-4204 -4206 0
-4205 -4206 0
4204 4205 4206 0
-814 -4207 0
-814 -4208 0
-4207 -4208 0
814 4207 4208 0
-3065 -4209 0
-3065 -4210 0
-4209 -4210 0
3065 4209 4210 0
-4211 -4212 0
-4211 -4213 0
-4212 -4213 0
4211 4212 4213 0
-1205 -4214 0
-1205 -4215 0
-4214 -4215 0
1205 4214 4215 0
-4216 -4217 0
-4216 -4218 0
-4217 -4218 0
4216 4217 4218 0
-4219 -4220 0
-4219 -4221 0
-4220 -4221 0
4219 4220 4221 0
-843 -4222 0
-843 -4223 0
-4222 -4223 0
843 4222 4223 0
-4224 -4225 0
-4224 -4226 0
-4225 -4226 0
4224 4225 4226 0
-2206 -4227 0
-2206 -4228 0
-4227 -4228 0
2206 4227 4228 0
-4229 -4230 0
-4229 -4231 0
-4230 -4231 0
4229 4230 4231 0
-4232 -4233 0
-4232 -4234 0
-4233 -4234 0
4232 4233 4234 0
-4235 -4236 0
-4235 -4237 0
-4236 -4237 0
4235 4236 4237 0
-2071 -2704 0
-2071 -4238 0
-2704 -4238 0
2071 2704 4238 0
-4239 -4240 0
-4239 -4241 0
-4240 -4241 0
4239 4240 4241 0
-1736 -4242 0
-1736 -4243 0
-4242 -4243 0
1736 4242 4243 0
-4244 -4245 0
-4244 -4246 0
-4245 -4246 0
4244 4245 4246 0
-461 -4247 0
-461 -4248 0
-4247 -4248 0
461 4247 4248 0
-4249 -4250 0
-4249 -4251 0
-4250 -4251 0
4249 4250 4251 0
-4252 -4253 0
-4252 -4254 0
-4253 -4254 0
4252 4253 4254 0
-1752 -4255 0
-1752 -4256 0
-4255 -4256 0
1752 4255 4256 0
-4257 -4258 0
-4257 -4259 0
-4258 -4259 0
4257 4258 4259 0
-4260 -4261 0
-4260 -4262 0
-4261 -4262 0
4260 4261 4262 0
-3291 -4263 0
-3291 -4264 0
-4263 -4264 0
3291 4263 4264 0
-4265 -4266 0
-4265 -4267 0
-4266 -4267 0
4265 4266 4267 0
-4268 -4269 0
-4268 -4270 0
-4269 -4270 0
4268 4269 4270 0
-2991 -4271 0
-2991 -4272 0
-4271 -4272 0
2991 4271 4272 0
-484 -2129 0
-484 -4273 0
-2129 -4273 0
484 2129 4273 0
-4274 -4275 0
-4274 -4276 0
-4275 -4276 0
4274 4275 4276 0
-4277 -4278 0
-4277 -4279 0
-4278 -4279 0
4277 4278 4279 0
-4032 -4280 0
-4032 -4281 0
-4280 -4281 0
4032 4280 4281 0
-2022 -4282 0
-2022 -4283 0
-4282 -4283 0
2022 4282 4283 0
-70 -3806 0
-70 -4284 0
-3806 -4284 0
70 3806 4284 0
-4285 -4286 0
-4285 -4287 0
-4286 -4287 0
4285 4286 4287 0
-4288 -4289 0
-4288 -4290 0
-4289 -4290 0
4288 4289 4290 0
-4291 -4292 0
-4291 -4293 0
-4292 -4293 0
4291 4292 4293 0
-4294 -4295 0
-4294 -4296 0
-4295 -4296 0
4294 4295 4296 0
-2574 -4297 0
-2574 -4298 0
-4297 -4298 0
2574 4297 4298 0
-4299 -4300 0
-4299 -4301 0
-4300 -4301 0
4299 4300 4301 0
-4302 -4303 0
-4302 -4304 0
-4303 -4304 0
4302 4303 4304 0
-614 -4305 0
-614 -4306 0
-4305 -4306 0
614 4305 4306 0
-2436 -3491 0
-2436 -4307 0
-3491 -4307 0
2436 3491 4307 0
-4308 -4309 0
-4308 -4310 0
-4309 -4310 0
4308 4309 4310 0
-4311 -4312 0
-4311 -4313 0
-4312 -4313 0
4311 4312 4313 0
-4314 -4315 0
-4314 -4316 0
-4315 -4316 0
4314 4315 4316 0
-4317 -4318 0
-4317 -4319 0
-4318 -4319 0
4317 4318 4319 0
-4320 -4321 0
-4320 -4322 0
-4321 -4322 0
4320 4321 4322 0
-2166 -4323 0
-2166 -4324 0
-4323 -4324 0
2166 4323 4324 0
-4325 -4326 0
-4325 -4327 0
-4326 -4327 0
4325 4326 4327 0
-4328 -4329 0
-4328 -4330 0
-4329 -4330 0
4328 4329 4330 0
-4331 -4332 0
-4331 -4333 0
-4332 -4333 0
4331 4332 4333 0
-4334 -4335 0
-4334 -4336 0
-4335 -4336 0
4334 4335 4336 0
-4337 -4338 0
-4337 -4339 0
-4338 -4339 0
4337 4338 4339 0
-4340 -4341 0
-4340 -4342 0
-4341 -4342 0
4340 4341 4342 0
-2741 -4343 0
-2741 -4344 0
-4343 -4344 0
2741 4343 4344 0
-1637 -4345 0
-1637 -4346 0
-4345 -4346 0
1637 4345 4346 0
-1835 -4347 0
-1835 -4348 0
-4347 -4348 0
1835 4347 4348 0
-4349 -4350 0
-4349 -4351 0
-4350 -4351 0
4349 4350 4351 0
-4352 -4353 0
-4352 -4354 0
-4353 -4354 0
4352 4353 4354 0
-4355 -4356 0
-4355 -4357 0
-4356 -4357 0
4355 4356 4357 0
-4358 -4359 0
-4358 -4360 0
-4359 -4360 0
4358 4359 4360 0
-4361 -4362 0
-4361 -4363 0
-4362 -4363 0
4361 4362 4363 0
-1338 -4364 0
-1338 -4365 0
-4364 -4365 0
1338 4364 4365 0
-4214 -4366 0
-4214 -4367 0
-4366 -4367 0
4214 4366 4367 0
-1058 -4368 0
-1058 -4369 0
-4368 -4369 0
1058 4368 4369 0
-3819 -4370 0
-3819 -4371 0
-4370 -4371 0
3819 4370 4371 0
-4372 -4373 0
-4372 -4374 0
-4373 -4374 0
4372 4373 4374 0
-4375 -4376 0
-4375 -4377 0
-4376 -4377 0
4375 4376 4377 0
-354 -4378 0
-354 -4379 0
-4378 -4379 0
354 4378 4379 0
-4380 -4381 0
-4380 -4382 0
-4381 -4382 0
4380 4381 4382 0
-4383 -4384 0
-4383 -4385 0
-4384 -4385 0
4383 4384 4385 0
-2825 -4386 0
-2825 -4387 0
-4386 -4387 0
2825 4386 4387 0
-4388 -4389 0
-4388 -4390 0
-4389 -4390 0
4388 4389 4390 0
-3847 -4391 0
-3847 -4392 0
-4391 -4392 0
3847 4391 4392 0
-4393 -4394 0
-4393 -4395 0
-4394 -4395 0
4393 4394 4395 0
-4396 -4397 0
-4396 -4398 0
-4397 -4398 0
4396 4397 4398 0
-4399 -4400 0
-4399 -4401 0
-4400 -4401 0
4399 4400 4401 0
-4402 -4403 0
-4402 -4404 0
-4403 -4404 0
4402 4403 4404 0
-4405 -4406 0
-4405 -4407 0
-4406 -4407 0
4405 4406 4407 0
-1367 -3933 0
-1367 -4408 0
-3933 -4408 0
1367 3933 4408 0
-4187 -4409 0
-4187 -4410 0
-4409 -4410 0
4187 4409 4410 0
-4411 -4412 0
-4411 -4413 0
-4412 -4413 0
4411 4412 4413 0
-4414 -4415 0
-4414 -4416 0
-4415 -4416 0
4414 4415 4416 0
-4417 -4418 0
-4417 -4419 0
-4418 -4419 0
4417 4418 4419 0
-396 -4420 0
-396 -4421 0
-4420 -4421 0
396 4420 4421 0
-4422 -4423 0
-4422 -4424 0
-4423 -4424 0
4422 4423 4424 0
-4425 -4426 0
-4425 -4427 0
-4426 -4427 0
4425 4426 4427 0
-4428 -4429 0
-4428 -4430 0
-4429 -4430 0
4428 4429 4430 0
-4268 -4431 0
-4268 -4432 0
-4431 -4432 0
4268 4431 4432 0
-4433 -4434 0
-4433 -4435 0
-4434 -4435 0
4433 4434 4435 0
-4436 -4437 0
-4436 -4438 0
-4437 -4438 0
4436 4437 4438 0
-4439 -4440 0
-4439 -4441 0
-4440 -4441 0
4439 4440 4441 0
-3864 -4442 0
-3864 -4443 0
-4442 -4443 0
3864 4442 4443 0
-4444 -4445 0
-4444 -4446 0
-4445 -4446 0
4444 4445 4446 0
-2470 -4447 0
-2470 -4448 0
-4447 -4448 0
2470 4447 4448 0
-3033 -4449 0
-3033 -4450 0
-4449 -4450 0
3033 4449 4450 0
-183 -4451 0
-183 -4452 0
-4451 -4452 0
183 4451 4452 0
-3485 -4453 0
-3485 -4454 0
-4453 -4454 0
3485 4453 4454 0
-1251 -4455 0
-1251 -4456 0
-4455 -4456 0
1251 4455 4456 0
-2242 -3286 0
-2242 -4457 0
-3286 -4457 0
2242 3286 4457 0
-4458 -4459 0
-4458 -4460 0
-4459 -4460 0
4458 4459 4460 0
-4461 -4462 0
-4461 -4463 0
-4462 -4463 0
4461 4462 4463 0
-4464 -4465 0
-4464 -4466 0
-4465 -4466 0
4464 4465 4466 0
-4467 -4468 0
-4467 -4469 0
-4468 -4469 0
4467 4468 4469 0
-4470 -4471 0
-4470 -4472 0
-4471 -4472 0
4470 4471 4472 0
-2634 -4473 0
-2634 -4474 0
-4473 -4474 0
2634 4473 4474 0
-1224 -4475 0
-1224 -4476 0
-4475 -4476 0
1224 4475 4476 0
-2143 -4477 0
-2143 -4478 0
-4477 -4478 0
2143 4477 4478 0
-4479 -4480 0
-4479 -4481 0
-4480 -4481 0
4479 4480 4481 0
-4482 -4483 0
-4482 -4484 0
-4483 -4484 0
4482 4483 4484 0
-4485 -4486 0
-4485 -4487 0
-4486 -4487 0
4485 4486 4487 0
-4030 -4488 0
-4030 -4489 0
-4488 -4489 0
4030 4488 4489 0
-4490 -4491 0
-4490 -4492 0
-4491 -4492 0
4490 4491 4492 0
-4493 -4494 0
-4493 -4495 0
-4494 -4495 0
4493 4494 4495 0
-777 -4496 0
-777 -4497 0
-4496 -4497 0
777 4496 4497 0
-4498 -4499 0
-4498 -4500 0
-4499 -4500 0
4498 4499 4500 0
-4501 -4502 0
-4501 -4503 0
-4502 -4503 0
4501 4502 4503 0
-4504 -4505 0
-4504 -4506 0
-4505 -4506 0
4504 4505 4506 0
-4507 -4508 0
-4507 -4509 0
-4508 -4509 0
4507 4508 4509 0
-753 -4510 0
-753 -4511 0
-4510 -4511 0
753 4510 4511 0
-2947 -4512 0
-2947 -4513 0
-4512 -4513 0
2947 4512 4513 0
-1236 -4514 0
-1236 -4515 0
-4514 -4515 0
1236 4514 4515 0
-4516 -4517 0
-4516 -4518 0
-4517 -4518 0
4516 4517 4518 0
-1558 -4519 0
-1558 -4520 0
-4519 -4520 0
1558 4519 4520 0
-2068 -4521 0
-2068 -4522 0
-4521 -4522 0
2068 4521 4522 0
-4523 -4524 0
-4523 -4525 0
-4524 -4525 0
4523 4524 4525 0
-4526 -4527 0
-4526 -4528 0
-4527 -4528 0
4526 4527 4528 0
-4529 -4530 0
-4529 -4531 0
-4530 -4531 0
4529 4530 4531 0
-4532 -4533 0
-4532 -4534 0
-4533 -4534 0
4532 4533 4534 0
-4535 -4536 0
-4535 -4537 0
-4536 -4537 0
4535 4536 4537 0
-1089 -4538 0
-1089 -4539 0
-4538 -4539 0
1089 4538 4539 0
-4540 -4541 0
-4540 -4542 0
-4541 -4542 0
4540 4541 4542 0
-4543 -4544 0
-4543 -4545 0
-4544 -4545 0
4543 4544 4545 0
-1619 -1674 0
-1619 -4546 0
-1674 -4546 0
1619 1674 4546 0
-387 -4547 0
-387 -4548 0
-4547 -4548 0
387 4547 4548 0
-4549 -4550 0
-4549 -4551 0
-4550 -4551 0
4549 4550 4551 0
-4552 -4553 0
-4552 -4554 0
-4553 -4554 0
4552 4553 4554 0
-1593 -4555 0
-1593 -4556 0
-4555 -4556 0
1593 4555 4556 0
-1416 -4557 0
-1416 -4558 0
-4557 -4558 0
1416 4557 4558 0
-4559 -4560 0
-4559 -4561 0
-4560 -4561 0
4559 4560 4561 0
-4562 -4563 0
-4562 -4564 0
-4563 -4564 0
4562 4563 4564 0
-4565 -4566 0
-4565 -4567 0
-4566 -4567 0
4565 4566 4567 0
-3711 -4568 0
-3711 -4569 0
-4568 -4569 0
3711 4568 4569 0
-4570 -4571 0
-4570 -4572 0
-4571 -4572 0
4570 4571 4572 0
-4573 -4574 0
-4573 -4575 0
-4574 -4575 0
4573 4574 4575 0
-2478 -4576 0
-2478 -4577 0
-4576 -4577 0
2478 4576 4577 0
-4578 -4579 0
-4578 -4580 0
-4579 -4580 0
4578 4579 4580 0
-729 -4581 0
-729 -4582 0
-4581 -4582 0
729 4581 4582 0
-1724 -2031 0
-1724 -4583 0
-2031 -4583 0
1724 2031 4583 0
-2594 -4584 0
-2594 -4585 0
-4584 -4585 0
2594 4584 4585 0
-4586 -4587 0
-4586 -4588 0
-4587 -4588 0
4586 4587 4588 0
-1937 -4589 0
-1937 -4590 0
-4589 -4590 0
1937 4589 4590 0
-4591 -4592 0
-4591 -4593 0
-4592 -4593 0
4591 4592 4593 0
-4594 -4595 0
-4594 -4596 0
-4595 -4596 0
4594 4595 4596 0
-704 -4597 0
-704 -4598 0
-4597 -4598 0
704 4597 4598 0
-4599 -4600 0
-4599 -4601 0
-4600 -4601 0
4599 4600 4601 0
-4602 -4603 0
-4602 -4604 0
-4603 -4604 0
4602 4603 4604 0
-151 -2956 0
-151 -4605 0
-2956 -4605 0
151 2956 4605 0
-3403 -4606 0
-3403 -4607 0
-4606 -4607 0
3403 4606 4607 0
-4608 -4609 0
-4608 -4610 0
-4609 -4610 0
4608 4609 4610 0
-94 -4611 0
-94 -4612 0
-4611 -4612 0
94 4611 4612 0
-4613 -4614 0
-4613 -4615 0
-4614 -4615 0
4613 4614 4615 0
-490 -4616 0
-490 -4617 0
-4616 -4617 0
490 4616 4617 0
-1916 -2095 0
-1916 -4618 0
-2095 -4618 0
1916 2095 4618 0
-4619 -4620 0
-4619 -4621 0
-4620 -4621 0
4619 4620 4621 0
-4090 -4453 0
-4090 -4622 0
-4453 -4622 0
4090 4453 4622 0
-4623 -4624 0
-4623 -4625 0
-4624 -4625 0
4623 4624 4625 0
-4626 -4627 0
-4626 -4628 0
-4627 -4628 0
4626 4627 4628 0
-3406 -4629 0
-3406 -4630 0
-4629 -4630 0
3406 4629 4630 0
-3857 -4631 0
-3857 -4632 0
-4631 -4632 0
3857 4631 4632 0
-4349 -4633 0
-4349 -4634 0
-4633 -4634 0
4349 4633 4634 0
-4635 -4636 0
-4635 -4637 0
-4636 -4637 0
4635 4636 4637 0
-4638 -4639 0
-4638 -4640 0
-4639 -4640 0
4638 4639 4640 0
-4641 -4642 0
-4641 -4643 0
-4642 -4643 0
4641 4642 4643 0
-2845 -3801 0
-2845 -4644 0
-3801 -4644 0
2845 3801 4644 0
-4645 -4646 0
-4645 -4647 0
-4646 -4647 0
4645 4646 4647 0
-4648 -4649 0
-4648 -4650 0
-4649 -4650 0
4648 4649 4650 0
-2982 -4651 0
-2982 -4652 0
-4651 -4652 0
2982 4651 4652 0
-1119 -4653 0
-1119 -4654 0
-4653 -4654 0
1119 4653 4654 0
-4655 -4656 0
-4655 -4657 0
-4656 -4657 0
4655 4656 4657 0
-4658 -4659 0
-4658 -4660 0
-4659 -4660 0
4658 4659 4660 0
-4661 -4662 0
-4661 -4663 0
-4662 -4663 0
4661 4662 4663 0
-4664 -4665 0
-4664 -4666 0
-4665 -4666 0
4664 4665 4666 0
-4667 -4668 0
-4667 -4669 0
-4668 -4669 0
4667 4668 4669 0
-4670 -4671 0
-4670 -4672 0
-4671 -4672 0
4670 4671 4672 0
-4673 -4674 0
-4673 -4675 0
-4674 -4675 0
4673 4674 4675 0
-4676 -4677 0
-4676 -4678 0
-4677 -4678 0
4676 4677 4678 0
-4679 -4680 0
-4679 -4681 0
-4680 -4681 0
4679 4680 4681 0
-4682 -4683 0
-4682 -4684 0
-4683 -4684 0
4682 4683 4684 0
-4685 -4686 0
-4685 -4687 0
-4686 -4687 0
4685 4686 4687 0
-2140 -4688 0
-2140 -4689 0
-4688 -4689 0
2140 4688 4689 0
-4081 -4690 0
-4081 -4691 0
-4690 -4691 0
4081 4690 4691 0
-4692 -4693 0
-4692 -4694 0
-4693 -4694 0
4692 4693 4694 0
-4695 -4696 0
-4695 -4697 0
-4696 -4697 0
4695 4696 4697 0
-4698 -4699 0
-4698 -4700 0
-4699 -4700 0
4698 4699 4700 0
-4701 -4702 0
-4701 -4703 0
-4702 -4703 0
4701 4702 4703 0
-4704 -4705 0
-4704 -4706 0
-4705 -4706 0
4704 4705 4706 0
-4707 -4708 0
-4707 -4709 0
-4708 -4709 0
4707 4708 4709 0
-4710 -4711 0
-4710 -4712 0
-4711 -4712 0
4710 4711 4712 0
-190 -4713 0
-190 -4714 0
-4713 -4714 0
190 4713 4714 0
-1208 -4715 0
-1208 -4716 0
-4715 -4716 0
1208 4715 4716 0
-4717 -4718 0
-4717 -4719 0
-4718 -4719 0
4717 4718 4719 0
-1403 -3341 0
-1403 -4720 0
-3341 -4720 0
1403 3341 4720 0
-4721 -4722 0
-4721 -4723 0
-4722 -4723 0
4721 4722 4723 0
-4724 -4725 0
-4724 -4726 0
-4725 -4726 0
4724 4725 4726 0
-4727 -4728 0
-4727 -4729 0
-4728 -4729 0
4727 4728 4729 0
-4730 -4731 0
-4730 -4732 0
-4731 -4732 0
4730 4731 4732 0
-4733 -4734 0
-4733 -4735 0
-4734 -4735 0
4733 4734 4735 0
-198 -4736 0
-198 -4737 0
-4736 -4737 0
198 4736 4737 0
-4738 -4739 0
-4738 -4740 0
-4739 -4740 0
4738 4739 4740 0
-4741 -4742 0
-4741 -4743 0
-4742 -4743 0
4741 4742 4743 0
-4744 -4745 0
-4744 -4746 0
-4745 -4746 0
4744 4745 4746 0
-4747 -4748 0
-4747 -4749 0
-4748 -4749 0
4747 4748 4749 0
-4750 -4751 0
-4750 -4752 0
-4751 -4752 0
4750 4751 4752 0
-4753 -4754 0
-4753 -4755 0
-4754 -4755 0
4753 4754 4755 0
-2712 -4055 0
-2712 -4756 0
-4055 -4756 0
2712 4055 4756 0
-3178 -4757 0
-3178 -4758 0
-4757 -4758 0
3178 4757 4758 0
-3464 -4759 0
-3464 -4760 0
-4759 -4760 0
3464 4759 4760 0
-3952 -4761 0
-3952 -4762 0
-4761 -4762 0
3952 4761 4762 0
-2430 -4763 0
-2430 -4764 0
-4763 -4764 0
2430 4763 4764 0
-1820 -4765 0
-1820 -4766 0
-4765 -4766 0
1820 4765 4766 0
-4767 -4768 0
-4767 -4769 0
-4768 -4769 0
4767 4768 4769 0
-4770 -4771 0
-4770 -4772 0
-4771 -4772 0
4770 4771 4772 0
-4773 -4774 0
-4773 -4775 0
-4774 -4775 0
4773 4774 4775 0
-1669 -3958 0
-1669 -4776 0
-3958 -4776 0
1669 3958 4776 0
-4777 -4778 0
-4777 -4779 0
-4778 -4779 0
4777 4778 4779 0
-4780 -4781 0
-4780 -4782 0
-4781 -4782 0
4780 4781 4782 0
-1608 -4783 0
-1608 -4784 0
-4783 -4784 0
1608 4783 4784 0
-3349 -4785 0
-3349 -4786 0
-4785 -4786 0
3349 4785 4786 0
-4787 -4788 0
-4787 -4789 0
-4788 -4789 0
4787 4788 4789 0
-4790 -4791 0
-4790 -4792 0
-4791 -4792 0
4790 4791 4792 0
-1931 -2491 0
-1931 -4512 0
-2491 -4512 0
1931 2491 4512 0
-3488 -4793 0
-3488 -4794 0
-4793 -4794 0
3488 4793 4794 0
-4795 -4796 0
-4795 -4797 0
-4796 -4797 0
4795 4796 4797 0
-4798 -4799 0
-4798 -4800 0
-4799 -4800 0
4798 4799 4800 0
-2276 -4801 0
-2276 -4802 0
-4801 -4802 0
2276 4801 4802 0
-4803 -4804 0
-4803 -4805 0
-4804 -4805 0
4803 4804 4805 0
-4806 -4807 0
-4806 -4808 0
-4807 -4808 0
4806 4807 4808 0
-47 -4809 0
-47 -4810 0
-4809 -4810 0
47 4809 4810 0
-4811 -4812 0
-4811 -4813 0
-4812 -4813 0
4811 4812 4813 0
-4814 -4815 0
-4814 -4816 0
-4815 -4816 0
4814 4815 4816 0
-4817 -4818 0
-4817 -4819 0
-4818 -4819 0
4817 4818 4819 0
-477 -4820 0
-477 -4821 0
-4820 -4821 0
477 4820 4821 0
-4822 -4823 0
-4822 -4824 0
-4823 -4824 0
4822 4823 4824 0
-4825 -4826 0
-4825 -4827 0
-4826 -4827 0
4825 4826 4827 0
-3358 -4828 0
-3358 -4829 0
-4828 -4829 0
3358 4828 4829 0
-2395 -4830 0
-2395 -4831 0
-4830 -4831 0
2395 4830 4831 0
-4347 -4832 0
-4347 -4833 0
-4832 -4833 0
4347 4832 4833 0
-2948 -4834 0
-2948 -4835 0
-4834 -4835 0
2948 4834 4835 0
-4836 -4837 0
-4836 -4838 0
-4837 -4838 0
4836 4837 4838 0
-3803 -4839 0
-3803 -4840 0
-4839 -4840 0
3803 4839 4840 0
-2336 -4841 0
-2336 -4842 0
-4841 -4842 0
2336 4841 4842 0
-4843 -4844 0
-4843 -4845 0
-4844 -4845 0
4843 4844 4845 0
-529 -4846 0
-529 -4847 0
-4846 -4847 0
529 4846 4847 0
-2900 -4848 0
-2900 -4849 0
-4848 -4849 0
2900 4848 4849 0
-4271 -4850 0
-4271 -4851 0
-4850 -4851 0
4271 4850 4851 0
-837 -4852 0
-837 -4853 0
-4852 -4853 0
837 4852 4853 0
-4854 -4855 0
-4854 -4856 0
-4855 -4856 0
4854 4855 4856 0
-2571 -4857 0
-2571 -4858 0
-4857 -4858 0
2571 4857 4858 0
-331 -4859 0
-331 -4860 0
-4859 -4860 0
331 4859 4860 0
-4861 -4862 0
-4861 -4863 0
-4862 -4863 0
4861 4862 4863 0
-4864 -4865 0
-4864 -4866 0
-4865 -4866 0
4864 4865 4866 0
-4867 -4868 0
-4867 -4869 0
-4868 -4869 0
4867 4868 4869 0
-3124 -4870 0
-3124 -4871 0
-4870 -4871 0
3124 4870 4871 0
-4872 -4873 0
-4872 -4874 0
-4873 -4874 0
4872 4873 4874 0
-4875 -4876 0
-4875 -4877 0
-4876 -4877 0
4875 4876 4877 0
-2875 -4878 0
-2875 -4879 0
-4878 -4879 0
2875 4878 4879 0
-1356 -4880 0
-1356 -4881 0
-4880 -4881 0
1356 4880 4881 0
-1680 -4882 0
-1680 -4883 0
-4882 -4883 0
1680 4882 4883 0
-4884 -4885 0
-4884 -4886 0
-4885 -4886 0
4884 4885 4886 0
-4887 -4888 0
-4887 -4889 0
-4888 -4889 0
4887 4888 4889 0
-890 -4890 0
-890 -4891 0
-4890 -4891 0
890 4890 4891 0
-644 -4892 0
-644 -4893 0
-4892 -4893 0
644 4892 4893 0
-1870 -4894 0
-1870 -4895 0
-4894 -4895 0
1870 4894 4895 0
-107 -1574 0
-107 -4896 0
-1574 -4896 0
107 1574 4896 0
-3522 -4897 0
-3522 -4898 0
-4897 -4898 0
3522 4897 4898 0
-1740 -2069 0
-1740 -4899 0
-2069 -4899 0
1740 2069 4899 0
-1020 -4900 0
-1020 -4901 0
-4900 -4901 0
1020 4900 4901 0
-1969 -4902 0
-1969 -4903 0
-4902 -4903 0
1969 4902 4903 0
-1712 -4904 0
-1712 -4905 0
-4904 -4905 0
1712 4904 4905 0
-420 -4906 0
-420 -4907 0
-4906 -4907 0
420 4906 4907 0
-4908 -4909 0
-4908 -4910 0
-4909 -4910 0
4908 4909 4910 0
-4911 -4912 0
-4911 -4913 0
-4912 -4913 0
4911 4912 4913 0
-4325 -4914 0
-4325 -4915 0
-4914 -4915 0
4325 4914 4915 0
-4916 -4917 0
-4916 -4918 0
-4917 -4918 0
4916 4917 4918 0
-4825 -4919 0
-4825 -4920 0
-4919 -4920 0
4825 4919 4920 0
-650 -1412 0
-650 -4921 0
-1412 -4921 0
650 1412 4921 0
-4922 -4923 0
-4922 -4924 0
-4923 -4924 0
4922 4923 4924 0
-4555 -4925 0
-4555 -4926 0
-4925 -4926 0
4555 4925 4926 0
-717 -4927 0
-717 -4928 0
-4927 -4928 0
717 4927 4928 0
-3673 -4929 0
-3673 -4930 0
-4929 -4930 0
3673 4929 4930 0
-449 -4599 0
-449 -4931 0
-4599 -4931 0
449 4599 4931 0
-4932 -4933 0
-4932 -4934 0
-4933 -4934 0
4932 4933 4934 0
-4935 -4936 0
-4935 -4937 0
-4936 -4937 0
4935 4936 4937 0
-1218 -2315 0
-1218 -4938 0
-2315 -4938 0
1218 2315 4938 0
-1887 -4939 0
-1887 -4940 0
-4939 -4940 0
1887 4939 4940 0
-3076 -4941 0
-3076 -4942 0
-4941 -4942 0
3076 4941 4942 0
-228 -2372 0
-228 -2404 0
-2372 -2404 0
228 2372 2404 0
-4943 -4944 0
-4943 -4945 0
-4944 -4945 0
4943 4944 4945 0
-1626 -4946 0
-1626 -4947 0
-4946 -4947 0
1626 4946 4947 0
-232 -4948 0
-232 -4949 0
-4948 -4949 0
232 4948 4949 0
-4950 -4951 0
-4950 -4952 0
-4951 -4952 0
4950 4951 4952 0
-4953 -4954 0
-4953 -4955 0
-4954 -4955 0
4953 4954 4955 0
-4956 -4957 0
-4956 -4958 0
-4957 -4958 0
4956 4957 4958 0
-4959 -4960 0
-4959 -4961 0
-4960 -4961 0
4959 4960 4961 0
-4962 -4963 0
-4962 -4964 0
-4963 -4964 0
4962 4963 4964 0
-2409 -2809 0
-2409 -4965 0
-2809 -4965 0
2409 2809 4965 0
-4966 -4967 0
-4966 -4968 0
-4967 -4968 0
4966 4967 4968 0
-4969 -4970 0
-4969 -4971 0
-4970 -4971 0
4969 4970 4971 0
-4972 -4973 0
-4972 -4974 0
-4973 -4974 0
4972 4973 4974 0
-19 -4975 0
-19 -4976 0
-4975 -4976 0
19 4975 4976 0
-4977 -4978 0
-4977 -4979 0
-4978 -4979 0
4977 4978 4979 0
-2720 -4980 0
-2720 -4981 0
-4980 -4981 0
2720 4980 4981 0
-4982 -4983 0
-4982 -4984 0
-4983 -4984 0
4982 4983 4984 0
-3516 -4985 0
-3516 -4986 0
-4985 -4986 0
3516 4985 4986 0
-1480 -4519 0
-1480 -4987 0
-4519 -4987 0
1480 4519 4987 0
-4058 -4988 0
-4058 -4989 0
-4988 -4989 0
4058 4988 4989 0
-4990 -4991 0
-4990 -4992 0
-4991 -4992 0
4990 4991 4992 0
-2516 -4993 0
-2516 -4994 0
-4993 -4994 0
2516 4993 4994 0
-2480 -4995 0
-2480 -4996 0
-4995 -4996 0
2480 4995 4996 0
-559 -4997 0
-559 -4998 0
-4997 -4998 0
559 4997 4998 0
-4176 -4999 0
-4176 -5000 0
-4999 -5000 0
4176 4999 5000 0
-1041 -5001 0
-1041 -5002 0
-5001 -5002 0
1041 5001 5002 0
-3626 -5003 0
-3626 -5004 0
-5003 -5004 0
3626 5003 5004 0
-5005 -5006 0
-5005 -5007 0
-5006 -5007 0
5005 5006 5007 0
-517 -2079 0
-517 -5008 0
-2079 -5008 0
517 2079 5008 0
-1532 -2698 0
-1532 -5009 0
-2698 -5009 0
1532 2698 5009 0
-3213 -5010 0
-3213 -5011 0
-5010 -5011 0
3213 5010 5011 0
-5012 -5013 0
-5012 -5014 0
-5013 -5014 0
5012 5013 5014 0
-5015 -5016 0
-5015 -5017 0
-5016 -5017 0
5015 5016 5017 0
-205 -5018 0
-205 -5019 0
-5018 -5019 0
205 5018 5019 0
-5020 -5021 0
-5020 -5022 0
-5021 -5022 0
5020 5021 5022 0
-3099 -5023 0
-3099 -5024 0
-5023 -5024 0
3099 5023 5024 0
-5025 -5026 0
-5025 -5027 0
-5026 -5027 0
5025 5026 5027 0
-3097 -5028 0
-3097 -5029 0
-5028 -5029 0
3097 5028 5029 0
-4168 -5030 0
-4168 -5031 0
-5030 -5031 0
4168 5030 5031 0
-2283 -5032 0
-2283 -5033 0
-5032 -5033 0
2283 5032 5033 0
-5034 -5035 0
-5034 -5036 0
-5035 -5036 0
5034 5035 5036 0
-5037 -5038 0
-5037 -5039 0
-5038 -5039 0
5037 5038 5039 0
-619 -5040 0
-619 -5041 0
-5040 -5041 0
619 5040 5041 0
-1514 -4297 0
-1514 -5042 0
-4297 -5042 0
1514 4297 5042 0
-5043 -5044 0
-5043 -5045 0
-5044 -5045 0
5043 5044 5045 0
-5046 -5047 0
-5046 -5048 0
-5047 -5048 0
5046 5047 5048 0
-4777 -4857 0
-4777 -5049 0
-4857 -5049 0
4777 4857 5049 0
-5050 -5051 0
-5050 -5052 0
-5051 -5052 0
5050 5051 5052 0
-446 -1893 0
-446 -5053 0
-1893 -5053 0
446 1893 5053 0
-5054 -5055 0
-5054 -5056 0
-5055 -5056 0
5054 5055 5056 0
-5057 -5058 0
-5057 -5059 0
-5058 -5059 0
5057 5058 5059 0
-5060 -5061 0
-5060 -5062 0
-5061 -5062 0
5060 5061 5062 0
-5063 -5064 0
-5063 -5065 0
-5064 -5065 0
5063 5064 5065 0
-2620 -5066 0
-2620 -5067 0
-5066 -5067 0
2620 5066 5067 0
-4880 -5068 0
-4880 -5069 0
-5068 -5069 0
4880 5068 5069 0
-5070 -5071 0
-5070 -5072 0
-5071 -5072 0
5070 5071 5072 0
-5073 -5074 0
-5073 -5075 0
-5074 -5075 0
5073 5074 5075 0
-5076 -5077 0
-5076 -5078 0
-5077 -5078 0
5076 5077 5078 0
-5079 -5080 0
-5079 -5081 0
-5080 -5081 0
5079 5080 5081 0
-5082 -5083 0
-5082 -5084 0
-5083 -5084 0
5082 5083 5084 0
-512 -5085 0
-512 -5086 0
-5085 -5086 0
512 5085 5086 0
-1451 -5087 0
-1451 -5088 0
-5087 -5088 0
1451 5087 5088 0
-5089 -5090 0
-5089 -5091 0
-5090 -5091 0
5089 5090 5091 0
-5092 -5093 0
-5092 -5094 0
-5093 -5094 0
5092 5093 5094 0
-5095 -5096 0
-5095 -5097 0
-5096 -5097 0
5095 5096 5097 0
-5098 -5099 0
-5098 -5100 0
-5099 -5100 0
5098 5099 5100 0
-5101 -5102 0
-5101 -5103 0
-5102 -5103 0
5101 5102 5103 0
-2565 -5104 0
-2565 -5105 0
-5104 -5105 0
2565 5104 5105 0
-5106 -5107 0
-5106 -5108 0
-5107 -5108 0
5106 5107 5108 0
-5109 -5110 0
-5109 -5111 0
-5110 -5111 0
5109 5110 5111 0
-5112 -5113 0
-5112 -5114 0
-5113 -5114 0
5112 5113 5114 0
-2466 -5115 0
-2466 -5116 0
-5115 -5116 0
2466 5115 5116 0
-455 -1549 0
-455 -5117 0
-1549 -5117 0
455 1549 5117 0
-4174 -5118 0
-4174 -5119 0
-5118 -5119 0
4174 5118 5119 0
-4482 -5120 0
-4482 -5121 0
-5120 -5121 0
4482 5120 5121 0
-5122 -5123 0
-5122 -5124 0
-5123 -5124 0
5122 5123 5124 0
-5125 -5126 0
-5125 -5127 0
-5126 -5127 0
5125 5126 5127 0
-721 -5128 0
-721 -5129 0
-5128 -5129 0
721 5128 5129 0
-5130 -5131 0
-5130 -5132 0
-5131 -5132 0
5130 5131 5132 0
-5133 -5134 0
-5133 -5135 0
-5134 -5135 0
5133 5134 5135 0
-5136 -5137 0
-5136 -5138 0
-5137 -5138 0
5136 5137 5138 0
-808 -5139 0
-808 -5140 0
-5139 -5140 0
808 5139 5140 0
-5141 -5142 0
-5141 -5143 0
-5142 -5143 0
5141 5142 5143 0
-5144 -5145 0
-5144 -5146 0
-5145 -5146 0
5144 5145 5146 0
-3300 -5147 0
-3300 -5148 0
-5147 -5148 0
3300 5147 5148 0
-16 -4343 0
-16 -5149 0
-4343 -5149 0
16 4343 5149 0
-5150 -5151 0
-5150 -5152 0
-5151 -5152 0
5150 5151 5152 0
-3140 -5153 0
-3140 -5154 0
-5153 -5154 0
3140 5153 5154 0
-2309 -5155 0
-2309 -5156 0
-5155 -5156 0
2309 5155 5156 0
-5157 -5158 0
-5157 -5159 0
-5158 -5159 0
5157 5158 5159 0
-4710 -5160 0
-4710 -5161 0
-5160 -5161 0
4710 5160 5161 0
-5162 -5163 0
-5162 -5164 0
-5163 -5164 0
5162 5163 5164 0
-3316 -5112 0
-3316 -5165 0
-5112 -5165 0
3316 5112 5165 0
-2718 -4753 0
-2718 -5166 0
-4753 -5166 0
2718 4753 5166 0
-5167 -5168 0
-5167 -5169 0
-5168 -5169 0
5167 5168 5169 0
-4072 -5170 0
-4072 -5171 0
-5170 -5171 0
4072 5170 5171 0
-1791 -5001 0
-1791 -5172 0
-5001 -5172 0
1791 5001 5172 0
-5173 -5174 0
-5173 -5175 0
-5174 -5175 0
5173 5174 5175 0
-5176 -5177 0
-5176 -5178 0
-5177 -5178 0
5176 5177 5178 0
-5179 -5180 0
-5179 -5181 0
-5180 -5181 0
5179 5180 5181 0
-4161 -5182 0
-4161 -5183 0
-5182 -5183 0
4161 5182 5183 0
-103 -821 0
-103 -5184 0
-821 -5184 0
103 821 5184 0
-2392 -5185 0
-2392 -5186 0
-5185 -5186 0
2392 5185 5186 0
-5187 -5188 0
-5187 -5189 0
-5188 -5189 0
5187 5188 5189 0
-5190 -5191 0
-5190 -5192 0
-5191 -5192 0
5190 5191 5192 0
-2839 -5193 0
-2839 -5194 0
-5193 -5194 0
2839 5193 5194 0
-229 -5195 0
-229 -5196 0
-5195 -5196 0
229 5195 5196 0
-2917 -5197 0
-2917 -5198 0
-5197 -5198 0
2917 5197 5198 0
-5199 -5200 0
-5199 -5201 0
-5200 -5201 0
5199 5200 5201 0
-2691 -5202 0
-2691 -5203 0
-5202 -5203 0
2691 5202 5203 0
-5204 -5205 0
-5204 -5206 0
-5205 -5206 0
5204 5205 5206 0
-3445 -5207 0
-3445 -5208 0
-5207 -5208 0
3445 5207 5208 0
-518 -5209 0
-518 -5210 0
-5209 -5210 0
518 5209 5210 0
-626 -5211 0
-626 -5212 0
-5211 -5212 0
626 5211 5212 0
-5213 -5214 0
-5213 -5215 0
-5214 -5215 0
5213 5214 5215 0
-1320 -5216 0
-1320 -5217 0
-5216 -5217 0
1320 5216 5217 0
-5218 -5219 0
-5218 -5220 0
-5219 -5220 0
5218 5219 5220 0
-5221 -5222 0
-5221 -5223 0
-5222 -5223 0
5221 5222 5223 0
-3544 -5224 0
-3544 -5225 0
-5224 -5225 0
3544 5224 5225 0
-2710 -5226 0
-2710 -5227 0
-5226 -5227 0
2710 5226 5227 0
-2643 -5228 0
-2643 -5229 0
-5228 -5229 0
2643 5228 5229 0
-3252 -5230 0
-3252 -5231 0
-5230 -5231 0
3252 5230 5231 0
-5232 -5233 0
-5232 -5234 0
-5233 -5234 0
5232 5233 5234 0
-2615 -5235 0
-2615 -5236 0
-5235 -5236 0
2615 5235 5236 0
-3125 -5237 0
-3125 -5238 0
-5237 -5238 0
3125 5237 5238 0
-2688 -5239 0
-2688 -5240 0
-5239 -5240 0
2688 5239 5240 0
-4307 -5241 0
-4307 -5242 0
-5241 -5242 0
4307 5241 5242 0
-3102 -5243 0
-3102 -5244 0
-5243 -5244 0
3102 5243 5244 0
-4115 -5245 0
-4115 -5246 0
-5245 -5246 0
4115 5245 5246 0
-5247 -5248 0
-5247 -5249 0
-5248 -5249 0
5247 5248 5249 0
-5250 -5251 0
-5250 -5252 0
-5251 -5252 0
5250 5251 5252 0
-5253 -5254 0
-5253 -5255 0
-5254 -5255 0
5253 5254 5255 0
-5256 -5257 0
-5256 -5258 0
-5257 -5258 0
5256 5257 5258 0
-3322 -5259 0
-3322 -5260 0
-5259 -5260 0
3322 5259 5260 0
-4685 -5261 0
-4685 -5262 0
-5261 -5262 0
4685 5261 5262 0
-2108 -2163 0
-2108 -5263 0
-2163 -5263 0
2108 2163 5263 0
-5264 -5265 0
-5264 -5266 0
-5265 -5266 0
5264 5265 5266 0
-4066 -4547 0
-4066 -5267 0
-4547 -5267 0
4066 4547 5267 0
-3494 -5268 0
-3494 -5269 0
-5268 -5269 0
3494 5268 5269 0
-5270 -5271 0
-5270 -5272 0
-5271 -5272 0
5270 5271 5272 0
-5273 -5274 0
-5273 -5275 0
-5274 -5275 0
5273 5274 5275 0
-5276 -5277 0
-5276 -5278 0
-5277 -5278 0
5276 5277 5278 0
-2651 -5279 0
-2651 -5280 0
-5279 -5280 0
2651 5279 5280 0
-1664 -5281 0
-1664 -5282 0
-5281 -5282 0
1664 5281 5282 0
-5283 -5284 0
-5283 -5285 0
-5284 -5285 0
5283 5284 5285 0
-884 -2002 0
-884 -5286 0
-2002 -5286 0
884 2002 5286 0
-5287 -5288 0
-5287 -5289 0
-5288 -5289 0
5287 5288 5289 0
-5290 -5291 0
-5290 -5292 0
-5291 -5292 0
5290 5291 5292 0
-956 -5293 0
-956 -5294 0
-5293 -5294 0
956 5293 5294 0
-5295 -5296 0
-5295 -5297 0
-5296 -5297 0
5295 5296 5297 0
-5298 -5299 0
-5298 -5300 0
-5299 -5300 0
5298 5299 5300 0
-1987 -5301 0
-1987 -5302 0
-5301 -5302 0
1987 5301 5302 0
-5303 -5304 0
-5303 -5305 0
-5304 -5305 0
5303 5304 5305 0
-1788 -5306 0
-1788 -5307 0
-5306 -5307 0
1788 5306 5307 0
-5308 -5309 0
-5308 -5310 0
-5309 -5310 0
5308 5309 5310 0
-3970 -5311 0
-3970 -5312 0
-5311 -5312 0
3970 5311 5312 0
-2623 -5313 0
-2623 -5314 0
-5313 -5314 0
2623 5313 5314 0
-1832 -5315 0
-1832 -5316 0
-5315 -5316 0
1832 5315 5316 0
-5317 -5318 0
-5317 -5319 0
-5318 -5319 0
5317 5318 5319 0
-2992 -5320 0
-2992 -5321 0
-5320 -5321 0
2992 5320 5321 0
-2225 -5322 0
-2225 -5323 0
-5322 -5323 0
2225 5322 5323 0
-5324 -5325 0
-5324 -5326 0
-5325 -5326 0
5324 5325 5326 0
-4730 -5327 0
-4730 -5328 0
-5327 -5328 0
4730 5327 5328 0
-2999 -5329 0
-2999 -5330 0
-5329 -5330 0
2999 5329 5330 0
-5331 -5332 0
-5331 -5333 0
-5332 -5333 0
5331 5332 5333 0
-5334 -5335 0
-5334 -5336 0
-5335 -5336 0
5334 5335 5336 0
-5337 -5338 0
-5337 -5339 0
-5338 -5339 0
5337 5338 5339 0
-3030 -5340 0
-3030 -5341 0
-5340 -5341 0
3030 5340 5341 0
-3514 -5342 0
-3514 -5343 0
-5342 -5343 0
3514 5342 5343 0
-5344 -5345 0
-5344 -5346 0
-5345 -5346 0
5344 5345 5346 0
-1298 -1594 0
-1298 -5347 0
-1594 -5347 0
1298 1594 5347 0
-4843 -5348 0
-4843 -5349 0
-5348 -5349 0
4843 5348 5349 0
-4087 -5350 0
-4087 -5351 0
-5350 -5351 0
4087 5350 5351 0
-5352 -5353 0
-5352 -5354 0
-5353 -5354 0
5352 5353 5354 0
-1327 -4252 0
-1327 -5355 0
-4252 -5355 0
1327 4252 5355 0
-5356 -5357 0
-5356 -5358 0
-5357 -5358 0
5356 5357 5358 0
-693 -5359 0
-693 -5360 0
-5359 -5360 0
693 5359 5360 0
-2609 -5361 0
-2609 -5362 0
-5361 -5362 0
2609 5361 5362 0
-5363 -5364 0
-5363 -5365 0
-5364 -5365 0
5363 5364 5365 0
-3302 -5366 0
-3302 -5367 0
-5366 -5367 0
3302 5366 5367 0
-5368 -5369 0
-5368 -5370 0
-5369 -5370 0
5368 5369 5370 0
-5371 -5372 0
-5371 -5373 0
-5372 -5373 0
5371 5372 5373 0
-5374 -5375 0
-5374 -5376 0
-5375 -5376 0
5374 5375 5376 0
-4454 -5377 0
-4454 -5378 0
-5377 -5378 0
4454 5377 5378 0
-5379 -5380 0
-5379 -5381 0
-5380 -5381 0
5379 5380 5381 0
-5382 -5383 0
-5382 -5384 0
-5383 -5384 0
5382 5383 5384 0
-4932 -5385 0
-4932 -5386 0
-5385 -5386 0
4932 5385 5386 0
-3223 -5387 0
-3223 -5388 0
-5387 -5388 0
3223 5387 5388 0
-5389 -5390 0
-5389 -5391 0
-5390 -5391 0
5389 5390 5391 0
-1964 -5392 0
-1964 -5393 0
-5392 -5393 0
1964 5392 5393 0
-2488 -5394 0
-2488 -5395 0
-5394 -5395 0
2488 5394 5395 0
-5396 -5397 0
-5396 -5398 0
-5397 -5398 0
5396 5397 5398 0
-1059 -2944 0
-1059 -5399 0
-2944 -5399 0
1059 2944 5399 0
-5400 -5401 0
-5400 -5402 0
-5401 -5402 0
5400 5401 5402 0
-5403 -5404 0
-5403 -5405 0
-5404 -5405 0
5403 5404 5405 0
-3821 -5406 0
-3821 -5407 0
-5406 -5407 0
3821 5406 5407 0
-5329 -5408 0
-5329 -5409 0
-5408 -5409 0
5329 5408 5409 0
-5410 -5411 0
-5410 -5412 0
-5411 -5412 0
5410 5411 5412 0
-3331 -5413 0
-3331 -5414 0
-5413 -5414 0
3331 5413 5414 0
-4875 -5415 0
-4875 -5416 0
-5415 -5416 0
4875 5415 5416 0
-5417 -5418 0
-5417 -5419 0
-5418 -5419 0
5417 5418 5419 0
-4581 -5420 0
-4581 -5421 0
-5420 -5421 0
4581 5420 5421 0
-5422 -5423 0
-5422 -5424 0
-5423 -5424 0
5422 5423 5424 0
-5425 -5426 0
-5425 -5427 0
-5426 -5427 0
5425 5426 5427 0
-5428 -5429 0
-5428 -5430 0
-5429 -5430 0
5428 5429 5430 0
-5431 -5432 0
-5431 -5433 0
-5432 -5433 0
5431 5432 5433 0
-2463 -5434 0
-2463 -5435 0
-5434 -5435 0
2463 5434 5435 0
-5436 -5437 0
-5436 -5438 0
-5437 -5438 0
5436 5437 5438 0
-5439 -5440 0
-5439 -5441 0
-5440 -5441 0
5439 5440 5441 0
-5442 -5443 0
-5442 -5444 0
-5443 -5444 0
5442 5443 5444 0
-5445 -5446 0
-5445 -5447 0
-5446 -5447 0
5445 5446 5447 0
-5448 -5449 0
-5448 -5450 0
-5449 -5450 0
5448 5449 5450 0
-4997 -5451 0
-4997 -5452 0
-5451 -5452 0
4997 5451 5452 0
-694 -5453 0
-694 -5454 0
-5453 -5454 0
694 5453 5454 0
-1328 -5455 0
-1328 -5456 0
-5455 -5456 0
1328 5455 5456 0
-1044 -3011 0
-1044 -5457 0
-3011 -5457 0
1044 3011 5457 0
-5458 -5459 0
-5458 -5460 0
-5459 -5460 0
5458 5459 5460 0
-5032 -5461 0
-5032 -5462 0
-5461 -5462 0
5032 5461 5462 0
-5463 -5464 0
-5463 -5465 0
-5464 -5465 0
5463 5464 5465 0
-5466 -5467 0
-5466 -5468 0
-5467 -5468 0
5466 5467 5468 0
-390 -5469 0
-390 -5470 0
-5469 -5470 0
390 5469 5470 0
-4125 -5471 0
-4125 -5472 0
-5471 -5472 0
4125 5471 5472 0
-40 -104 0
-40 -5473 0
-104 -5473 0
40 104 5473 0
-5474 -5475 0
-5474 -5476 0
-5475 -5476 0
5474 5475 5476 0
-268 -3418 0
-268 -5477 0
-3418 -5477 0
268 3418 5477 0
-5478 -5479 0
-5478 -5480 0
-5479 -5480 0
5478 5479 5480 0
-1993 -2685 0
-1993 -5481 0
-2685 -5481 0
1993 2685 5481 0
-3712 -5340 0
-3712 -5482 0
-5340 -5482 0
3712 5340 5482 0
-1445 -5483 0
-1445 -5484 0
-5483 -5484 0
1445 5483 5484 0
-5485 -5486 0
-5485 -5487 0
-5486 -5487 0
5485 5486 5487 0
-5488 -5489 0
-5488 -5490 0
-5489 -5490 0
5488 5489 5490 0
-4854 -5491 0
-4854 -5492 0
-5491 -5492 0
4854 5491 5492 0
-5493 -5494 0
-5493 -5495 0
-5494 -5495 0
5493 5494 5495 0
-199 -5496 0
-199 -5497 0
-5496 -5497 0
199 5496 5497 0
-5498 -5499 0
-5498 -5500 0
-5499 -5500 0
5498 5499 5500 0
-5501 -5502 0
-5501 -5503 0
-5502 -5503 0
5501 5502 5503 0
-5504 -5505 0
-5504 -5506 0
-5505 -5506 0
5504 5505 5506 0
-534 -5507 0
-534 -5508 0
-5507 -5508 0
534 5507 5508 0
-5509 -5510 0
-5509 -5511 0
-5510 -5511 0
5509 5510 5511 0
-5512 -5513 0
-5512 -5514 0
-5513 -5514 0
5512 5513 5514 0
-3059 -3277 0
-3059 -5515 0
-3277 -5515 0
3059 3277 5515 0
-5516 -5517 0
-5516 -5518 0
-5517 -5518 0
5516 5517 5518 0
-3865 -5519 0
-3865 -5520 0
-5519 -5520 0
3865 5519 5520 0
-5521 -5522 0
-5521 -5523 0
-5522 -5523 0
5521 5522 5523 0
-5524 -5525 0
-5524 -5526 0
-5525 -5526 0
5524 5525 5526 0
-5527 -5528 0
-5527 -5529 0
-5528 -5529 0
5527 5528 5529 0
-2864 -5530 0
-2864 -5531 0
-5530 -5531 0
2864 5530 5531 0
-5532 -5533 0
-5532 -5534 0
-5533 -5534 0
5532 5533 5534 0
-5535 -5536 0
-5535 -5537 0
-5536 -5537 0
5535 5536 5537 0
-2278 -5538 0
-2278 -5539 0
-5538 -5539 0
2278 5538 5539 0
-5540 -5541 0
-5540 -5542 0
-5541 -5542 0
5540 5541 5542 0
-4846 -5543 0
-4846 -5544 0
-5543 -5544 0
4846 5543 5544 0
-3263 -5545 0
-3263 -5546 0
-5545 -5546 0
3263 5545 5546 0
-5547 -5548 0
-5547 -5549 0
-5548 -5549 0
5547 5548 5549 0
-3278 -4664 0
-3278 -5550 0
-4664 -5550 0
3278 4664 5550 0
-3210 -5551 0
-3210 -5552 0
-5551 -5552 0
3210 5551 5552 0
-5347 -5553 0
-5347 -5554 0
-5553 -5554 0
5347 5553 5554 0
-5555 -5556 0
-5555 -5557 0
-5556 -5557 0
5555 5556 5557 0
-5558 -5559 0
-5558 -5560 0
-5559 -5560 0
5558 5559 5560 0
-118 -5561 0
-118 -5562 0
-5561 -5562 0
118 5561 5562 0
-1497 -5563 0
-1497 -5564 0
-5563 -5564 0
1497 5563 5564 0
-579 -5565 0
-579 -5566 0
-5565 -5566 0
579 5565 5566 0
-4340 -5567 0
-4340 -5568 0
-5567 -5568 0
4340 5567 5568 0
-5569 -5570 0
-5569 -5571 0
-5570 -5571 0
5569 5570 5571 0
-5572 -5573 0
-5572 -5574 0
-5573 -5574 0
5572 5573 5574 0
-5575 -5576 0
-5575 -5577 0
-5576 -5577 0
5575 5576 5577 0
-1990 -5578 0
-1990 -5579 0
-5578 -5579 0
1990 5578 5579 0
-5301 -5580 0
-5301 -5581 0
-5580 -5581 0
5301 5580 5581 0
-5582 -5583 0
-5582 -5584 0
-5583 -5584 0
5582 5583 5584 0
-3442 -4690 0
-3442 -5585 0
-4690 -5585 0
3442 4690 5585 0
-233 -5586 0
-233 -5587 0
-5586 -5587 0
233 5586 5587 0
-759 -5588 0
-759 -5589 0
-5588 -5589 0
759 5588 5589 0
-2854 -5590 0
-2854 -5591 0
-5590 -5591 0
2854 5590 5591 0
-5592 -5593 0
-5592 -5594 0
-5593 -5594 0
5592 5593 5594 0
-5595 -5596 0
-5595 -5597 0
-5596 -5597 0
5595 5596 5597 0
-5598 -5599 0
-5598 -5600 0
-5599 -5600 0
5598 5599 5600 0
-5601 -5602 0
-5601 -5603 0
-5602 -5603 0
5601 5602 5603 0
-5604 -5605 0
-5604 -5606 0
-5605 -5606 0
5604 5605 5606 0
-3793 -4102 0
-3793 -5607 0
-4102 -5607 0
3793 4102 5607 0
-2836 -5608 0
-2836 -5609 0
-5608 -5609 0
2836 5608 5609 0
-4399 -5610 0
-4399 -5611 0
-5610 -5611 0
4399 5610 5611 0
-5612 -5613 0
-5612 -5614 0
-5613 -5614 0
5612 5613 5614 0
-3443 -5615 0
-3443 -5616 0
-5615 -5616 0
3443 5615 5616 0
-1469 -5617 0
-1469 -5618 0
-5617 -5618 0
1469 5617 5618 0
-5619 -5620 0
-5619 -5621 0
-5620 -5621 0
5619 5620 5621 0
-5622 -5623 0
-5622 -5624 0
-5623 -5624 0
5622 5623 5624 0
-5625 -5626 0
-5625 -5627 0
-5626 -5627 0
5625 5626 5627 0
-5628 -5629 0
-5628 -5630 0
-5629 -5630 0
5628 5629 5630 0
-5631 -5632 0
-5631 -5633 0
-5632 -5633 0
5631 5632 5633 0
-1042 -5634 0
-1042 -5635 0
-5634 -5635 0
1042 5634 5635 0
-3255 -5636 0
-3255 -5637 0
-5636 -5637 0
3255 5636 5637 0
-5638 -5639 0
-5638 -5640 0
-5639 -5640 0
5638 5639 5640 0
-5641 -5642 0
-5641 -5643 0
-5642 -5643 0
5641 5642 5643 0
-1199 -5644 0
-1199 -5645 0
-5644 -5645 0
1199 5644 5645 0
-2494 -5646 0
-2494 -5647 0
-5646 -5647 0
2494 5646 5647 0
-2306 -5648 0
-2306 -5649 0
-5648 -5649 0
2306 5648 5649 0
-5650 -5651 0
-5650 -5652 0
-5651 -5652 0
5650 5651 5652 0
-4461 -5653 0
-4461 -5654 0
-5653 -5654 0
4461 5653 5654 0
-164 -5655 0
-164 -5656 0
-5655 -5656 0
164 5655 5656 0
-4175 -5657 0
-4175 -5658 0
-5657 -5658 0
4175 5657 5658 0
-4284 -5659 0
-4284 -5660 0
-5659 -5660 0
4284 5659 5660 0
-1394 -5661 0
-1394 -5662 0
-5661 -5662 0
1394 5661 5662 0
-3100 -5663 0
-3100 -5664 0
-5663 -5664 0
3100 5663 5664 0
-5665 -5666 0
-5665 -5667 0
-5666 -5667 0
5665 5666 5667 0
-5668 -5669 0
-5668 -5670 0
-5669 -5670 0
5668 5669 5670 0
-5671 -5672 0
-5671 -5673 0
-5672 -5673 0
5671 5672 5673 0
-5674 -5675 0
-5674 -5676 0
-5675 -5676 0
5674 5675 5676 0
-4504 -5677 0
-4504 -5678 0
-5677 -5678 0
4504 5677 5678 0
-5679 -5680 0
-5679 -5681 0
-5680 -5681 0
5679 5680 5681 0
-5682 -5683 0
-5682 -5684 0
-5683 -5684 0
5682 5683 5684 0
-5685 -5686 0
-5685 -5687 0
-5686 -5687 0
5685 5686 5687 0
-5688 -5689 0
-5688 -5690 0
-5689 -5690 0
5688 5689 5690 0
-5691 -5692 0
-5691 -5693 0
-5692 -5693 0
5691 5692 5693 0
-5413 -5694 0
-5413 -5695 0
-5694 -5695 0
5413 5694 5695 0
-1840 -5696 0
-1840 -5697 0
-5696 -5697 0
1840 5696 5697 0
-5698 -5699 0
-5698 -5700 0
-5699 -5700 0
5698 5699 5700 0
-5701 -5702 0
-5701 -5703 0
-5702 -5703 0
5701 5702 5703 0
-3676 -5704 0
-3676 -5705 0
-5704 -5705 0
3676 5704 5705 0
-5706 -5707 0
-5706 -5708 0
-5707 -5708 0
5706 5707 5708 0
-5324 -5709 0
-5324 -5710 0
-5709 -5710 0
5324 5709 5710 0
-5545 -5711 0
-5545 -5712 0
-5711 -5712 0
5545 5711 5712 0
-5713 -5714 0
-5713 -5715 0
-5714 -5715 0
5713 5714 5715 0
-2077 -5716 0
-2077 -5717 0
-5716 -5717 0
2077 5716 5717 0
-5718 -5719 0
-5718 -5720 0
-5719 -5720 0
5718 5719 5720 0
-421 -778 0
-421 -5721 0
-778 -5721 0
421 778 5721 0
-5722 -5723 0
-5722 -5724 0
-5723 -5724 0
5722 5723 5724 0
-5725 -5726 0
-5725 -5727 0
-5726 -5727 0
5725 5726 5727 0
-5728 -5729 0
-5728 -5730 0
-5729 -5730 0
5728 5729 5730 0
-1579 -5731 0
-1579 -5732 0
-5731 -5732 0
1579 5731 5732 0
-5733 -5734 0
-5733 -5735 0
-5734 -5735 0
5733 5734 5735 0
-5736 -5737 0
-5736 -5738 0
-5737 -5738 0
5736 5737 5738 0
-3566 -3690 0
-3566 -5739 0
-3690 -5739 0
3566 3690 5739 0
-2537 -3717 0
-2537 -5740 0
-3717 -5740 0
2537 3717 5740 0
-2654 -3216 0
-2654 -5741 0
-3216 -5741 0
2654 3216 5741 0
-3190 -5742 0
-3190 -5743 0
-5742 -5743 0
3190 5742 5743 0
-1911 -5744 0
-1911 -5745 0
-5744 -5745 0
1911 5744 5745 0
-3861 -5746 0
-3861 -5747 0
-5746 -5747 0
3861 5746 5747 0
-5313 -5748 0
-5313 -5749 0
-5748 -5749 0
5313 5748 5749 0
-2226 -3279 0
-2226 -5750 0
-3279 -5750 0
2226 3279 5750 0
-4425 -5751 0
-4425 -5752 0
-5751 -5752 0
4425 5751 5752 0
-5753 -5754 0
-5753 -5755 0
-5754 -5755 0
5753 5754 5755 0
-5756 -5757 0
-5756 -5758 0
-5757 -5758 0
5756 5757 5758 0
-5089 -5759 0
-5089 -5760 0
-5759 -5760 0
5089 5759 5760 0
-5761 -5762 0
-5761 -5763 0
-5762 -5763 0
5761 5762 5763 0
-3214 -4202 0
-3214 -5764 0
-4202 -5764 0
3214 4202 5764 0
-5765 -5766 0
-5765 -5767 0
-5766 -5767 0
5765 5766 5767 0
-5768 -5769 0
-5768 -5770 0
-5769 -5770 0
5768 5769 5770 0
-5771 -5772 0
-5771 -5773 0
-5772 -5773 0
5771 5772 5773 0
-1975 -5774 0
-1975 -5775 0
-5774 -5775 0
1975 5774 5775 0
-5776 -5777 0
-5776 -5778 0
-5777 -5778 0
5776 5777 5778 0
-425 -3073 0
-425 -5779 0
-3073 -5779 0
425 3073 5779 0
-1881 -4171 0
-1881 -5780 0
-4171 -5780 0
1881 4171 5780 0
-1596 -5781 0
-1596 -5782 0
-5781 -5782 0
1596 5781 5782 0
-5783 -5784 0
-5783 -5785 0
-5784 -5785 0
5783 5784 5785 0
-1018 -1460 0
-1018 -5786 0
-1460 -5786 0
1018 1460 5786 0
-658 -5787 0
-658 -5788 0
-5787 -5788 0
658 5787 5788 0
-5789 -5790 0
-5789 -5791 0
-5790 -5791 0
5789 5790 5791 0
-989 -5792 0
-989 -5793 0
-5792 -5793 0
989 5792 5793 0
-5794 -5795 0
-5794 -5796 0
-5795 -5796 0
5794 5795 5796 0
-4314 -4884 0
-4314 -5797 0
-4884 -5797 0
4314 4884 5797 0
-5798 -5799 0
-5798 -5800 0
-5799 -5800 0
5798 5799 5800 0
-4757 -5801 0
-4757 -5802 0
-5801 -5802 0
4757 5801 5802 0
-5512 -5803 0
-5512 -5804 0
-5803 -5804 0
5512 5803 5804 0
-5805 -5806 0
-5805 -5807 0
-5806 -5807 0
5805 5806 5807 0
-5808 -5809 0
-5808 -5810 0
-5809 -5810 0
5808 5809 5810 0
-5811 -5812 0
-5811 -5813 0
-5812 -5813 0
5811 5812 5813 0
-5628 -5814 0
-5628 -5815 0
-5814 -5815 0
5628 5814 5815 0
-2610 -5718 0
-2610 -5816 0
-5718 -5816 0
2610 5718 5816 0
-3959 -5817 0
-3959 -5818 0
-5817 -5818 0
3959 5817 5818 0
-5819 -5820 0
-5819 -5821 0
-5820 -5821 0
5819 5820 5821 0
-2670 -5822 0
-2670 -5823 0
-5822 -5823 0
2670 5822 5823 0
-3370 -5824 0
-3370 -5825 0
-5824 -5825 0
3370 5824 5825 0
-852 -5826 0
-852 -5827 0
-5826 -5827 0
852 5826 5827 0
-5828 -5829 0
-5828 -5830 0
-5829 -5830 0
5828 5829 5830 0
-5831 -5832 0
-5831 -5833 0
-5832 -5833 0
5831 5832 5833 0
-3422 -5834 0
-3422 -5835 0
-5834 -5835 0
3422 5834 5835 0
-5836 -5837 0
-5836 -5838 0
-5837 -5838 0
5836 5837 5838 0
-3718 -5209 0
-3718 -5839 0
-5209 -5839 0
3718 5209 5839 0
-5840 -5841 0
-5840 -5842 0
-5841 -5842 0
5840 5841 5842 0
-5843 -5844 0
-5843 -5845 0
-5844 -5845 0
5843 5844 5845 0
-4490 -5846 0
-4490 -5847 0
-5846 -5847 0
4490 5846 5847 0
-5848 -5849 0
-5848 -5850 0
-5849 -5850 0
5848 5849 5850 0
-4956 -5851 0
-4956 -5852 0
-5851 -5852 0
4956 5851 5852 0
-2760 -3483 0
-2760 -5853 0
-3483 -5853 0
2760 3483 5853 0
-2091 -3159 0
-2091 -5854 0
-3159 -5854 0
2091 3159 5854 0
-5855 -5856 0
-5855 -5857 0
-5856 -5857 0
5855 5856 5857 0
-3161 -5771 0
-3161 -5858 0
-5771 -5858 0
3161 5771 5858 0
-5859 -5860 0
-5859 -5861 0
-5860 -5861 0
5859 5860 5861 0
-2378 -5862 0
-2378 -5863 0
-5862 -5863 0
2378 5862 5863 0
-5864 -5865 0
-5864 -5866 0
-5865 -5866 0
5864 5865 5866 0
-655 -3244 0
-655 -5867 0
-3244 -5867 0
655 3244 5867 0
-4521 -5270 0
-4521 -5868 0
-5270 -5868 0
4521 5270 5868 0
-5869 -5870 0
-5869 -5871 0
-5870 -5871 0
5869 5870 5871 0
-1144 -5872 0
-1144 -5873 0
-5872 -5873 0
1144 5872 5873 0
-5874 -5875 0
-5874 -5876 0
-5875 -5876 0
5874 5875 5876 0
-2415 -5877 0
-2415 -5878 0
-5877 -5878 0
2415 5877 5878 0
-226 -5789 0
-226 -5879 0
-5789 -5879 0
226 5789 5879 0
-2130 -5880 0
-2130 -5881 0
-5880 -5881 0
2130 5880 5881 0
-5882 -5883 0
-5882 -5884 0
-5883 -5884 0
5882 5883 5884 0
-4513 -5885 0
-4513 -5886 0
-5885 -5886 0
4513 5885 5886 0
-1547 -3559 0
-1547 -5887 0
-3559 -5887 0
1547 3559 5887 0
-2583 -5888 0
-2583 -5889 0
-5888 -5889 0
2583 5888 5889 0
-5890 -5891 0
-5890 -5892 0
-5891 -5892 0
5890 5891 5892 0
-1248 -5893 0
-1248 -5894 0
-5893 -5894 0
1248 5893 5894 0
-2744 -5895 0
-2744 -5896 0
-5895 -5896 0
2744 5895 5896 0
-1071 -5897 0
-1071 -5898 0
-5897 -5898 0
1071 5897 5898 0
-5899 -5900 0
-5899 -5901 0
-5900 -5901 0
5899 5900 5901 0
-939 -5902 0
-939 -5903 0
-5902 -5903 0
939 5902 5903 0
-2646 -3173 0
-2646 -5904 0
-3173 -5904 0
2646 3173 5904 0
-5905 -5906 0
-5905 -5907 0
-5906 -5907 0
5905 5906 5907 0
-1713 -5908 0
-1713 -5909 0
-5908 -5909 0
1713 5908 5909 0
-2713 -5910 0
-2713 -5911 0
-5910 -5911 0
2713 5910 5911 0
-5912 -5913 0
-5912 -5914 0
-5913 -5914 0
5912 5913 5914 0
-5915 -5916 0
-5915 -5917 0
-5916 -5917 0
5915 5916 5917 0
-605 -5070 0
-605 -5918 0
-5070 -5918 0
605 5070 5918 0
-4633 -5919 0
-4633 -5920 0
-5919 -5920 0
4633 5919 5920 0
-306 -5921 0
-306 -5922 0
-5921 -5922 0
306 5921 5922 0
-5923 -5924 0
-5923 -5925 0
-5924 -5925 0
5923 5924 5925 0
-1629 -5926 0
-1629 -5927 0
-5926 -5927 0
1629 5926 5927 0
-5928 -5929 0
-5928 -5930 0
-5929 -5930 0
5928 5929 5930 0
-2885 -3144 0
-2885 -5931 0
-3144 -5931 0
2885 3144 5931 0
-5932 -5933 0
-5932 -5934 0
-5933 -5934 0
5932 5933 5934 0
-4417 -5935 0
-4417 -5936 0
-5935 -5936 0
4417 5935 5936 0
-5937 -5938 0
-5937 -5939 0
-5938 -5939 0
5937 5938 5939 0
-5940 -5941 0
-5940 -5942 0
-5941 -5942 0
5940 5941 5942 0
-1104 -5273 0
-1104 -5943 0
-5273 -5943 0
1104 5273 5943 0
-3020 -4110 0
-3020 -5944 0
-4110 -5944 0
3020 4110 5944 0
-4578 -5945 0
-4578 -5946 0
-5945 -5946 0
4578 5945 5946 0
-5947 -5948 0
-5947 -5949 0
-5948 -5949 0
5947 5948 5949 0
-4763 -5772 0
-4763 -5950 0
-5772 -5950 0
4763 5772 5950 0
-5951 -5952 0
-5951 -5953 0
-5952 -5953 0
5951 5952 5953 0
-5954 -5955 0
-5954 -5956 0
-5955 -5956 0
5954 5955 5956 0
-1610 -5957 0
-1610 -5958 0
-5957 -5958 0
1610 5957 5958 0
-962 -1083 0
-962 -5959 0
-1083 -5959 0
962 1083 5959 0
-445 -5960 0
-445 -5961 0
-5960 -5961 0
445 5960 5961 0
-5962 -5963 0
-5962 -5964 0
-5963 -5964 0
5962 5963 5964 0
-5965 -5966 0
-5965 -5967 0
-5966 -5967 0
5965 5966 5967 0
-5207 -5968 0
-5207 -5969 0
-5968 -5969 0
5207 5968 5969 0
-1158 -5970 0
-1158 -5971 0
-5970 -5971 0
1158 5970 5971 0
-5805 -5972 0
-5805 -5973 0
-5972 -5973 0
5805 5972 5973 0
-1802 -5974 0
-1802 -5975 0
-5974 -5975 0
1802 5974 5975 0
-3137 -5976 0
-3137 -5977 0
-5976 -5977 0
3137 5976 5977 0
-756 -2485 0
-756 -5978 0
-2485 -5978 0
756 2485 5978 0
-2209 -5979 0
-2209 -5980 0
-5979 -5980 0
2209 5979 5980 0
-5981 -5982 0
-5981 -5983 0
-5982 -5983 0
5981 5982 5983 0
-5984 -5985 0
-5984 -5986 0
-5985 -5986 0
5984 5985 5986 0
-3374 -5987 0
-3374 -5988 0
-5987 -5988 0
3374 5987 5988 0
-5989 -5990 0
-5989 -5991 0
-5990 -5991 0
5989 5990 5991 0
-1190 -5992 0
-1190 -5993 0
-5992 -5993 0
1190 5992 5993 0
-5994 -5995 0
-5994 -5996 0
-5995 -5996 0
5994 5995 5996 0
-3328 -5997 0
-3328 -5998 0
-5997 -5998 0
3328 5997 5998 0
-5471 -5999 0
-5471 -6000 0
-5999 -6000 0
5471 5999 6000 0
-4988 -5104 0
-4988 -6001 0
-5104 -6001 0
4988 5104 6001 0
-4422 -6002 0
-4422 -6003 0
-6002 -6003 0
4422 6002 6003 0
-22 -6004 0
-22 -6005 0
-6004 -6005 0
22 6004 6005 0
-1262 -5817 0
-1262 -6006 0
-5817 -6006 0
1262 5817 6006 0
-3603 -5050 0
-3603 -6007 0
-5050 -6007 0
3603 5050 6007 0
-6008 -6009 0
-6008 -6010 0
-6009 -6010 0
6008 6009 6010 0
-6011 -6012 0
-6011 -6013 0
-6012 -6013 0
6011 6012 6013 0
-3914 -6014 0
-3914 -6015 0
-6014 -6015 0
3914 6014 6015 0
-1308 -6016 0
-1308 -6017 0
-6016 -6017 0
1308 6016 6017 0
-4966 -6018 0
-4966 -6019 0
-6018 -6019 0
4966 6018 6019 0
-3412 -6020 0
-3412 -6021 0
-6020 -6021 0
3412 6020 6021 0
-6022 -6023 0
-6022 -6024 0
-6023 -6024 0
6022 6023 6024 0
-6025 -6026 0
-6025 -6027 0
-6026 -6027 0
6025 6026 6027 0
-6028 -6029 0
-6028 -6030 0
-6029 -6030 0
6028 6029 6030 0
-3811 -6031 0
-3811 -6032 0
-6031 -6032 0
3811 6031 6032 0
-6033 -6034 0
-6033 -6035 0
-6034 -6035 0
6033 6034 6035 0
-6036 -6037 0
-6036 -6038 0
-6037 -6038 0
6036 6037 6038 0
-4759 -5331 0
-4759 -6039 0
-5331 -6039 0
4759 5331 6039 0
-6040 -6041 0
-6040 -6042 0
-6041 -6042 0
6040 6041 6042 0
-4 -6043 0
-4 -6044 0
-6043 -6044 0
4 6043 6044 0
-6045 -6046 0
-6045 -6047 0
-6046 -6047 0
6045 6046 6047 0
-4565 -5060 0
-4565 -6048 0
-5060 -6048 0
4565 5060 6048 0
-1288 -5803 0
-1288 -6049 0
-5803 -6049 0
1288 5803 6049 0
-6050 -6051 0
-6050 -6052 0
-6051 -6052 0
6050 6051 6052 0
-6053 -6054 0
-6053 -6055 0
-6054 -6055 0
6053 6054 6055 0
-2196 -6056 0
-2196 -6057 0
-6056 -6057 0
2196 6056 6057 0
-2689 -6004 0
-2689 -6058 0
-6004 -6058 0
2689 6004 6058 0
-6059 -6060 0
-6059 -6061 0
-6060 -6061 0
6059 6060 6061 0
-6062 -6063 0
-6062 -6064 0
-6063 -6064 0
6062 6063 6064 0
-2056 -6065 0
-2056 -6066 0
-6065 -6066 0
2056 6065 6066 0
-3988 -6067 0
-3988 -6068 0
-6067 -6068 0
3988 6067 6068 0
-1616 -6069 0
-1616 -6070 0
-6069 -6070 0
1616 6069 6070 0
-1617 -6071 0
-1617 -6072 0
-6071 -6072 0
1617 6071 6072 0
-6073 -6074 0
-6073 -6075 0
-6074 -6075 0
6073 6074 6075 0
-4033 -6076 0
-4033 -6077 0
-6076 -6077 0
4033 6076 6077 0
-6078 -6079 0
-6078 -6080 0
-6079 -6080 0
6078 6079 6080 0
-6081 -6082 0
-6081 -6083 0
-6082 -6083 0
6081 6082 6083 0
-6084 -6085 0
-6084 -6086 0
-6085 -6086 0
6084 6085 6086 0
-295 -6087 0
-295 -6088 0
-6087 -6088 0
295 6087 6088 0
-6089 -6090 0
-6089 -6091 0
-6090 -6091 0
6089 6090 6091 0
-4328 -6092 0
-4328 -6093 0
-6092 -6093 0
4328 6092 6093 0
-6094 -6095 0
-6094 -6096 0
-6095 -6096 0
6094 6095 6096 0
-6097 -6098 0
-6097 -6099 0
-6098 -6099 0
6097 6098 6099 0
-6100 -6101 0
-6100 -6102 0
-6101 -6102 0
6100 6101 6102 0
-6103 -6104 0
-6103 -6105 0
-6104 -6105 0
6103 6104 6105 0
-6106 -6107 0
-6106 -6108 0
-6107 -6108 0
6106 6107 6108 0
-6109 -6110 0
-6109 -6111 0
-6110 -6111 0
6109 6110 6111 0
-5685 -6112 0
-5685 -6113 0
-6112 -6113 0
5685 6112 6113 0
-2256 -5880 0
-2256 -6114 0
-5880 -6114 0
2256 5880 6114 0
-3976 -5742 0
-3976 -6115 0
-5742 -6115 0
3976 5742 6115 0
-6116 -6117 0
-6116 -6118 0
-6117 -6118 0
6116 6117 6118 0
-6119 -6120 0
-6119 -6121 0
-6120 -6121 0
6119 6120 6121 0
-6122 -6123 0
-6122 -6124 0
-6123 -6124 0
6122 6123 6124 0
-6125 -6126 0
-6125 -6127 0
-6126 -6127 0
6125 6126 6127 0
-6128 -6129 0
-6128 -6130 0
-6129 -6130 0
6128 6129 6130 0
-6131 -6132 0
-6131 -6133 0
-6132 -6133 0
6131 6132 6133 0
-6134 -6135 0
-6134 -6136 0
-6135 -6136 0
6134 6135 6136 0
-1821 -6137 0
-1821 -6138 0
-6137 -6138 0
1821 6137 6138 0
-1888 -2109 0
-1888 -6139 0
-2109 -6139 0
1888 2109 6139 0
-2676 -6140 0
-2676 -6141 0
-6140 -6141 0
2676 6140 6141 0
-1727 -6142 0
-1727 -6143 0
-6142 -6143 0
1727 6142 6143 0
-5087 -6144 0
-5087 -6145 0
-6144 -6145 0
5087 6144 6145 0
-6146 -6147 0
-6146 -6148 0
-6147 -6148 0
6146 6147 6148 0
-6149 -6150 0
-6149 -6151 0
-6150 -6151 0
6149 6150 6151 0
-832 -6152 0
-832 -6153 0
-6152 -6153 0
832 6152 6153 0
-6154 -6155 0
-6154 -6156 0
-6155 -6156 0
6154 6155 6156 0
-5403 -6157 0
-5403 -6158 0
-6157 -6158 0
5403 6157 6158 0
-6159 -6160 0
-6159 -6161 0
-6160 -6161 0
6159 6160 6161 0
-6162 -6163 0
-6162 -6164 0
-6163 -6164 0
6162 6163 6164 0
-4830 -6165 0
-4830 -6166 0
-6165 -6166 0
4830 6165 6166 0
-230 -6167 0
-230 -6168 0
-6167 -6168 0
230 6167 6168 0
-6169 -6170 0
-6169 -6171 0
-6170 -6171 0
6169 6170 6171 0
-2291 -4916 0
-2291 -6172 0
-4916 -6172 0
2291 4916 6172 0
-2412 -6173 0
-2412 -6174 0
-6173 -6174 0
2412 6173 6174 0
-6175 -6176 0
-6175 -6177 0
-6176 -6177 0
6175 6176 6177 0
-6178 -6179 0
-6178 -6180 0
-6179 -6180 0
6178 6179 6180 0
-6181 -6182 0
-6181 -6183 0
-6182 -6183 0
6181 6182 6183 0
-1428 -1706 0
-1428 -6184 0
-1706 -6184 0
1428 1706 6184 0
-1644 -4864 0
-1644 -6185 0
-4864 -6185 0
1644 4864 6185 0
-6186 -6187 0
-6186 -6188 0
-6187 -6188 0
6186 6187 6188 0
-6189 -6190 0
-6189 -6191 0
-6190 -6191 0
6189 6190 6191 0
-1488 -6192 0
-1488 -6193 0
-6192 -6193 0
1488 6192 6193 0
-6194 -6195 0
-6194 -6196 0
-6195 -6196 0
6194 6195 6196 0
-5713 -6197 0
-5713 -6198 0
-6197 -6198 0
5713 6197 6198 0
-157 -6199 0
-157 -6200 0
-6199 -6200 0
157 6199 6200 0
-6201 -6202 0
-6201 -6203 0
-6202 -6203 0
6201 6202 6203 0
-6204 -6205 0
-6204 -6206 0
-6205 -6206 0
6204 6205 6206 0
-6207 -6208 0
-6207 -6209 0
-6208 -6209 0
6207 6208 6209 0
-3307 -5665 0
-3307 -6210 0
-5665 -6210 0
3307 5665 6210 0
-6211 -6212 0
-6211 -6213 0
-6212 -6213 0
6211 6212 6213 0
-6214 -6215 0
-6214 -6216 0
-6215 -6216 0
6214 6215 6216 0
-707 -6217 0
-707 -6218 0
-6217 -6218 0
707 6217 6218 0
-5843 -6219 0
-5843 -6220 0
-6219 -6220 0
5843 6219 6220 0
-5761 -6221 0
-5761 -6222 0
-6221 -6222 0
5761 6221 6222 0
-6223 -6224 0
-6223 -6225 0
-6224 -6225 0
6223 6224 6225 0
-5382 -6226 0
-5382 -6227 0
-6226 -6227 0
5382 6226 6227 0
-696 -6228 0
-696 -6229 0
-6228 -6229 0
696 6228 6229 0
-645 -6230 0
-645 -6231 0
-6230 -6231 0
645 6230 6231 0
-2551 -3329 0
-2551 -6232 0
-3329 -6232 0
2551 3329 6232 0
-5303 -5540 0
-5303 -6233 0
-5540 -6233 0
5303 5540 6233 0
-2806 -5247 0
-2806 -6234 0
-5247 -6234 0
2806 5247 6234 0
-5076 -6235 0
-5076 -6236 0
-6235 -6236 0
5076 6235 6236 0
-2396 -6237 0
-2396 -6238 0
-6237 -6238 0
2396 6237 6238 0
-6239 -6240 0
-6239 -6241 0
-6240 -6241 0
6239 6240 6241 0
-172 -6242 0
-172 -6243 0
-6242 -6243 0
172 6242 6243 0
-6244 -6245 0
-6244 -6246 0
-6245 -6246 0
6244 6245 6246 0
-1130 -3601 0
-1130 -6247 0
-3601 -6247 0
1130 3601 6247 0
-5422 -6248 0
-5422 -6249 0
-6248 -6249 0
5422 6248 6249 0
-4969 -6250 0
-4969 -6251 0
-6250 -6251 0
4969 6250 6251 0
-3658 -6252 0
-3658 -6253 0
-6252 -6253 0
3658 6252 6253 0
-3990 -6254 0
-3990 -6255 0
-6254 -6255 0
3990 6254 6255 0
-6256 -6257 0
-6256 -6258 0
-6257 -6258 0
6256 6257 6258 0
-278 -6259 0
-278 -6260 0
-6259 -6260 0
278 6259 6260 0
-3766 -6261 0
-3766 -6262 0
-6261 -6262 0
3766 6261 6262 0
-4801 -6263 0
-4801 -6264 0
-6263 -6264 0
4801 6263 6264 0
-3371 -6265 0
-3371 -6266 0
-6265 -6266 0
3371 6265 6266 0
-3167 -6267 0
-3167 -6268 0
-6267 -6268 0
3167 6267 6268 0
-6269 -6270 0
-6269 -6271 0
-6270 -6271 0
6269 6270 6271 0
-2962 -6272 0
-2962 -6273 0
-6272 -6273 0
2962 6272 6273 0
-6274 -6275 0
-6274 -6276 0
-6275 -6276 0
6274 6275 6276 0
-6277 -6278 0
-6277 -6279 0
-6278 -6279 0
6277 6278 6279 0
-6280 -6281 0
-6280 -6282 0
-6281 -6282 0
6280 6281 6282 0
-4488 -6283 0
-4488 -6284 0
-6283 -6284 0
4488 6283 6284 0
-3056 -6285 0
-3056 -6286 0
-6285 -6286 0
3056 6285 6286 0
-6287 -6288 0
-6287 -6289 0
-6288 -6289 0
6287 6288 6289 0
-3608 -4557 0
-3608 -6290 0
-4557 -6290 0
3608 4557 6290 0
-3448 -6291 0
-3448 -6292 0
-6291 -6292 0
3448 6291 6292 0
-5750 -6293 0
-5750 -6294 0
-6293 -6294 0
5750 6293 6294 0
-6295 -6296 0
-6295 -6297 0
-6296 -6297 0
6295 6296 6297 0
-6298 -6299 0
-6298 -6300 0
-6299 -6300 0
6298 6299 6300 0
-867 -1138 0
-867 -6301 0
-1138 -6301 0
867 1138 6301 0
-4836 -6302 0
-4836 -6303 0
-6302 -6303 0
4836 6302 6303 0
-6304 -6305 0
-6304 -6306 0
-6305 -6306 0
6304 6305 6306 0
-5819 -6307 0
-5819 -6308 0
-6307 -6308 0
5819 6307 6308 0
-6309 -6310 0
-6309 -6311 0
-6310 -6311 0
6309 6310 6311 0
-4075 -6312 0
-4075 -6313 0
-6312 -6313 0
4075 6312 6313 0
-6314 -6315 0
-6314 -6316 0
-6315 -6316 0
6314 6315 6316 0
-5535 -6317 0
-5535 -6318 0
-6317 -6318 0
5535 6317 6318 0
-2963 -6319 0
-2963 -6320 0
-6319 -6320 0
2963 6319 6320 0
-6321 -6322 0
-6321 -6323 0
-6322 -6323 0
6321 6322 6323 0
-6324 -6325 0
-6324 -6326 0
-6325 -6326 0
6324 6325 6326 0
-6327 -6328 0
-6327 -6329 0
-6328 -6329 0
6327 6328 6329 0
-6330 -6331 0
-6330 -6332 0
-6331 -6332 0
6330 6331 6332 0
-5994 -6333 0
-5994 -6334 0
-6333 -6334 0
5994 6333 6334 0
-4626 -6335 0
-4626 -6336 0
-6335 -6336 0
4626 6335 6336 0
-4998 -6337 0
-4998 -6338 0
-6337 -6338 0
4998 6337 6338 0
-6339 -6340 0
-6339 -6341 0
-6340 -6341 0
6339 6340 6341 0
-6342 -6343 0
-6342 -6344 0
-6343 -6344 0
6342 6343 6344 0
-6345 -6346 0
-6345 -6347 0
-6346 -6347 0
6345 6346 6347 0
-6348 -6349 0
-6348 -6350 0
-6349 -6350 0
6348 6349 6350 0
-1446 -5686 0
-1446 -6351 0
-5686 -6351 0
1446 5686 6351 0
-5439 -6352 0
-5439 -6353 0
-6352 -6353 0
5439 6352 6353 0
-6354 -6355 0
-6354 -6356 0
-6355 -6356 0
6354 6355 6356 0
-1570 -6357 0
-1570 -6358 0
-6357 -6358 0
1570 6357 6358 0
-6359 -6360 0
-6359 -6361 0
-6360 -6361 0
6359 6360 6361 0
-1952 -6362 0
-1952 -6363 0
-6362 -6363 0
1952 6362 6363 0
-3334 -5293 0
-3334 -6364 0
-5293 -6364 0
3334 5293 6364 0
-6365 -6366 0
-6365 -6367 0
-6366 -6367 0
6365 6366 6367 0
-6368 -6369 0
-6368 -6370 0
-6369 -6370 0
6368 6369 6370 0
-6371 -6372 0
-6371 -6373 0
-6372 -6373 0
6371 6372 6373 0
-6374 -6375 0
-6374 -6376 0
-6375 -6376 0
6374 6375 6376 0
-6377 -6378 0
-6377 -6379 0
-6378 -6379 0
6377 6378 6379 0
-6380 -6381 0
-6380 -6382 0
-6381 -6382 0
6380 6381 6382 0
-787 -6383 0
-787 -6384 0
-6383 -6384 0
787 6383 6384 0
-6385 -6386 0
-6385 -6387 0
-6386 -6387 0
6385 6386 6387 0
-876 -6388 0
-876 -6389 0
-6388 -6389 0
876 6388 6389 0
-4308 -6390 0
-4308 -6391 0
-6390 -6391 0
4308 6390 6391 0
-6392 -6393 0
-6392 -6394 0
-6393 -6394 0
6392 6393 6394 0
-6395 -6396 0
-6395 -6397 0
-6396 -6397 0
6395 6396 6397 0
-1917 -6398 0
-1917 -6399 0
-6398 -6399 0
1917 6398 6399 0
-6134 -6400 0
-6134 -6401 0
-6400 -6401 0
6134 6400 6401 0
-4126 -5190 0
-4126 -6402 0
-5190 -6402 0
4126 5190 6402 0
-6403 -6404 0
-6403 -6405 0
-6404 -6405 0
6403 6404 6405 0
-6406 -6407 0
-6406 -6408 0
-6407 -6408 0
6406 6407 6408 0
-1919 -6409 0
-1919 -6410 0
-6409 -6410 0
1919 6409 6410 0
-6411 -6412 0
-6411 -6413 0
-6412 -6413 0
6411 6412 6413 0
-6414 -6415 0
-6414 -6416 0
-6415 -6416 0
6414 6415 6416 0
-6417 -6418 0
-6417 -6419 0
-6418 -6419 0
6417 6418 6419 0
-6028 -6420 0
-6028 -6421 0
-6420 -6421 0
6028 6420 6421 0
-1169 -6422 0
-1169 -6423 0
-6422 -6423 0
1169 6422 6423 0
-6424 -6425 0
-6424 -6426 0
-6425 -6426 0
6424 6425 6426 0
-1858 -2437 0
-1858 -6427 0
-2437 -6427 0
1858 2437 6427 0
-2416 -6428 0
-2416 -6429 0
-6428 -6429 0
2416 6428 6429 0
-3472 -6430 0
-3472 -6431 0
-6430 -6431 0
3472 6430 6431 0
-995 -6432 0
-995 -6433 0
-6432 -6433 0
995 6432 6433 0
-664 -6434 0
-664 -6435 0
-6434 -6435 0
664 6434 6435 0
-2439 -2988 0
-2439 -5555 0
-2988 -5555 0
2439 2988 5555 0
-6436 -6437 0
-6436 -6438 0
-6437 -6438 0
6436 6437 6438 0
-6439 -6440 0
-6439 -6441 0
-6440 -6441 0
6439 6440 6441 0
-254 -3621 0
-254 -6442 0
-3621 -6442 0
254 3621 6442 0
-6443 -6444 0
-6443 -6445 0
-6444 -6445 0
6443 6444 6445 0
-1029 -6446 0
-1029 -6447 0
-6446 -6447 0
1029 6446 6447 0
-3737 -6448 0
-3737 -6449 0
-6448 -6449 0
3737 6448 6449 0
-1856 -6450 0
-1856 -6451 0
-6450 -6451 0
1856 6450 6451 0
-71 -6452 0
-71 -6453 0
-6452 -6453 0
71 6452 6453 0
-2250 -6454 0
-2250 -6455 0
-6454 -6455 0
2250 6454 6455 0
-982 -3714 0
-982 -6456 0
-3714 -6456 0
982 3714 6456 0
-6457 -6458 0
-6457 -6459 0
-6458 -6459 0
6457 6458 6459 0
-6460 -6461 0
-6460 -6462 0
-6461 -6462 0
6460 6461 6462 0
-838 -5018 0
-838 -6228 0
-5018 -6228 0
838 5018 6228 0
-1285 -6463 0
-1285 -6464 0
-6463 -6464 0
1285 6463 6464 0
-6465 -6466 0
-6465 -6467 0
-6466 -6467 0
6465 6466 6467 0
-3110 -6468 0
-3110 -6469 0
-6468 -6469 0
3110 6468 6469 0
-6470 -6471 0
-6470 -6472 0
-6471 -6472 0
6470 6471 6472 0
-970 -2424 0
-970 -6473 0
-2424 -6473 0
970 2424 6473 0
-384 -5448 0
-384 -6474 0
-5448 -6474 0
384 5448 6474 0
-3869 -5714 0
-3869 -6475 0
-5714 -6475 0
3869 5714 6475 0
-5864 -6476 0
-5864 -6477 0
-6476 -6477 0
5864 6476 6477 0
-6478 -6479 0
-6478 -6480 0
-6479 -6480 0
6478 6479 6480 0
-1524 -6481 0
-1524 -6482 0
-6481 -6482 0
1524 6481 6482 0
-5046 -6483 0
-5046 -6484 0
-6483 -6484 0
5046 6483 6484 0
-2105 -6485 0
-2105 -6486 0
-6485 -6486 0
2105 6485 6486 0
-3971 -6487 0
-3971 -6488 0
-6487 -6488 0
3971 6487 6488 0
-1009 -6489 0
-1009 -6490 0
-6489 -6490 0
1009 6489 6490 0
-6491 -6492 0
-6491 -6493 0
-6492 -6493 0
6491 6492 6493 0
-6494 -6495 0
-6494 -6496 0
-6495 -6496 0
6494 6495 6496 0
-6497 -6498 0
-6497 -6499 0
-6498 -6499 0
6497 6498 6499 0
-5679 -6500 0
-5679 -6501 0
-6500 -6501 0
5679 6500 6501 0
-5334 -6502 0
-5334 -6503 0
-6502 -6503 0
5334 6502 6503 0
-260 -6504 0
-260 -6505 0
-6504 -6505 0
260 6504 6505 0
-6506 -6507 0
-6506 -6508 0
-6507 -6508 0
6506 6507 6508 0
-6509 -6510 0
-6509 -6511 0
-6510 -6511 0
6509 6510 6511 0
-4778 -6512 0
-4778 -6513 0
-6512 -6513 0
4778 6512 6513 0
-5239 -6065 0
-5239 -6514 0
-6065 -6514 0
5239 6065 6514 0
-3038 -4282 0
-3038 -5974 0
-4282 -5974 0
3038 4282 5974 0
-6515 -6516 0
-6515 -6517 0
-6516 -6517 0
6515 6516 6517 0
-6518 -6519 0
-6518 -6520 0
-6519 -6520 0
6518 6519 6520 0
-6521 -6522 0
-6521 -6523 0
-6522 -6523 0
6521 6522 6523 0
-6524 -6525 0
-6524 -6526 0
-6525 -6526 0
6524 6525 6526 0
-6527 -6528 0
-6527 -6529 0
-6528 -6529 0
6527 6528 6529 0
-5744 -6530 0
-5744 -6531 0
-6530 -6531 0
5744 6530 6531 0
-2123 -6020 0
-2123 -6532 0
-6020 -6532 0
2123 6020 6532 0
-3936 -6533 0
-3936 -6534 0
-6533 -6534 0
3936 6533 6534 0
-6374 -6535 0
-6374 -6536 0
-6535 -6536 0
6374 6535 6536 0
-6537 -6538 0
-6537 -6539 0
-6538 -6539 0
6537 6538 6539 0
-6540 -6541 0
-6540 -6542 0
-6541 -6542 0
6540 6541 6542 0
-883 -3228 0
-883 -6543 0
-3228 -6543 0
883 3228 6543 0
-213 -6544 0
-213 -6545 0
-6544 -6545 0
213 6544 6545 0
-3852 -6119 0
-3852 -6546 0
-6119 -6546 0
3852 6119 6546 0
-1815 -1940 0
-1815 -6547 0
-1940 -6547 0
1815 1940 6547 0
-6259 -6548 0
-6259 -6549 0
-6548 -6549 0
6259 6548 6549 0
-2425 -6550 0
-2425 -6551 0
-6550 -6551 0
2425 6550 6551 0
-2842 -4229 0
-2842 -6552 0
-4229 -6552 0
2842 4229 6552 0
-6357 -6553 0
-6357 -6554 0
-6553 -6554 0
6357 6553 6554 0
-3743 -6476 0
-3743 -6555 0
-6476 -6555 0
3743 6476 6555 0
-6556 -6557 0
-6556 -6558 0
-6557 -6558 0
6556 6557 6558 0
-4922 -6559 0
-4922 -6560 0
-6559 -6560 0
4922 6559 6560 0
-2228 -3778 0
-2228 -6561 0
-3778 -6561 0
2228 3778 6561 0
-6562 -6563 0
-6562 -6564 0
-6563 -6564 0
6562 6563 6564 0
-1098 -6565 0
-1098 -6566 0
-6565 -6566 0
1098 6565 6566 0
-5302 -6567 0
-5302 -6568 0
-6567 -6568 0
5302 6567 6568 0
-5666 -6569 0
-5666 -6570 0
-6569 -6570 0
5666 6569 6570 0
-464 -1339 0
-464 -6571 0
-1339 -6571 0
464 1339 6571 0
-4249 -6572 0
-4249 -6573 0
-6572 -6573 0
4249 6572 6573 0
-6574 -6575 0
-6574 -6576 0
-6575 -6576 0
6574 6575 6576 0
-4584 -6577 0
-4584 -6578 0
-6577 -6578 0
4584 6577 6578 0
-4402 -5261 0
-4402 -6579 0
-5261 -6579 0
4402 5261 6579 0
-6580 -6581 0
-6580 -6582 0
-6581 -6582 0
6580 6581 6582 0
-1021 -6583 0
-1021 -6584 0
-6583 -6584 0
1021 6583 6584 0
-6585 -6586 0
-6585 -6587 0
-6586 -6587 0
6585 6586 6587 0
-6588 -6589 0
-6588 -6590 0
-6589 -6590 0
6588 6589 6590 0
-3105 -6591 0
-3105 -6592 0
-6591 -6592 0
3105 6591 6592 0
-665 -6593 0
-665 -6594 0
-6593 -6594 0
665 6593 6594 0
-2460 -6595 0
-2460 -6596 0
-6595 -6596 0
2460 6595 6596 0
-6457 -6597 0
-6457 -6598 0
-6597 -6598 0
6457 6597 6598 0
-6599 -6600 0
-6599 -6601 0
-6600 -6601 0
6599 6600 6601 0
-6116 -6602 0
-6116 -6603 0
-6602 -6603 0
6116 6602 6603 0
-1214 -6604 0
-1214 -6605 0
-6604 -6605 0
1214 6604 6605 0
-6606 -6607 0
-6606 -6608 0
-6607 -6608 0
6606 6607 6608 0
-6609 -6610 0
-6609 -6611 0
-6610 -6611 0
6609 6610 6611 0
-4931 -6612 0
-4931 -6613 0
-6612 -6613 0
4931 6612 6613 0
-6614 -6615 0
-6614 -6616 0
-6615 -6616 0
6614 6615 6616 0
-6617 -6618 0
-6617 -6619 0
-6618 -6619 0
6617 6618 6619 0
-6620 -6621 0
-6620 -6622 0
-6621 -6622 0
6620 6621 6622 0
-2648 -6623 0
-2648 -6624 0
-6623 -6624 0
2648 6623 6624 0
-6267 -6625 0
-6267 -6626 0
-6625 -6626 0
6267 6625 6626 0
-6627 -6628 0
-6627 -6629 0
-6628 -6629 0
6627 6628 6629 0
-5095 -6630 0
-5095 -6631 0
-6630 -6631 0
5095 6630 6631 0
-4331 -6632 0
-4331 -6633 0
-6632 -6633 0
4331 6632 6633 0
-6634 -6635 0
-6634 -6636 0
-6635 -6636 0
6634 6635 6636 0
-6637 -6638 0
-6637 -6639 0
-6638 -6639 0
6637 6638 6639 0
-5604 -6640 0
-5604 -6641 0
-6640 -6641 0
5604 6640 6641 0
-4414 -6642 0
-4414 -6643 0
-6642 -6643 0
4414 6642 6643 0
-6644 -6645 0
-6644 -6646 0
-6645 -6646 0
6644 6645 6646 0
-6647 -6648 0
-6647 -6649 0
-6648 -6649 0
6647 6648 6649 0
-2062 -6650 0
-2062 -6651 0
-6650 -6651 0
2062 6650 6651 0
-6652 -6653 0
-6652 -6654 0
-6653 -6654 0
6652 6653 6654 0
-6655 -6656 0
-6655 -6657 0
-6656 -6657 0
6655 6656 6657 0
-5668 -6658 0
-5668 -6659 0
-6658 -6659 0
5668 6658 6659 0
-6291 -6660 0
-6291 -6661 0
-6660 -6661 0
6291 6660 6661 0
-3688 -6662 0
-3688 -6663 0
-6662 -6663 0
3688 6662 6663 0
-6664 -6665 0
-6664 -6666 0
-6665 -6666 0
6664 6665 6666 0
-6667 -6668 0
-6667 -6669 0
-6668 -6669 0
6667 6668 6669 0
-3834 -4841 0
-3834 -6670 0
-4841 -6670 0
3834 4841 6670 0
-6671 -6672 0
-6671 -6673 0
-6672 -6673 0
6671 6672 6673 0
-6674 -6675 0
-6674 -6676 0
-6675 -6676 0
6674 6675 6676 0
-1423 -6677 0
-1423 -6678 0
-6677 -6678 0
1423 6677 6678 0
-3967 -6679 0
-3967 -6680 0
-6679 -6680 0
3967 6679 6680 0
-6681 -6682 0
-6681 -6683 0
-6682 -6683 0
6681 6682 6683 0
-5204 -5327 0
-5204 -6684 0
-5327 -6684 0
5204 5327 6684 0
-6685 -6686 0
-6685 -6687 0
-6686 -6687 0
6685 6686 6687 0
-6688 -6689 0
-6688 -6690 0
-6689 -6690 0
6688 6689 6690 0
-6691 -6692 0
-6691 -6693 0
-6692 -6693 0
6691 6692 6693 0
-2296 -6694 0
-2296 -6695 0
-6694 -6695 0
2296 6694 6695 0
-5779 -6696 0
-5779 -6697 0
-6696 -6697 0
5779 6696 6697 0
-3788 -6698 0
-3788 -6699 0
-6698 -6699 0
3788 6698 6699 0
-6700 -6701 0
-6700 -6702 0
-6701 -6702 0
6700 6701 6702 0
-50 -6703 0
-50 -6704 0
-6703 -6704 0
50 6703 6704 0
-3294 -4741 0
-3294 -6705 0
-4741 -6705 0
3294 4741 6705 0
-6706 -6707 0
-6706 -6708 0
-6707 -6708 0
6706 6707 6708 0
-6709 -6710 0
-6709 -6711 0
-6710 -6711 0
6709 6710 6711 0
-3208 -6712 0
-3208 -6713 0
-6712 -6713 0
3208 6712 6713 0
-6714 -6715 0
-6714 -6716 0
-6715 -6716 0
6714 6715 6716 0
-363 -6717 0
-363 -6718 0
-6717 -6718 0
363 6717 6718 0
-6719 -6720 0
-6719 -6721 0
-6720 -6721 0
6719 6720 6721 0
-6722 -6723 0
-6722 -6724 0
-6723 -6724 0
6722 6723 6724 0
-6725 -6726 0
-6725 -6727 0
-6726 -6727 0
6725 6726 6727 0
-6728 -6729 0
-6728 -6730 0
-6729 -6730 0
6728 6729 6730 0
-1022 -6731 0
-1022 -6732 0
-6731 -6732 0
1022 6731 6732 0
-6733 -6734 0
-6733 -6735 0
-6734 -6735 0
6733 6734 6735 0
-6736 -6737 0
-6736 -6738 0
-6737 -6738 0
6736 6737 6738 0
-6739 -6740 0
-6739 -6741 0
-6740 -6741 0
6739 6740 6741 0
-1120 -3746 0
-1120 -6742 0
-3746 -6742 0
1120 3746 6742 0
-6743 -6744 0
-6743 -6745 0
-6744 -6745 0
6743 6744 6745 0
-4589 -6746 0
-4589 -6747 0
-6746 -6747 0
4589 6746 6747 0
-6748 -6749 0
-6748 -6750 0
-6749 -6750 0
6748 6749 6750 0
-4982 -6751 0
-4982 -6752 0
-6751 -6752 0
4982 6751 6752 0
-6753 -6754 0
-6753 -6755 0
-6754 -6755 0
6753 6754 6755 0
-2572 -4850 0
-2572 -6756 0
-4850 -6756 0
2572 4850 6756 0
-6757 -6758 0
-6757 -6759 0
-6758 -6759 0
6757 6758 6759 0
-6760 -6761 0
-6760 -6762 0
-6761 -6762 0
6760 6761 6762 0
-2047 -6763 0
-2047 -6764 0
-6763 -6764 0
2047 6763 6764 0
-6765 -6766 0
-6765 -6767 0
-6766 -6767 0
6765 6766 6767 0
-846 -6768 0
-846 -6769 0
-6768 -6769 0
846 6768 6769 0
-2705 -6770 0
-2705 -6771 0
-6770 -6771 0
2705 6770 6771 0
-6606 -6772 0
-6606 -6773 0
-6772 -6773 0
6606 6772 6773 0
-6774 -6775 0
-6774 -6776 0
-6775 -6776 0
6774 6775 6776 0
-6602 -6777 0
-6602 -6778 0
-6777 -6778 0
6602 6777 6778 0
-6779 -6780 0
-6779 -6781 0
-6780 -6781 0
6779 6780 6781 0
-1483 -6782 0
-1483 -6783 0
-6782 -6783 0
1483 6782 6783 0
-2677 -3047 0
-2677 -6784 0
-3047 -6784 0
2677 3047 6784 0
-6785 -6786 0
-6785 -6787 0
-6786 -6787 0
6785 6786 6787 0
-6788 -6789 0
-6788 -6790 0
-6789 -6790 0
6788 6789 6790 0
-3663 -6791 0
-3663 -6792 0
-6791 -6792 0
3663 6791 6792 0
-6793 -6794 0
-6793 -6795 0
-6794 -6795 0
6793 6794 6795 0
-4265 -6796 0
-4265 -6797 0
-6796 -6797 0
4265 6796 6797 0
-6798 -6799 0
-6798 -6800 0
-6799 -6800 0
6798 6799 6800 0
-1176 -5899 0
-1176 -6801 0
-5899 -6801 0
1176 5899 6801 0
-6802 -6803 0
-6802 -6804 0
-6803 -6804 0
6802 6803 6804 0
-6805 -6806 0
-6805 -6807 0
-6806 -6807 0
6805 6806 6807 0
-2433 -6808 0
-2433 -6809 0
-6808 -6809 0
2433 6808 6809 0
-6810 -6811 0
-6810 -6812 0
-6811 -6812 0
6810 6811 6812 0
-1762 -6813 0
-1762 -6814 0
-6813 -6814 0
1762 6813 6814 0
-3692 -6815 0
-3692 -6816 0
-6815 -6816 0
3692 6815 6816 0
-91 -3454 0
-91 -6817 0
-3454 -6817 0
91 3454 6817 0
-5030 -6818 0
-5030 -6819 0
-6818 -6819 0
5030 6818 6819 0
-1019 -4235 0
-1019 -6820 0
-4235 -6820 0
1019 4235 6820 0
-6487 -6821 0
-6487 -6822 0
-6821 -6822 0
6487 6821 6822 0
-6823 -6824 0
-6823 -6825 0
-6824 -6825 0
6823 6824 6825 0
-4458 -6826 0
-4458 -6827 0
-6826 -6827 0
4458 6826 6827 0
-6828 -6829 0
-6828 -6830 0
-6829 -6830 0
6828 6829 6830 0
-1270 -2554 0
-1270 -6831 0
-2554 -6831 0
1270 2554 6831 0
-723 -6832 0
-723 -6833 0
-6832 -6833 0
723 6832 6833 0
-6834 -6835 0
-6834 -6836 0
-6835 -6836 0
6834 6835 6836 0
-309 -4704 0
-309 -6837 0
-4704 -6837 0
309 4704 6837 0
-505 -3699 0
-505 -6838 0
-3699 -6838 0
505 3699 6838 0
-6839 -6840 0
-6839 -6841 0
-6840 -6841 0
6839 6840 6841 0
-6842 -6843 0
-6842 -6844 0
-6843 -6844 0
6842 6843 6844 0
-1509 -6845 0
-1509 -6846 0
-6845 -6846 0
1509 6845 6846 0
-145 -6847 0
-145 -6848 0
-6847 -6848 0
145 6847 6848 0
-5762 -6849 0
-5762 -6850 0
-6849 -6850 0
5762 6849 6850 0
-817 -5912 0
-817 -6851 0
-5912 -6851 0
817 5912 6851 0
-895 -6852 0
-895 -6853 0
-6852 -6853 0
895 6852 6853 0
-6854 -6855 0
-6854 -6856 0
-6855 -6856 0
6854 6855 6856 0
-535 -6857 0
-535 -6858 0
-6857 -6858 0
535 6857 6858 0
-6859 -6860 0
-6859 -6861 0
-6860 -6861 0
6859 6860 6861 0
-1737 -5556 0
-1737 -6094 0
-5556 -6094 0
1737 5556 6094 0
-6862 -6863 0
-6862 -6864 0
-6863 -6864 0
6862 6863 6864 0
-2303 -6865 0
-2303 -6866 0
-6865 -6866 0
2303 6865 6866 0
-5882 -6867 0
-5882 -6868 0
-6867 -6868 0
5882 6867 6868 0
-6869 -6870 0
-6869 -6871 0
-6870 -6871 0
6869 6870 6871 0
-5867 -6872 0
-5867 -6873 0
-6872 -6873 0
5867 6872 6873 0
-6874 -6875 0
-6874 -6876 0
-6875 -6876 0
6874 6875 6876 0
-6877 -6878 0
-6877 -6879 0
-6878 -6879 0
6877 6878 6879 0
-2312 -6880 0
-2312 -6881 0
-6880 -6881 0
2312 6880 6881 0
-4447 -6882 0
-4447 -6883 0
-6882 -6883 0
4447 6882 6883 0
-6884 -6885 0
-6884 -6886 0
-6885 -6886 0
6884 6885 6886 0
-6887 -6888 0
-6887 -6889 0
-6888 -6889 0
6887 6888 6889 0
-3423 -6890 0
-3423 -6891 0
-6890 -6891 0
3423 6890 6891 0
-5113 -6892 0
-5113 -6893 0
-6892 -6893 0
5113 6892 6893 0
-3858 -6894 0
-3858 -6895 0
-6894 -6895 0
3858 6894 6895 0
-6896 -6897 0
-6896 -6898 0
-6897 -6898 0
6896 6897 6898 0
-369 -6899 0
-369 -6900 0
-6899 -6900 0
369 6899 6900 0
-3891 -6901 0
-3891 -6902 0
-6901 -6902 0
3891 6901 6902 0
-5199 -5954 0
-5199 -6903 0
-5954 -6903 0
5199 5954 6903 0
-6904 -6905 0
-6904 -6906 0
-6905 -6906 0
6904 6905 6906 0
-6907 -6908 0
-6907 -6909 0
-6908 -6909 0
6907 6908 6909 0
-5792 -6910 0
-5792 -6911 0
-6910 -6911 0
5792 6910 6911 0
-6912 -6913 0
-6912 -6914 0
-6913 -6914 0
6912 6913 6914 0
-52 -6915 0
-52 -6916 0
-6915 -6916 0
52 6915 6916 0
-6917 -6918 0
-6917 -6919 0
-6918 -6919 0
6917 6918 6919 0
-6920 -6921 0
-6920 -6922 0
-6921 -6922 0
6920 6921 6922 0
-4747 -6923 0
-4747 -6924 0
-6923 -6924 0
4747 6923 6924 0
-1035 -5629 0
-1035 -6925 0
-5629 -6925 0
1035 5629 6925 0
-6926 -6927 0
-6926 -6928 0
-6927 -6928 0
6926 6927 6928 0
-5530 -6662 0
-5530 -6929 0
-6662 -6929 0
5530 6662 6929 0
-6930 -6931 0
-6930 -6932 0
-6931 -6932 0
6930 6931 6932 0
-6933 -6934 0
-6933 -6935 0
-6934 -6935 0
6933 6934 6935 0
-6448 -6936 0
-6448 -6937 0
-6936 -6937 0
6448 6936 6937 0
-6938 -6939 0
-6938 -6940 0
-6939 -6940 0
6938 6939 6940 0
-3878 -6941 0
-3878 -6942 0
-6941 -6942 0
3878 6941 6942 0
-4257 -6880 0
-4257 -6943 0
-6880 -6943 0
4257 6880 6943 0
-2011 -6944 0
-2011 -6945 0
-6944 -6945 0
2011 6944 6945 0
-3758 -6946 0
-3758 -6947 0
-6946 -6947 0
3758 6946 6947 0
-5728 -6948 0
-5728 -6949 0
-6948 -6949 0
5728 6948 6949 0
-3272 -4692 0
-3272 -6950 0
-4692 -6950 0
3272 4692 6950 0
-3267 -4765 0
-3267 -6951 0
-4765 -6951 0
3267 4765 6951 0
-6952 -6953 0
-6952 -6954 0
-6953 -6954 0
6952 6953 6954 0
-332 -6955 0
-332 -6956 0
-6955 -6956 0
332 6955 6956 0
-5650 -6957 0
-5650 -6958 0
-6957 -6958 0
5650 6957 6958 0
-6959 -6960 0
-6959 -6961 0
-6960 -6961 0
6959 6960 6961 0
-6962 -6963 0
-6962 -6964 0
-6963 -6964 0
6962 6963 6964 0
-909 -6965 0
-909 -6966 0
-6965 -6966 0
909 6965 6966 0
-5513 -6967 0
-5513 -6968 0
-6967 -6968 0
5513 6967 6968 0
-2373 -6969 0
-2373 -6970 0
-6969 -6970 0
2373 6969 6970 0
-17 -6971 0
-17 -6972 0
-6971 -6972 0
17 6971 6972 0
-4618 -6973 0
-4618 -6974 0
-6973 -6974 0
4618 6973 6974 0
-6975 -6976 0
-6975 -6977 0
-6976 -6977 0
6975 6976 6977 0
-6978 -6979 0
-6978 -6980 0
-6979 -6980 0
6978 6979 6980 0
-2 -6981 0
-2 -6982 0
-6981 -6982 0
2 6981 6982 0
-617 -5820 0
-617 -6983 0
-5820 -6983 0
617 5820 6983 0
-1015 -2245 0
-1015 -4409 0
-2245 -4409 0
1015 2245 4409 0
-5605 -6984 0
-5605 -6985 0
-6984 -6985 0
5605 6984 6985 0
-3000 -6986 0
-3000 -6987 0
-6986 -6987 0
3000 6986 6987 0
-6867 -6988 0
-6867 -6989 0
-6988 -6989 0
6867 6988 6989 0
-1300 -5019 0
-1300 -6990 0
-5019 -6990 0
1300 5019 6990 0
-1172 -6991 0
-1172 -6992 0
-6991 -6992 0
1172 6991 6992 0
-2188 -6993 0
-2188 -6994 0
-6993 -6994 0
2188 6993 6994 0
-6277 -6995 0
-6277 -6996 0
-6995 -6996 0
6277 6995 6996 0
-6997 -6998 0
-6997 -6999 0
-6998 -6999 0
6997 6998 6999 0
-5396 -7000 0
-5396 -7001 0
-7000 -7001 0
5396 7000 7001 0
-3837 -7002 0
-3837 -7003 0
-7002 -7003 0
3837 7002 7003 0
-5592 -7004 0
-5592 -7005 0
-7004 -7005 0
5592 7004 7005 0
-7006 -7007 0
-7006 -7008 0
-7007 -7008 0
7006 7007 7008 0
-4591 -4859 0
-4591 -6278 0
-4859 -6278 0
4591 4859 6278 0
-7009 -7010 0
-7009 -7011 0
-7010 -7011 0
7009 7010 7011 0
-5191 -7012 0
-5191 -7013 0
-7012 -7013 0
5191 7012 7013 0
-7014 -7015 0
-7014 -7016 0
-7015 -7016 0
7014 7015 7016 0
-3305 -7017 0
-3305 -7018 0
-7017 -7018 0
3305 7017 7018 0
-2649 -7019 0
-2649 -7020 0
-7019 -7020 0
2649 7019 7020 0
-6838 -7021 0
-6838 -7022 0
-7021 -7022 0
6838 7021 7022 0
-6403 -7023 0
-6403 -7024 0
-7023 -7024 0
6403 7023 7024 0
-4219 -7025 0
-4219 -7026 0
-7025 -7026 0
4219 7025 7026 0
-7027 -7028 0
-7027 -7029 0
-7028 -7029 0
7027 7028 7029 0
-1525 -7030 0
-1525 -7031 0
-7030 -7031 0
1525 7030 7031 0
-7032 -7033 0
-7032 -7034 0
-7033 -7034 0
7032 7033 7034 0
-7035 -7036 0
-7035 -7037 0
-7036 -7037 0
7035 7036 7037 0
-7038 -7039 0
-7038 -7040 0
-7039 -7040 0
7038 7039 7040 0
-327 -771 0
-327 -6941 0
-771 -6941 0
327 771 6941 0
-7041 -7042 0
-7041 -7043 0
-7042 -7043 0
7041 7042 7043 0
-7044 -7045 0
-7044 -7046 0
-7045 -7046 0
7044 7045 7046 0
-5733 -6936 0
-5733 -7047 0
-6936 -7047 0
5733 6936 7047 0
-7048 -7049 0
-7048 -7050 0
-7049 -7050 0
7048 7049 7050 0
-7051 -7052 0
-7051 -7053 0
-7052 -7053 0
7051 7052 7053 0
-2182 -5944 0
-2182 -7054 0
-5944 -7054 0
2182 5944 7054 0
-7055 -7056 0
-7055 -7057 0
-7056 -7057 0
7055 7056 7057 0
-6607 -7058 0
-6607 -7059 0
-7058 -7059 0
6607 7058 7059 0
-1657 -1754 0
-1657 -7060 0
-1754 -7060 0
1657 1754 7060 0
-2652 -7061 0
-2652 -7062 0
-7061 -7062 0
2652 7061 7062 0
-2965 -7063 0
-2965 -7064 0
-7063 -7064 0
2965 7063 7064 0
-575 -6033 0
-575 -6884 0
-6033 -6884 0
575 6033 6884 0
-7065 -7066 0
-7065 -7067 0
-7066 -7067 0
7065 7066 7067 0
-7068 -7069 0
-7068 -7070 0
-7069 -7070 0
7068 7069 7070 0
-7071 -7072 0
-7071 -7073 0
-7072 -7073 0
7071 7072 7073 0
-7074 -7075 0
-7074 -7076 0
-7075 -7076 0
7074 7075 7076 0
-5992 -7077 0
-5992 -7078 0
-7077 -7078 0
5992 7077 7078 0
-7079 -7080 0
-7079 -7081 0
-7080 -7081 0
7079 7080 7081 0
-7082 -7083 0
-7082 -7084 0
-7083 -7084 0
7082 7083 7084 0
-2237 -7085 0
-2237 -7086 0
-7085 -7086 0
2237 7085 7086 0
-5507 -7087 0
-5507 -7088 0
-7087 -7088 0
5507 7087 7088 0
-7089 -7090 0
-7089 -7091 0
-7090 -7091 0
7089 7090 7091 0
-7092 -7093 0
-7092 -7094 0
-7093 -7094 0
7092 7093 7094 0
-7095 -7096 0
-7095 -7097 0
-7096 -7097 0
7095 7096 7097 0
-2248 -7098 0
-2248 -7099 0
-7098 -7099 0
2248 7098 7099 0
-6952 -7100 0
-6952 -7101 0
-7100 -7101 0
6952 7100 7101 0
-5271 -7102 0
-5271 -7103 0
-7102 -7103 0
5271 7102 7103 0
-7104 -7105 0
-7104 -7106 0
-7105 -7106 0
7104 7105 7106 0
-7107 -7108 0
-7107 -7109 0
-7108 -7109 0
7107 7108 7109 0
-5593 -7110 0
-5593 -7111 0
-7110 -7111 0
5593 7110 7111 0
-7112 -7113 0
-7112 -7114 0
-7113 -7114 0
7112 7113 7114 0
-1552 -7115 0
-1552 -7116 0
-7115 -7116 0
1552 7115 7116 0
-4670 -7117 0
-4670 -7118 0
-7117 -7118 0
4670 7117 7118 0
-637 -6244 0
-637 -7119 0
-6244 -7119 0
637 6244 7119 0
-3570 -6066 0
-3570 -7120 0
-6066 -7120 0
3570 6066 7120 0
-7121 -7122 0
-7121 -7123 0
-7122 -7123 0
7121 7122 7123 0
-1239 -7124 0
-1239 -7125 0
-7124 -7125 0
1239 7124 7125 0
-7126 -7127 0
-7126 -7128 0
-7127 -7128 0
7126 7127 7128 0
-4095 -7129 0
-4095 -7130 0
-7129 -7130 0
4095 7129 7130 0
-7131 -7132 0
-7131 -7133 0
-7132 -7133 0
7131 7132 7133 0
-7134 -7135 0
-7134 -7136 0
-7135 -7136 0
7134 7135 7136 0
-4713 -7137 0
-4713 -7138 0
-7137 -7138 0
4713 7137 7138 0
-3888 -7139 0
-3888 -7140 0
-7139 -7140 0
3888 7139 7140 0
-2895 -6043 0
-2895 -6443 0
-6043 -6443 0
2895 6043 6443 0
-4449 -7141 0
-4449 -7142 0
-7141 -7142 0
4449 7141 7142 0
-1976 -6670 0
-1976 -7143 0
-6670 -7143 0
1976 6670 7143 0
-880 -7144 0
-880 -7145 0
-7144 -7145 0
880 7144 7145 0
-7146 -7147 0
-7146 -7148 0
-7147 -7148 0
7146 7147 7148 0
-3769 -7149 0
-3769 -7150 0
-7149 -7150 0
3769 7149 7150 0
-2057 -6854 0
-2057 -7151 0
-6854 -7151 0
2057 6854 7151 0
-7152 -7153 0
-7152 -7154 0
-7153 -7154 0
7152 7153 7154 0
-3249 -7155 0
-3249 -7156 0
-7155 -7156 0
3249 7155 7156 0
-2540 -7157 0
-2540 -7158 0
-7157 -7158 0
2540 7157 7158 0
-7159 -7160 0
-7159 -7161 0
-7160 -7161 0
7159 7160 7161 0
-6304 -7162 0
-6304 -7163 0
-7162 -7163 0
6304 7162 7163 0
-7164 -7165 0
-7164 -7166 0
-7165 -7166 0
7164 7165 7166 0
-7167 -7168 0
-7167 -7169 0
-7168 -7169 0
7167 7168 7169 0
-3804 -7170 0
-3804 -7171 0
-7170 -7171 0
3804 7170 7171 0
-5538 -5932 0
-5538 -7172 0
-5932 -7172 0
5538 5932 7172 0
-3611 -7173 0
-3611 -7174 0
-7173 -7174 0
3611 7173 7174 0
-355 -7175 0
-355 -7176 0
-7175 -7176 0
355 7175 7176 0
-5888 -7177 0
-5888 -7178 0
-7177 -7178 0
5888 7177 7178 0
-7179 -7180 0
-7179 -7181 0
-7180 -7181 0
7179 7180 7181 0
-597 -6221 0
-597 -7182 0
-6221 -7182 0
597 6221 7182 0
-1730 -5466 0
-1730 -7183 0
-5466 -7183 0
1730 5466 7183 0
-5848 -7184 0
-5848 -7185 0
-7184 -7185 0
5848 7184 7185 0
-573 -5748 0
-573 -7186 0
-5748 -7186 0
573 5748 7186 0
-1500 -3723 0
-1500 -7187 0
-3723 -7187 0
1500 3723 7187 0
-2725 -7188 0
-2725 -7189 0
-7188 -7189 0
2725 7188 7189 0
-7190 -7191 0
-7190 -7192 0
-7191 -7192 0
7190 7191 7192 0
-2815 -7193 0
-2815 -7194 0
-7193 -7194 0
2815 7193 7194 0
-3924 -7195 0
-3924 -7196 0
-7195 -7196 0
3924 7195 7196 0
-7197 -7198 0
-7197 -7199 0
-7198 -7199 0
7197 7198 7199 0
-4220 -5389 0
-4220 -6791 0
-5389 -6791 0
4220 5389 6791 0
-7200 -7201 0
-7200 -7202 0
-7201 -7202 0
7200 7201 7202 0
-800 -5883 0
-800 -7203 0
-5883 -7203 0
800 5883 7203 0
-7204 -7205 0
-7204 -7206 0
-7205 -7206 0
7204 7205 7206 0
-2807 -7207 0
-2807 -7208 0
-7207 -7208 0
2807 7207 7208 0
-148 -7209 0
-148 -7210 0
-7209 -7210 0
148 7209 7210 0
-7211 -7212 0
-7211 -7213 0
-7212 -7213 0
7211 7212 7213 0
-1323 -7214 0
-1323 -7215 0
-7214 -7215 0
1323 7214 7215 0
-7216 -7217 0
-7216 -7218 0
-7217 -7218 0
7216 7217 7218 0
-4337 -5674 0
-4337 -7219 0
-5674 -7219 0
4337 5674 7219 0
-1609 -3022 0
-1609 -7220 0
-3022 -7220 0
1609 3022 7220 0
-7221 -7222 0
-7221 -7223 0
-7222 -7223 0
7221 7222 7223 0
-5869 -7224 0
-5869 -7225 0
-7224 -7225 0
5869 7224 7225 0
-3115 -7226 0
-3115 -7227 0
-7226 -7227 0
3115 7226 7227 0
-7228 -7229 0
-7228 -7230 0
-7229 -7230 0
7228 7229 7230 0
-4197 -7002 0
-4197 -7231 0
-7002 -7231 0
4197 7002 7231 0
-2997 -7232 0
-2997 -7233 0
-7232 -7233 0
2997 7232 7233 0
-2893 -5919 0
-2893 -7234 0
-5919 -7234 0
2893 5919 7234 0
-4457 -7235 0
-4457 -7236 0
-7235 -7236 0
4457 7235 7236 0
-7237 -7238 0
-7237 -7239 0
-7238 -7239 0
7237 7238 7239 0
-6540 -7240 0
-6540 -7241 0
-7240 -7241 0
6540 7240 7241 0
-7242 -7243 0
-7242 -7244 0
-7243 -7244 0
7242 7243 7244 0
-7245 -7246 0
-7245 -7247 0
-7246 -7247 0
7245 7246 7247 0
-6544 -7248 0
-6544 -7249 0
-7248 -7249 0
6544 7248 7249 0
-3155 -7250 0
-3155 -7251 0
-7250 -7251 0
3155 7250 7251 0
-7252 -7253 0
-7252 -7254 0
-7253 -7254 0
7252 7253 7254 0
-5179 -7255 0
-5179 -7256 0
-7255 -7256 0
5179 7255 7256 0
-4288 -7257 0
-4288 -7258 0
-7257 -7258 0
4288 7257 7258 0
-4097 -7259 0
-4097 -7260 0
-7259 -7260 0
4097 7259 7260 0
-3827 -7261 0
-3827 -7262 0
-7261 -7262 0
3827 7261 7262 0
-1291 -7263 0
-1291 -7264 0
-7263 -7264 0
1291 7263 7264 0
-6923 -7265 0
-6923 -7266 0
-7265 -7266 0
6923 7265 7266 0
-5688 -7267 0
-5688 -7268 0
-7267 -7268 0
5688 7267 7268 0
-646 -7269 0
-646 -7270 0
-7269 -7270 0
646 7269 7270 0
-349 -6774 0
-349 -7271 0
-6774 -7271 0
349 6774 7271 0
-4093 -7272 0
-4093 -7273 0
-7272 -7273 0
4093 7272 7273 0
-378 -7274 0
-378 -7275 0
-7274 -7275 0
378 7274 7275 0
-2323 -7276 0
-2323 -7277 0
-7276 -7277 0
2323 7276 7277 0
-3274 -7278 0
-3274 -7279 0
-7278 -7279 0
3274 7278 7279 0
-7280 -7281 0
-7280 -7282 0
-7281 -7282 0
7280 7281 7282 0
-1783 -7283 0
-1783 -7284 0
-7283 -7284 0
1783 7283 7284 0
-7285 -7286 0
-7285 -7287 0
-7286 -7287 0
7285 7286 7287 0
-5890 -7288 0
-5890 -7289 0
-7288 -7289 0
5890 7288 7289 0
-6535 -7290 0
-6535 -7291 0
-7290 -7291 0
6535 7290 7291 0
-192 -3755 0
-192 -5543 0
-3755 -5543 0
192 3755 5543 0
-5884 -7292 0
-5884 -7293 0
-7292 -7293 0
5884 7292 7293 0
-4063 -7294 0
-4063 -7295 0
-7294 -7295 0
4063 7294 7295 0
-7296 -7297 0
-7296 -7298 0
-7297 -7298 0
7296 7297 7298 0
-2879 -7299 0
-2879 -7300 0
-7299 -7300 0
2879 7299 7300 0
-80 -7280 0
-80 -7301 0
-7280 -7301 0
80 7280 7301 0
-7302 -7303 0
-7302 -7304 0
-7303 -7304 0
7302 7303 7304 0
-6169 -7305 0
-6169 -7306 0
-7305 -7306 0
6169 7305 7306 0
-467 -2655 0
-467 -7307 0
-2655 -7307 0
467 2655 7307 0
-5661 -7308 0
-5661 -7309 0
-7308 -7309 0
5661 7308 7309 0
-3017 -7310 0
-3017 -7311 0
-7310 -7311 0
3017 7310 7311 0
-7312 -7313 0
-7312 -7314 0
-7313 -7314 0
7312 7313 7314 0
-7315 -7316 0
-7315 -7317 0
-7316 -7317 0
7315 7316 7317 0
-7318 -7319 0
-7318 -7320 0
-7319 -7320 0
7318 7319 7320 0
-5648 -7250 0
-5648 -7321 0
-7250 -7321 0
5648 7250 7321 0
-7322 -7323 0
-7322 -7324 0
-7323 -7324 0
7322 7323 7324 0
-7305 -7325 0
-7305 -7326 0
-7325 -7326 0
7305 7325 7326 0
-3193 -7327 0
-3193 -7328 0
-7327 -7328 0
3193 7327 7328 0
-3505 -7329 0
-3505 -7330 0
-7329 -7330 0
3505 7329 7330 0
-7331 -7332 0
-7331 -7333 0
-7332 -7333 0
7331 7332 7333 0
-2475 -6089 0
-2475 -7334 0
-6089 -7334 0
2475 6089 7334 0
-6877 -7335 0
-6877 -7336 0
-7335 -7336 0
6877 7335 7336 0
-2566 -7047 0
-2566 -7337 0
-7047 -7337 0
2566 7047 7337 0
-5335 -7338 0
-5335 -7339 0
-7338 -7339 0
5335 7338 7339 0
-7340 -7341 0
-7340 -7342 0
-7341 -7342 0
7340 7341 7342 0
-7343 -7344 0
-7343 -7345 0
-7344 -7345 0
7343 7344 7345 0
-7346 -7347 0
-7346 -7348 0
-7347 -7348 0
7346 7347 7348 0
-6295 -7349 0
-6295 -7350 0
-7349 -7350 0
6295 7349 7350 0
-5463 -7351 0
-5463 -7352 0
-7351 -7352 0
5463 7351 7352 0
-7353 -7354 0
-7353 -7355 0
-7354 -7355 0
7353 7354 7355 0
-1382 -7356 0
-1382 -7357 0
-7356 -7357 0
1382 7356 7357 0
-1653 -7358 0
-1653 -7359 0
-7358 -7359 0
1653 7358 7359 0
-1683 -7360 0
-1683 -7361 0
-7360 -7361 0
1683 7360 7361 0
-5304 -7362 0
-5304 -7363 0
-7362 -7363 0
5304 7362 7363 0
-4514 -7364 0
-4514 -7365 0
-7364 -7365 0
4514 7364 7365 0
-3135 -7366 0
-3135 -7367 0
-7366 -7367 0
3135 7366 7367 0
-4067 -6069 0
-4067 -7368 0
-6069 -7368 0
4067 6069 7368 0
-5400 -7369 0
-5400 -7370 0
-7369 -7370 0
5400 7369 7370 0
-3231 -7371 0
-3231 -7372 0
-7371 -7372 0
3231 7371 7372 0
-4493 -7373 0
-4493 -7374 0
-7373 -7374 0
4493 7373 7374 0
-3900 -6660 0
-3900 -7375 0
-6660 -7375 0
3900 6660 7375 0
-7376 -7377 0
-7376 -7378 0
-7377 -7378 0
7376 7377 7378 0
-7186 -7379 0
-7186 -7380 0
-7379 -7380 0
7186 7379 7380 0
-7381 -7382 0
-7381 -7383 0
-7382 -7383 0
7381 7382 7383 0
-3338 -7384 0
-3338 -7385 0
-7384 -7385 0
3338 7384 7385 0
-7386 -7387 0
-7386 -7388 0
-7387 -7388 0
7386 7387 7388 0
-7389 -7390 0
-7389 -7391 0
-7390 -7391 0
7389 7390 7391 0
-1622 -7392 0
-1622 -7393 0
-7392 -7393 0
1622 7392 7393 0
-5005 -6335 0
-5005 -7394 0
-6335 -7394 0
5005 6335 7394 0
-4451 -7395 0
-4451 -7396 0
-7395 -7396 0
4451 7395 7396 0
-7397 -7398 0
-7397 -7399 0
-7398 -7399 0
7397 7398 7399 0
-1938 -2994 0
-1938 -7400 0
-2994 -7400 0
1938 2994 7400 0
-7401 -7402 0
-7401 -7403 0
-7402 -7403 0
7401 7402 7403 0
-7404 -7405 0
-7404 -7406 0
-7405 -7406 0
7404 7405 7406 0
-1766 -7407 0
-1766 -7408 0
-7407 -7408 0
1766 7407 7408 0
-1861 -1943 0
-1861 -7409 0
-1943 -7409 0
1861 1943 7409 0
-2894 -7410 0
-2894 -7411 0
-7410 -7411 0
2894 7410 7411 0
-967 -6375 0
-967 -7412 0
-6375 -7412 0
967 6375 7412 0
-1742 -5498 0
-1742 -7413 0
-5498 -7413 0
1742 5498 7413 0
-7414 -7415 0
-7414 -7416 0
-7415 -7416 0
7414 7415 7416 0
-5061 -7417 0
-5061 -7418 0
-7417 -7418 0
5061 7417 7418 0
-3552 -6946 0
-3552 -7419 0
-6946 -7419 0
3552 6946 7419 0
-2316 -7420 0
-2316 -7421 0
-7420 -7421 0
2316 7420 7421 0
-7422 -7423 0
-7422 -7424 0
-7423 -7424 0
7422 7423 7424 0
-3772 -7425 0
-3772 -7426 0
-7425 -7426 0
3772 7425 7426 0
-7427 -7428 0
-7427 -7429 0
-7428 -7429 0
7427 7428 7429 0
-3387 -7430 0
-3387 -7431 0
-7430 -7431 0
3387 7430 7431 0
-6948 -7432 0
-6948 -7433 0
-7432 -7433 0
6948 7432 7433 0
-6562 -7434 0
-6562 -7435 0
-7434 -7435 0
6562 7434 7435 0
-7436 -7437 0
-7436 -7438 0
-7437 -7438 0
7436 7437 7438 0
-3859 -6481 0
-3859 -7439 0
-6481 -7439 0
3859 6481 7439 0
-2003 -7440 0
-2003 -7441 0
-7440 -7441 0
2003 7440 7441 0
-7442 -7443 0
-7442 -7444 0
-7443 -7444 0
7442 7443 7444 0
-7445 -7446 0
-7445 -7447 0
-7446 -7447 0
7445 7446 7447 0
-7448 -7449 0
-7448 -7450 0
-7449 -7450 0
7448 7449 7450 0
-7451 -7452 0
-7451 -7453 0
-7452 -7453 0
7451 7452 7453 0
-2881 -5893 0
-2881 -7454 0
-5893 -7454 0
2881 5893 7454 0
-3041 -7455 0
-3041 -7456 0
-7455 -7456 0
3041 7455 7456 0
-7457 -7458 0
-7457 -7459 0
-7458 -7459 0
7457 7458 7459 0
-4361 -6097 0
-4361 -7460 0
-6097 -7460 0
4361 6097 7460 0
-3612 -7461 0
-3612 -7462 0
-7461 -7462 0
3612 7461 7462 0
-3042 -4908 0
-3042 -7463 0
-4908 -7463 0
3042 4908 7463 0
-5634 -7464 0
-5634 -7465 0
-7464 -7465 0
5634 7464 7465 0
-3202 -7466 0
-3202 -7467 0
-7466 -7467 0
3202 7466 7467 0
-2271 -7035 0
-2271 -7468 0
-7035 -7468 0
2271 7035 7468 0
-7469 -7470 0
-7469 -7471 0
-7470 -7471 0
7469 7470 7471 0
-7472 -7473 0
-7472 -7474 0
-7473 -7474 0
7472 7473 7474 0
-7475 -7476 0
-7475 -7477 0
-7476 -7477 0
7475 7476 7477 0
-6518 -7478 0
-6518 -7479 0
-7478 -7479 0
6518 7478 7479 0
-7480 -7481 0
-7480 -7482 0
-7481 -7482 0
7480 7481 7482 0
-7483 -7484 0
-7483 -7485 0
-7484 -7485 0
7483 7484 7485 0
-7486 -7487 0
-7486 -7488 0
-7487 -7488 0
7486 7487 7488 0
-7489 -7490 0
-7489 -7491 0
-7490 -7491 0
7489 7490 7491 0
-1166 -7492 0
-1166 -7493 0
-7492 -7493 0
1166 7492 7493 0
-7494 -7495 0
-7494 -7496 0
-7495 -7496 0
7494 7495 7496 0
-5344 -6627 0
-5344 -7497 0
-6627 -7497 0
5344 6627 7497 0
-7498 -7499 0
-7498 -7500 0
-7499 -7500 0
7498 7499 7500 0
-7501 -7502 0
-7501 -7503 0
-7502 -7503 0
7501 7502 7503 0
-3428 -4498 0
-3428 -7504 0
-4498 -7504 0
3428 4498 7504 0
-7301 -7505 0
-7301 -7506 0
-7505 -7506 0
7301 7505 7506 0
-7507 -7508 0
-7507 -7509 0
-7508 -7509 0
7507 7508 7509 0
-7510 -7511 0
-7510 -7512 0
-7511 -7512 0
7510 7511 7512 0
-2967 -7513 0
-2967 -7514 0
-7513 -7514 0
2967 7513 7514 0
-3500 -7515 0
-3500 -7516 0
-7515 -7516 0
3500 7515 7516 0
-4899 -7517 0
-4899 -7518 0
-7517 -7518 0
4899 7517 7518 0
-7519 -7520 0
-7519 -7521 0
-7520 -7521 0
7519 7520 7521 0
-6008 -7522 0
-6008 -7523 0
-7522 -7523 0
6008 7522 7523 0
-1703 -6955 0
-1703 -7524 0
-6955 -7524 0
1703 6955 7524 0
-7525 -7526 0
-7525 -7527 0
-7526 -7527 0
7525 7526 7527 0
-2860 -7528 0
-2860 -7529 0
-7528 -7529 0
2860 7528 7529 0
-7530 -7531 0
-7530 -7532 0
-7531 -7532 0
7530 7531 7532 0
-7351 -7533 0
-7351 -7534 0
-7533 -7534 0
7351 7533 7534 0
-2114 -7535 0
-2114 -7536 0
-7535 -7536 0
2114 7535 7536 0
-3573 -7537 0
-3573 -7538 0
-7537 -7538 0
3573 7537 7538 0
-4190 -7457 0
-4190 -7539 0
-7457 -7539 0
4190 7457 7539 0
-7137 -7540 0
-7137 -7541 0
-7540 -7541 0
7137 7540 7541 0
-7542 -7543 0
-7542 -7544 0
-7543 -7544 0
7542 7543 7544 0
-7545 -7546 0
-7545 -7547 0
-7546 -7547 0
7545 7546 7547 0
-2822 -7548 0
-2822 -7549 0
-7548 -7549 0
2822 7548 7549 0
-7550 -7551 0
-7550 -7552 0
-7551 -7552 0
7550 7551 7552 0
-6944 -7553 0
-6944 -7554 0
-7553 -7554 0
6944 7553 7554 0
-152 -590 0
-152 -2197 0
-590 -2197 0
152 590 2197 0
-6808 -7555 0
-6808 -7556 0
-7555 -7556 0
6808 7555 7556 0
-4532 -4586 0
-4532 -7557 0
-4586 -7557 0
4532 4586 7557 0
-7558 -7559 0
-7558 -7560 0
-7559 -7560 0
7558 7559 7560 0
-7561 -7562 0
-7561 -7563 0
-7562 -7563 0
7561 7562 7563 0
-5417 -6084 0
-5417 -7564 0
-6084 -7564 0
5417 6084 7564 0
-473 -6120 0
-473 -7565 0
-6120 -7565 0
473 6120 7565 0
-1613 -7566 0
-1613 -7567 0
-7566 -7567 0
1613 7566 7567 0
-7568 -7569 0
-7568 -7570 0
-7569 -7570 0
7568 7569 7570 0
-219 -7571 0
-219 -7572 0
-7571 -7572 0
219 7571 7572 0
-7573 -7574 0
-7573 -7575 0
-7574 -7575 0
7573 7574 7575 0
-6137 -7576 0
-6137 -7577 0
-7576 -7577 0
6137 7576 7577 0
-1960 -2876 0
-1960 -3519 0
-2876 -3519 0
1960 2876 3519 0
-6583 -7578 0
-6583 -7579 0
-7578 -7579 0
6583 7578 7579 0
-7580 -7581 0
-7580 -7582 0
-7581 -7582 0
7580 7581 7582 0
-2631 -2804 0
-2631 -7583 0
-2804 -7583 0
2631 2804 7583 0
-2810 -7584 0
-2810 -7585 0
-7584 -7585 0
2810 7584 7585 0
-7586 -7587 0
-7586 -7588 0
-7587 -7588 0
7586 7587 7588 0
-3323 -7589 0
-3323 -7590 0
-7589 -7590 0
3323 7589 7590 0
-6533 -7591 0
-6533 -7592 0
-7591 -7592 0
6533 7591 7592 0
-4653 -7593 0
-4653 -7594 0
-7593 -7594 0
4653 7593 7594 0
-829 -1253 0
-829 -5445 0
-1253 -5445 0
829 1253 5445 0
-382 -1072 0
-382 -7595 0
-1072 -7595 0
382 1072 7595 0
-4736 -7596 0
-4736 -7597 0
-7596 -7597 0
4736 7596 7597 0
-7598 -7599 0
-7598 -7600 0
-7599 -7600 0
7598 7599 7600 0
-7601 -7602 0
-7601 -7603 0
-7602 -7603 0
7601 7602 7603 0
-5317 -7604 0
-5317 -7605 0
-7604 -7605 0
5317 7604 7605 0
-2888 -5680 0
-2888 -7606 0
-5680 -7606 0
2888 5680 7606 0
-7607 -7608 0
-7607 -7609 0
-7608 -7609 0
7607 7608 7609 0
-5051 -7610 0
-5051 -7611 0
-7610 -7611 0
5051 7610 7611 0
-1553 -7612 0
-1553 -7613 0
-7612 -7613 0
1553 7612 7613 0
-7614 -7615 0
-7614 -7616 0
-7615 -7616 0
7614 7615 7616 0
-7617 -7618 0
-7617 -7619 0
-7618 -7619 0
7617 7618 7619 0
-1817 -7041 0
-1817 -7620 0
-7041 -7620 0
1817 7041 7620 0
-7621 -7622 0
-7621 -7623 0
-7622 -7623 0
7621 7622 7623 0
-7624 -7625 0
-7624 -7626 0
-7625 -7626 0
7624 7625 7626 0
-3814 -7627 0
-3814 -7628 0
-7627 -7628 0
3814 7627 7628 0
-7629 -7630 0
-7629 -7631 0
-7630 -7631 0
7629 7630 7631 0
-7632 -7633 0
-7632 -7634 0
-7633 -7634 0
7632 7633 7634 0
-3580 -6242 0
-3580 -7315 0
-6242 -7315 0
3580 6242 7315 0
-7635 -7636 0
-7635 -7637 0
-7636 -7637 0
7635 7636 7637 0
-1087 -4411 0
-1087 -7638 0
-4411 -7638 0
1087 4411 7638 0
-5970 -7455 0
-5970 -7639 0
-7455 -7639 0
5970 7455 7639 0
-7640 -7641 0
-7640 -7642 0
-7641 -7642 0
7640 7641 7642 0
-7643 -7644 0
-7643 -7645 0
-7644 -7645 0
7643 7644 7645 0
-7646 -7647 0
-7646 -7648 0
-7647 -7648 0
7646 7647 7648 0
-7649 -7650 0
-7649 -7651 0
-7650 -7651 0
7649 7650 7651 0
-1222 -7652 0
-1222 -7653 0
-7652 -7653 0
1222 7652 7653 0
-7654 -7655 0
-7654 -7656 0
-7655 -7656 0
7654 7655 7656 0
-7657 -7658 0
-7657 -7659 0
-7658 -7659 0
7657 7658 7659 0
-7660 -7661 0
-7660 -7662 0
-7661 -7662 0
7660 7661 7662 0
-792 -7663 0
-792 -7664 0
-7663 -7664 0
792 7663 7664 0
-1121 -6210 0
-1121 -7665 0
-6210 -7665 0
1121 6210 7665 0
-4540 -7666 0
-4540 -7667 0
-7666 -7667 0
4540 7666 7667 0
-499 -5516 0
-499 -7668 0
-5516 -7668 0
499 5516 7668 0
-871 -1555 0
-871 -7669 0
-1555 -7669 0
871 1555 7669 0
-429 -7670 0
-429 -7671 0
-7670 -7671 0
429 7670 7671 0
-1580 -5221 0
-1580 -7486 0
-5221 -7486 0
1580 5221 7486 0
-7672 -7673 0
-7672 -7674 0
-7673 -7674 0
7672 7673 7674 0
-5101 -7120 0
-5101 -7675 0
-7120 -7675 0
5101 7120 7675 0
-2637 -6559 0
-2637 -7676 0
-6559 -7676 0
2637 6559 7676 0
-2440 -7677 0
-2440 -7678 0
-7677 -7678 0
2440 7677 7678 0
-7679 -7680 0
-7679 -7681 0
-7680 -7681 0
7679 7680 7681 0
-7682 -7683 0
-7682 -7684 0
-7683 -7684 0
7682 7683 7684 0
-7685 -7686 0
-7685 -7687 0
-7686 -7687 0
7685 7686 7687 0
-7688 -7689 0
-7688 -7690 0
-7689 -7690 0
7688 7689 7690 0
-7691 -7692 0
-7691 -7693 0
-7692 -7693 0
7691 7692 7693 0
-7694 -7695 0
-7694 -7696 0
-7695 -7696 0
7694 7695 7696 0
-7697 -7698 0
-7697 -7699 0
-7698 -7699 0
7697 7698 7699 0
-7610 -7700 0
-7610 -7701 0
-7700 -7701 0
7610 7700 7701 0
-2147 -7702 0
-2147 -7703 0
-7702 -7703 0
2147 7702 7703 0
-7312 -7704 0
-7312 -7705 0
-7704 -7705 0
7312 7704 7705 0
-7706 -7707 0
-7706 -7708 0
-7707 -7708 0
7706 7707 7708 0
-4957 -7709 0
-4957 -7710 0
-7709 -7710 0
4957 7709 7710 0
-3229 -5667 0
-3229 -7711 0
-5667 -7711 0
3229 5667 7711 0
-7712 -7713 0
-7712 -7714 0
-7713 -7714 0
7712 7713 7714 0
-7715 -7716 0
-7715 -7717 0
-7716 -7717 0
7715 7716 7717 0
-2481 -7718 0
-2481 -7719 0
-7718 -7719 0
2481 7718 7719 0
-4828 -7720 0
-4828 -7721 0
-7720 -7721 0
4828 7720 7721 0
-748 -2384 0
-748 -7439 0
-2384 -7439 0
748 2384 7439 0
-7722 -7723 0
-7722 -7724 0
-7723 -7724 0
7722 7723 7724 0
-7725 -7726 0
-7725 -7727 0
-7726 -7727 0
7725 7726 7727 0
-7728 -7729 0
-7728 -7730 0
-7729 -7730 0
7728 7729 7730 0
-4648 -7731 0
-4648 -7732 0
-7731 -7732 0
4648 7731 7732 0
-4645 -7733 0
-4645 -7734 0
-7733 -7734 0
4645 7733 7734 0
-2971 -7735 0
-2971 -7736 0
-7735 -7736 0
2971 7735 7736 0
-2711 -7737 0
-2711 -7738 0
-7737 -7738 0
2711 7737 7738 0
-5814 -7739 0
-5814 -7740 0
-7739 -7740 0
5814 7739 7740 0
-7741 -7742 0
-7741 -7743 0
-7742 -7743 0
7741 7742 7743 0
-7744 -7745 0
-7744 -7746 0
-7745 -7746 0
7744 7745 7746 0
-7747 -7748 0
-7747 -7749 0
-7748 -7749 0
7747 7748 7749 0
-1908 -7750 0
-1908 -7751 0
-7750 -7751 0
1908 7750 7751 0
-6978 -7752 0
-6978 -7753 0
-7752 -7753 0
6978 7752 7753 0
-500 -2686 0
-500 -7754 0
-2686 -7754 0
500 2686 7754 0
-3655 -7755 0
-3655 -7756 0
-7755 -7756 0
3655 7755 7756 0
-3288 -7757 0
-3288 -7758 0
-7757 -7758 0
3288 7757 7758 0
-7759 -7760 0
-7759 -7761 0
-7760 -7761 0
7759 7760 7761 0
-2699 -7762 0
-2699 -7763 0
-7762 -7763 0
2699 7762 7763 0
-3729 -7764 0
-3729 -7765 0
-7764 -7765 0
3729 7764 7765 0
-7766 -7767 0
-7766 -7768 0
-7767 -7768 0
7766 7767 7768 0
-6398 -7769 0
-6398 -7770 0
-7769 -7770 0
6398 7769 7770 0
-405 -4329 0
-405 -7771 0
-4329 -7771 0
405 4329 7771 0
-7772 -7773 0
-7772 -7774 0
-7773 -7774 0
7772 7773 7774 0
-7775 -7776 0
-7775 -7777 0
-7776 -7777 0
7775 7776 7777 0
-6614 -7778 0
-6614 -7779 0
-7778 -7779 0
6614 7778 7779 0
-1000 -7780 0
-1000 -7781 0
-7780 -7781 0
1000 7780 7781 0
-7782 -7783 0
-7782 -7784 0
-7783 -7784 0
7782 7783 7784 0
-7785 -7786 0
-7785 -7787 0
-7786 -7787 0
7785 7786 7787 0
-1375 -7679 0
-1375 -7788 0
-7679 -7788 0
1375 7679 7788 0
-7789 -7790 0
-7789 -7791 0
-7790 -7791 0
7789 7790 7791 0
-7792 -7793 0
-7792 -7794 0
-7793 -7794 0
7792 7793 7794 0
-1271 -7795 0
-1271 -7796 0
-7795 -7796 0
1271 7795 7796 0
-1347 -2973 0
-1347 -7797 0
-2973 -7797 0
1347 2973 7797 0
-878 -7798 0
-878 -7799 0
-7798 -7799 0
878 7798 7799 0
-2401 -7800 0
-2401 -7801 0
-7800 -7801 0
2401 7800 7801 0
-7802 -7803 0
-7802 -7804 0
-7803 -7804 0
7802 7803 7804 0
-7805 -7806 0
-7805 -7807 0
-7806 -7807 0
7805 7806 7807 0
-7085 -7808 0
-7085 -7809 0
-7808 -7809 0
7085 7808 7809 0
-7665 -7810 0
-7665 -7811 0
-7810 -7811 0
7665 7810 7811 0
-7812 -7813 0
-7812 -7814 0
-7813 -7814 0
7812 7813 7814 0
-6140 -7815 0
-6140 -7816 0
-7815 -7816 0
6140 7815 7816 0
-1101 -6548 0
-1101 -7817 0
-6548 -7817 0
1101 6548 7817 0
-7818 -7819 0
-7818 -7820 0
-7819 -7820 0
7818 7819 7820 0
-7821 -7822 0
-7821 -7823 0
-7822 -7823 0
7821 7822 7823 0
-1314 -1471 0
-1314 -7824 0
-1471 -7824 0
1314 1471 7824 0
-1404 -7322 0
-1404 -7825 0
-7322 -7825 0
1404 7322 7825 0
-7826 -7827 0
-7826 -7828 0
-7827 -7828 0
7826 7827 7828 0
-5410 -6025 0
-5410 -7829 0
-6025 -7829 0
5410 6025 7829 0
-7830 -7831 0
-7830 -7832 0
-7831 -7832 0
7830 7831 7832 0
-1105 -7833 0
-1105 -7834 0
-7833 -7834 0
1105 7833 7834 0
-7835 -7836 0
-7835 -7837 0
-7836 -7837 0
7835 7836 7837 0
-7838 -7839 0
-7838 -7840 0
-7839 -7840 0
7838 7839 7840 0
-4152 -7841 0
-4152 -7842 0
-7841 -7842 0
4152 7841 7842 0
-7843 -7844 0
-7843 -7845 0
-7844 -7845 0
7843 7844 7845 0
-3461 -7846 0
-3461 -7847 0
-7846 -7847 0
3461 7846 7847 0
-7255 -7848 0
-7255 -7849 0
-7848 -7849 0
7255 7848 7849 0
-6167 -7850 0
-6167 -7851 0
-7850 -7851 0
6167 7850 7851 0
-3773 -7852 0
-3773 -7853 0
-7852 -7853 0
3773 7852 7853 0
-4717 -6609 0
-4717 -7854 0
-6609 -7854 0
4717 6609 7854 0
-7855 -7856 0
-7855 -7857 0
-7856 -7857 0
7855 7856 7857 0
-530 -7858 0
-530 -7859 0
-7858 -7859 0
530 7858 7859 0
-608 -2812 0
-608 -7860 0
-2812 -7860 0
608 2812 7860 0
-582 -7861 0
-582 -7862 0
-7861 -7862 0
582 7861 7862 0
-6865 -7863 0
-6865 -7864 0
-7863 -7864 0
6865 7863 7864 0
-2065 -7865 0
-2065 -7866 0
-7865 -7866 0
2065 7865 7866 0
-7867 -7868 0
-7867 -7869 0
-7868 -7869 0
7867 7868 7869 0
-7870 -7871 0
-7870 -7872 0
-7871 -7872 0
7870 7871 7872 0
-7873 -7874 0
-7873 -7875 0
-7874 -7875 0
7873 7874 7875 0
-6201 -7296 0
-6201 -7876 0
-7296 -7876 0
6201 7296 7876 0
-7877 -7878 0
-7877 -7879 0
-7878 -7879 0
7877 7878 7879 0
-4405 -7880 0
-4405 -7881 0
-7880 -7881 0
4405 7880 7881 0
-7882 -7883 0
-7882 -7884 0
-7883 -7884 0
7882 7883 7884 0
-2562 -7885 0
-2562 -7886 0
-7885 -7886 0
2562 7885 7886 0
-5551 -5696 0
-5551 -7887 0
-5696 -7887 0
5551 5696 7887 0
-5066 -5241 0
-5066 -7888 0
-5241 -7888 0
5066 5241 7888 0
-6292 -7889 0
-6292 -7890 0
-7889 -7890 0
6292 7889 7890 0
-6165 -7891 0
-6165 -7892 0
-7891 -7892 0
6165 7891 7892 0
-5719 -7893 0
-5719 -7894 0
-7893 -7894 0
5719 7893 7894 0
-3785 -5363 0
-3785 -7895 0
-5363 -7895 0
3785 5363 7895 0
-1491 -7290 0
-1491 -7896 0
-7290 -7896 0
1491 7290 7896 0
-7897 -7898 0
-7897 -7899 0
-7898 -7899 0
7897 7898 7899 0
-7900 -7901 0
-7900 -7902 0
-7901 -7902 0
7900 7901 7902 0
-7903 -7904 0
-7903 -7905 0
-7904 -7905 0
7903 7904 7905 0
-873 -6354 0
-873 -7906 0
-6354 -7906 0
873 6354 7906 0
-343 -7907 0
-343 -7908 0
-7907 -7908 0
343 7907 7908 0
-7299 -7909 0
-7299 -7910 0
-7909 -7910 0
7299 7909 7910 0
-2722 -7911 0
-2722 -7912 0
-7911 -7912 0
2722 7911 7912 0
-6712 -7913 0
-6712 -7914 0
-7913 -7914 0
6712 7913 7914 0
-5085 -7915 0
-5085 -7916 0
-7915 -7916 0
5085 7915 7916 0
-2855 -7917 0
-2855 -7918 0
-7917 -7918 0
2855 7917 7918 0
-7919 -7920 0
-7919 -7921 0
-7920 -7921 0
7919 7920 7921 0
-4230 -7922 0
-4230 -7923 0
-7922 -7923 0
4230 7922 7923 0
-5630 -5855 0
-5630 -7924 0
-5855 -7924 0
5630 5855 7924 0
-574 -7925 0
-574 -7926 0
-7925 -7926 0
574 7925 7926 0
-5090 -5453 0
-5090 -7927 0
-5453 -7927 0
5090 5453 7927 0
-7928 -7929 0
-7928 -7930 0
-7929 -7930 0
7928 7929 7930 0
-1890 -7931 0
-1890 -7932 0
-7931 -7932 0
1890 7931 7932 0
-918 -7933 0
-918 -7934 0
-7933 -7934 0
918 7933 7934 0
-7935 -7936 0
-7935 -7937 0
-7936 -7937 0
7935 7936 7937 0
-2671 -7472 0
-2671 -7938 0
-7472 -7938 0
2671 7472 7938 0
-2628 -7939 0
-2628 -7940 0
-7939 -7940 0
2628 7939 7940 0
-3384 -7941 0
-3384 -7942 0
-7941 -7942 0
3384 7941 7942 0
-4742 -7943 0
-4742 -7944 0
-7943 -7944 0
4742 7943 7944 0
-7032 -7945 0
-7032 -7946 0
-7945 -7946 0
7032 7945 7946 0
-7947 -7948 0
-7947 -7949 0
-7948 -7949 0
7947 7948 7949 0
-7950 -7951 0
-7950 -7952 0
-7951 -7952 0
7950 7951 7952 0
-2472 -7953 0
-2472 -7954 0
-7953 -7954 0
2472 7953 7954 0
-7955 -7956 0
-7955 -7957 0
-7956 -7957 0
7955 7956 7957 0
-2966 -7958 0
-2966 -7959 0
-7958 -7959 0
2966 7958 7959 0
-6515 -7960 0
-6515 -7961 0
-7960 -7961 0
6515 7960 7961 0
-2538 -2584 0
-2538 -7962 0
-2584 -7962 0
2538 2584 7962 0
-496 -7963 0
-496 -7964 0
-7963 -7964 0
496 7963 7964 0
-7965 -7966 0
-7965 -7967 0
-7966 -7967 0
7965 7966 7967 0
-3588 -7968 0
-3588 -7969 0
-7968 -7969 0
3588 7968 7969 0
-7425 -7970 0
-7425 -7971 0
-7970 -7971 0
7425 7970 7971 0
-3968 -7972 0
-3968 -7973 0
-7972 -7973 0
3968 7972 7973 0
-1698 -7974 0
-1698 -7975 0
-7974 -7975 0
1698 7974 7975 0
-7976 -7977 0
-7976 -7978 0
-7977 -7978 0
7976 7977 7978 0
-5210 -7979 0
-5210 -7980 0
-7979 -7980 0
5210 7979 7980 0
-7981 -7982 0
-7981 -7983 0
-7982 -7983 0
7981 7982 7983 0
-7984 -7985 0
-7984 -7986 0
-7985 -7986 0
7984 7985 7986 0
-3499 -7987 0
-3499 -7988 0
-7987 -7988 0
3499 7987 7988 0
-3101 -7989 0
-3101 -7990 0
-7989 -7990 0
3101 7989 7990 0
-6760 -7259 0
-6760 -7991 0
-7259 -7991 0
6760 7259 7991 0
-506 -7992 0
-506 -7993 0
-7992 -7993 0
506 7992 7993 0
-4962 -7584 0
-4962 -7994 0
-7584 -7994 0
4962 7584 7994 0
-7995 -7996 0
-7995 -7997 0
-7996 -7997 0
7995 7996 7997 0
-7998 -7999 0
-7998 -8000 0
-7999 -8000 0
7998 7999 8000 0
-8001 -8002 0
-8001 -8003 0
-8002 -8003 0
8001 8002 8003 0
-8004 -8005 0
-8004 -8006 0
-8005 -8006 0
8004 8005 8006 0
-8007 -8008 0
-8007 -8009 0
-8008 -8009 0
8007 8008 8009 0
-1196 -5834 0
-1196 -8010 0
-5834 -8010 0
1196 5834 8010 0
-1843 -4386 0
-1843 -8011 0
-4386 -8011 0
1843 4386 8011 0
-6252 -8012 0
-6252 -8013 0
-8012 -8013 0
6252 8012 8013 0
-8014 -8015 0
-8014 -8016 0
-8015 -8016 0
8014 8015 8016 0
-6671 -8017 0
-6671 -8018 0
-8017 -8018 0
6671 8017 8018 0
-5601 -7442 0
-5601 -8019 0
-7442 -8019 0
5601 7442 8019 0
-6929 -8020 0
-6929 -8021 0
-8020 -8021 0
6929 8020 8021 0
-8022 -8023 0
-8022 -8024 0
-8023 -8024 0
8022 8023 8024 0
-527 -1576 0
-527 -8025 0
-1576 -8025 0
527 1576 8025 0
-8026 -8027 0
-8026 -8028 0
-8027 -8028 0
8026 8027 8028 0
-7141 -8029 0
-7141 -8030 0
-8029 -8030 0
7141 8029 8030 0
-8031 -8032 0
-8031 -8033 0
-8032 -8033 0
8031 8032 8033 0
-393 -8034 0
-393 -8035 0
-8034 -8035 0
393 8034 8035 0
-1803 -8036 0
-1803 -8037 0
-8036 -8037 0
1803 8036 8037 0
-514 -6406 0
-514 -8038 0
-6406 -8038 0
514 6406 8038 0
-6993 -8039 0
-6993 -8040 0
-8039 -8040 0
6993 8039 8040 0
-130 -5150 0
-130 -8041 0
-5150 -8041 0
130 5150 8041 0
-8042 -8043 0
-8042 -8044 0
-8043 -8044 0
8042 8043 8044 0
-2458 -8045 0
-2458 -8046 0
-8045 -8046 0
2458 8045 8046 0
-262 -5141 0
-262 -8047 0
-5141 -8047 0
262 5141 8047 0
-8048 -8049 0
-8048 -8050 0
-8049 -8050 0
8048 8049 8050 0
-7300 -8051 0
-7300 -8052 0
-8051 -8052 0
7300 8051 8052 0
-8053 -8054 0
-8053 -8055 0
-8054 -8055 0
8053 8054 8055 0
-4052 -4236 0
-4052 -8056 0
-4236 -8056 0
4052 4236 8056 0
-322 -3129 0
-322 -8057 0
-3129 -8057 0
322 3129 8057 0
-8058 -8059 0
-8058 -8060 0
-8059 -8060 0
8058 8059 8060 0
-8061 -8062 0
-8061 -8063 0
-8062 -8063 0
8061 8062 8063 0
-4285 -5411 0
-4285 -8064 0
-5411 -8064 0
4285 5411 8064 0
-1649 -8065 0
-1649 -8066 0
-8065 -8066 0
1649 8065 8066 0
-4959 -8067 0
-4959 -8068 0
-8067 -8068 0
4959 8067 8068 0
-1677 -8069 0
-1677 -8070 0
-8069 -8070 0
1677 8069 8070 0
-1517 -6385 0
-1517 -7033 0
-6385 -7033 0
1517 6385 7033 0
-269 -7172 0
-269 -8071 0
-7172 -8071 0
269 7172 8071 0
-8072 -8073 0
-8072 -8074 0
-8073 -8074 0
8072 8073 8074 0
-8075 -8076 0
-8075 -8077 0
-8076 -8077 0
8075 8076 8077 0
-523 -8078 0
-523 -8079 0
-8078 -8079 0
523 8078 8079 0
-2265 -8080 0
-2265 -8081 0
-8080 -8081 0
2265 8080 8081 0
-7276 -7649 0
-7276 -8082 0
-7649 -8082 0
7276 7649 8082 0
-8083 -8084 0
-8083 -8085 0
-8084 -8085 0
8083 8084 8085 0
-1047 -8086 0
-1047 -8087 0
-8086 -8087 0
1047 8086 8087 0
-8088 -8089 0
-8088 -8090 0
-8089 -8090 0
8088 8089 8090 0
-3562 -8091 0
-3562 -8092 0
-8091 -8092 0
3562 8091 8092 0
-3215 -8093 0
-3215 -8094 0
-8093 -8094 0
3215 8093 8094 0
-8095 -8096 0
-8095 -8097 0
-8096 -8097 0
8095 8096 8097 0
-4832 -8098 0
-4832 -8099 0
-8098 -8099 0
4832 8098 8099 0
-7414 -8026 0
-7414 -8100 0
-8026 -8100 0
7414 8026 8100 0
-8101 -8102 0
-8101 -8103 0
-8102 -8103 0
8101 8102 8103 0
-687 -5256 0
-687 -6667 0
-5256 -6667 0
687 5256 6667 0
-8104 -8105 0
-8104 -8106 0
-8105 -8106 0
8104 8105 8106 0
-4651 -8107 0
-4651 -8108 0
-8107 -8108 0
4651 8107 8108 0
-8109 -8110 0
-8109 -8111 0
-8110 -8111 0
8109 8110 8111 0
-4658 -8112 0
-4658 -8113 0
-8112 -8113 0
4658 8112 8113 0
-3116 -8114 0
-3116 -8115 0
-8114 -8115 0
3116 8114 8115 0
-4562 -8116 0
-4562 -8117 0
-8116 -8117 0
4562 8116 8117 0
-8118 -8119 0
-8118 -8120 0
-8119 -8120 0
8118 8119 8120 0
-8121 -8122 0
-8121 -8123 0
-8122 -8123 0
8121 8122 8123 0
-5590 -8124 0
-5590 -8125 0
-8124 -8125 0
5590 8124 8125 0
-8126 -8127 0
-8126 -8128 0
-8127 -8128 0
8126 8127 8128 0
-3991 -8129 0
-3991 -8130 0
-8129 -8130 0
3991 8129 8130 0
-8131 -8132 0
-8131 -8133 0
-8132 -8133 0
8131 8132 8133 0
-6395 -8134 0
-6395 -8135 0
-8134 -8135 0
6395 8134 8135 0
-207 -8136 0
-207 -8137 0
-8136 -8137 0
207 8136 8137 0
-5082 -7741 0
-5082 -8138 0
-7741 -8138 0
5082 7741 8138 0
-7098 -8139 0
-7098 -8140 0
-8139 -8140 0
7098 8139 8140 0
-8141 -8142 0
-8141 -8143 0
-8142 -8143 0
8141 8142 8143 0
-8144 -8145 0
-8144 -8146 0
-8145 -8146 0
8144 8145 8146 0
-4523 -5575 0
-4523 -7850 0
-5575 -7850 0
4523 5575 7850 0
-8147 -8148 0
-8147 -8149 0
-8148 -8149 0
8147 8148 8149 0
-544 -8150 0
-544 -8151 0
-8150 -8151 0
544 8150 8151 0
-1273 -8152 0
-1273 -8153 0
-8152 -8153 0
1273 8152 8153 0
-8154 -8155 0
-8154 -8156 0
-8155 -8156 0
8154 8155 8156 0
-7392 -8157 0
-7392 -8158 0
-8157 -8158 0
7392 8157 8158 0
-5736 -8159 0
-5736 -8160 0
-8159 -8160 0
5736 8159 8160 0
-6345 -8161 0
-6345 -8162 0
-8161 -8162 0
6345 8161 8162 0
-3174 -8163 0
-3174 -8164 0
-8163 -8164 0
3174 8163 8164 0
-6036 -8165 0
-6036 -8166 0
-8165 -8166 0
6036 8165 8166 0
-8167 -8168 0
-8167 -8169 0
-8168 -8169 0
8167 8168 8169 0
-8170 -8171 0
-8170 -8172 0
-8171 -8172 0
8170 8171 8172 0
-1466 -8173 0
-1466 -8174 0
-8173 -8174 0
1466 8173 8174 0
-1530 -8175 0
-1530 -8176 0
-8175 -8176 0
1530 8175 8176 0
-7848 -8177 0
-7848 -8178 0
-8177 -8178 0
7848 8177 8178 0
-6302 -8179 0
-6302 -8180 0
-8179 -8180 0
6302 8179 8180 0
-8181 -8182 0
-8181 -8183 0
-8182 -8183 0
8181 8182 8183 0
-8184 -8185 0
-8184 -8186 0
-8185 -8186 0
8184 8185 8186 0
-5474 -8187 0
-5474 -8188 0
-8187 -8188 0
5474 8187 8188 0
-8189 -8190 0
-8189 -8191 0
-8190 -8191 0
8189 8190 8191 0
-8192 -8193 0
-8192 -8194 0
-8193 -8194 0
8192 8193 8194 0
-7188 -8195 0
-7188 -8196 0
-8195 -8196 0
7188 8195 8196 0
-8036 -8197 0
-8036 -8198 0
-8197 -8198 0
8036 8197 8198 0
-3509 -7620 0
-3509 -8199 0
-7620 -8199 0
3509 7620 8199 0
-3156 -8200 0
-3156 -8201 0
-8200 -8201 0
3156 8200 8201 0
-8202 -8203 0
-8202 -8204 0
-8203 -8204 0
8202 8203 8204 0
-8205 -8206 0
-8205 -8207 0
-8206 -8207 0
8205 8206 8207 0
-1650 -2007 0
-1650 -8208 0
-2007 -8208 0
1650 2007 8208 0
-2042 -2517 0
-2042 -8209 0
-2517 -8209 0
2042 2517 8209 0
-666 -8210 0
-666 -8211 0
-8210 -8211 0
666 8210 8211 0
-8212 -8213 0
-8212 -8214 0
-8213 -8214 0
8212 8213 8214 0
-7624 -8215 0
-7624 -8216 0
-8215 -8216 0
7624 8215 8216 0
-3268 -8217 0
-3268 -8218 0
-8217 -8218 0
3268 8217 8218 0
-7432 -8219 0
-7432 -8220 0
-8219 -8220 0
7432 8219 8220 0
-3789 -8221 0
-3789 -8222 0
-8221 -8222 0
3789 8221 8222 0
-695 -8223 0
-695 -8224 0
-8223 -8224 0
695 8223 8224 0
-3103 -8225 0
-3103 -8226 0
-8225 -8226 0
3103 8225 8226 0
-8227 -8228 0
-8227 -8229 0
-8228 -8229 0
8227 8228 8229 0
-2858 -6572 0
-2858 -8230 0
-6572 -8230 0
2858 6572 8230 0
-1541 -5565 0
-1541 -8231 0
-5565 -8231 0
1541 5565 8231 0
-6159 -6388 0
-6159 -8232 0
-6388 -8232 0
6159 6388 8232 0
-6668 -8233 0
-6668 -8234 0
-8233 -8234 0
6668 8233 8234 0
-524 -4526 0
-524 -8235 0
-4526 -8235 0
524 4526 8235 0
-6736 -8236 0
-6736 -8237 0
-8236 -8237 0
6736 8236 8237 0
-1302 -4393 0
-1302 -8238 0
-4393 -8238 0
1302 4393 8238 0
-478 -8239 0
-478 -8240 0
-8239 -8240 0
478 8239 8240 0
-6172 -8241 0
-6172 -8242 0
-8241 -8242 0
6172 8241 8242 0
-4128 -5237 0
-4128 -8243 0
-5237 -8243 0
4128 5237 8243 0
-8244 -8245 0
-8244 -8246 0
-8245 -8246 0
8244 8245 8246 0
-732 -4326 0
-732 -8247 0
-4326 -8247 0
732 4326 8247 0
-8248 -8249 0
-8248 -8250 0
-8249 -8250 0
8248 8249 8250 0
-784 -8251 0
-784 -8252 0
-8251 -8252 0
784 8251 8252 0
-452 -8253 0
-452 -8254 0
-8253 -8254 0
452 8253 8254 0
-6997 -8255 0
-6997 -8256 0
-8255 -8256 0
6997 8255 8256 0
-5671 -8257 0
-5671 -8258 0
-8257 -8258 0
5671 8257 8258 0
-8259 -8260 0
-8259 -8261 0
-8260 -8261 0
8259 8260 8261 0
-1077 -1844 0
-1077 -7030 0
-1844 -7030 0
1077 1844 7030 0
-741 -8262 0
-741 -8263 0
-8262 -8263 0
741 8262 8263 0
-5675 -8264 0
-5675 -8265 0
-8264 -8265 0
5675 8264 8265 0
-2085 -5981 0
-2085 -7397 0
-5981 -7397 0
2085 5981 7397 0
-4061 -8266 0
-4061 -8267 0
-8266 -8267 0
4061 8266 8267 0
-5235 -8268 0
-5235 -8269 0
-8268 -8269 0
5235 8268 8269 0
-3902 -5205 0
-3902 -8270 0
-5205 -8270 0
3902 5205 8270 0
-8053 -8271 0
-8053 -8272 0
-8271 -8272 0
8053 8271 8272 0
-7817 -8025 0
-7817 -8273 0
-8025 -8273 0
7817 8025 8273 0
-8274 -8275 0
-8274 -8276 0
-8275 -8276 0
8274 8275 8276 0
-6436 -8277 0
-6436 -8278 0
-8277 -8278 0
6436 8277 8278 0
-1385 -8279 0
-1385 -8280 0
-8279 -8280 0
1385 8279 8280 0
-5631 -8281 0
-5631 -8282 0
-8281 -8282 0
5631 8281 8282 0
-4100 -7666 0
-4100 -8283 0
-7666 -8283 0
4100 7666 8283 0
-3545 -6595 0
-3545 -8284 0
-6595 -8284 0
3545 6595 8284 0
-3720 -4867 0
-3720 -8285 0
-4867 -8285 0
3720 4867 8285 0
-2918 -8286 0
-2918 -8287 0
-8286 -8287 0
2918 8286 8287 0
-437 -5394 0
-437 -8288 0
-5394 -8288 0
437 5394 8288 0
-8289 -8290 0
-8289 -8291 0
-8290 -8291 0
8289 8290 8291 0
-7877 -8292 0
-7877 -8293 0
-8292 -8293 0
7877 8292 8293 0
-8294 -8295 0
-8294 -8296 0
-8295 -8296 0
8294 8295 8296 0
-1344 -8297 0
-1344 -8298 0
-8297 -8298 0
1344 8297 8298 0
-6779 -8299 0
-6779 -8300 0
-8299 -8300 0
6779 8299 8300 0
-2013 -6233 0
-2013 -8301 0
-6233 -8301 0
2013 6233 8301 0
-5248 -8302 0
-5248 -8303 0
-8302 -8303 0
5248 8302 8303 0
-6805 -8304 0
-6805 -8305 0
-8304 -8305 0
6805 8304 8305 0
-7601 -8306 0
-7601 -8307 0
-8306 -8307 0
7601 8306 8307 0
-2865 -8308 0
-2865 -8309 0
-8308 -8309 0
2865 8308 8309 0
-3138 -5318 0
-3138 -7419 0
-5318 -7419 0
3138 5318 7419 0
-739 -8310 0
-739 -8311 0
-8310 -8311 0
739 8310 8311 0
-1227 -8312 0
-1227 -8313 0
-8312 -8313 0
1227 8312 8313 0
-5808 -8314 0
-5808 -8315 0
-8314 -8315 0
5808 8314 8315 0
-3875 -8316 0
-3875 -8317 0
-8316 -8317 0
3875 8316 8317 0
-8318 -8319 0
-8318 -8320 0
-8319 -8320 0
8318 8319 8320 0
-3398 -4394 0
-3398 -8321 0
-4394 -8321 0
3398 4394 8321 0
-8322 -8323 0
-8322 -8324 0
-8323 -8324 0
8322 8323 8324 0
-551 -7891 0
-551 -8325 0
-7891 -8325 0
551 7891 8325 0
-3999 -8326 0
-3999 -8327 0
-8326 -8327 0
3999 8326 8327 0
-3591 -8328 0
-3591 -8329 0
-8328 -8329 0
3591 8328 8329 0
-3927 -6705 0
-3927 -8330 0
-6705 -8330 0
3927 6705 8330 0
-4906 -7173 0
-4906 -8331 0
-7173 -8331 0
4906 7173 8331 0
-1264 -1715 0
-1264 -8332 0
-1715 -8332 0
1264 1715 8332 0
-8333 -8334 0
-8333 -8335 0
-8334 -8335 0
8333 8334 8335 0
-7401 -8336 0
-7401 -8337 0
-8336 -8337 0
7401 8336 8337 0
-8338 -8339 0
-8338 -8340 0
-8339 -8340 0
8338 8339 8340 0
-8341 -8342 0
-8341 -8343 0
-8342 -8343 0
8341 8342 8343 0
-826 -2286 0
-826 -8344 0
-2286 -8344 0
826 2286 8344 0
-8345 -8346 0
-8345 -8347 0
-8346 -8347 0
8345 8346 8347 0
-4917 -8348 0
-4917 -8349 0
-8348 -8349 0
4917 8348 8349 0
-8350 -8351 0
-8350 -8352 0
-8351 -8352 0
8350 8351 8352 0
-8353 -8354 0
-8353 -8355 0
-8354 -8355 0
8353 8354 8355 0
-8356 -8357 0
-8356 -8358 0
-8357 -8358 0
8356 8357 8358 0
-8359 -8360 0
-8359 -8361 0
-8360 -8361 0
8359 8360 8361 0
-8362 -8363 0
-8362 -8364 0
-8363 -8364 0
8362 8363 8364 0
-8365 -8366 0
-8365 -8367 0
-8366 -8367 0
8365 8366 8367 0
-7256 -8368 0
-7256 -8369 0
-8368 -8369 0
7256 8368 8369 0
-465 -8370 0
-465 -8371 0
-8370 -8371 0
465 8370 8371 0
-2905 -8372 0
-2905 -8373 0
-8372 -8373 0
2905 8372 8373 0
-8374 -8375 0
-8374 -8376 0
-8375 -8376 0
8374 8375 8376 0
-5561 -8377 0
-5561 -8378 0
-8377 -8378 0
5561 8377 8378 0
-3194 -7555 0
-3194 -8379 0
-7555 -8379 0
3194 7555 8379 0
-8380 -8381 0
-8380 -8382 0
-8381 -8382 0
8380 8381 8382 0
-1891 -6355 0
-1891 -6862 0
-6355 -6862 0
1891 6355 6862 0
-5157 -8383 0
-5157 -8384 0
-8383 -8384 0
5157 8383 8384 0
-8385 -8386 0
-8385 -8387 0
-8386 -8387 0
8385 8386 8387 0
-4695 -8388 0
-4695 -8389 0
-8388 -8389 0
4695 8388 8389 0
-8390 -8391 0
-8390 -8392 0
-8391 -8392 0
8390 8391 8392 0
-2082 -6826 0
-2082 -8393 0
-6826 -8393 0
2082 6826 8393 0
-8394 -8395 0
-8394 -8396 0
-8395 -8396 0
8394 8395 8396 0
-3385 -3409 0
-3385 -8397 0
-3409 -8397 0
3385 3409 8397 0
-718 -3944 0
-718 -8398 0
-3944 -8398 0
718 3944 8398 0
-3721 -8399 0
-3721 -8400 0
-8399 -8400 0
3721 8399 8400 0
-8401 -8402 0
-8401 -8403 0
-8402 -8403 0
8401 8402 8403 0
-8404 -8405 0
-8404 -8406 0
-8405 -8406 0
8404 8405 8406 0
-5298 -8407 0
-5298 -8408 0
-8407 -8408 0
5298 8407 8408 0
-8409 -8410 0
-8409 -8411 0
-8410 -8411 0
8409 8410 8411 0
-8412 -8413 0
-8412 -8414 0
-8413 -8414 0
8412 8413 8414 0
-8415 -8416 0
-8415 -8417 0
-8416 -8417 0
8415 8416 8417 0
-8418 -8419 0
-8418 -8420 0
-8419 -8420 0
8418 8419 8420 0
-5521 -8421 0
-5521 -8422 0
-8421 -8422 0
5521 8421 8422 0
-4733 -8423 0
-4733 -8424 0
-8423 -8424 0
4733 8423 8424 0
-2319 -4999 0
-2319 -8425 0
-4999 -8425 0
2319 4999 8425 0
-8283 -8426 0
-8283 -8427 0
-8426 -8427 0
8283 8426 8427 0
-4679 -6160 0
-4679 -8428 0
-6160 -8428 0
4679 6160 8428 0
-8429 -8430 0
-8429 -8431 0
-8430 -8431 0
8429 8430 8431 0
-903 -8432 0
-903 -8433 0
-8432 -8433 0
903 8432 8433 0
-7048 -8434 0
-7048 -8435 0
-8434 -8435 0
7048 8434 8435 0
-4211 -6915 0
-4211 -8436 0
-6915 -8436 0
4211 6915 8436 0
-257 -537 0
-257 -7907 0
-537 -7907 0
257 537 7907 0
-6365 -8437 0
-6365 -8438 0
-8437 -8438 0
6365 8437 8438 0
-8439 -8440 0
-8439 -8441 0
-8440 -8441 0
8439 8440 8441 0
-1123 -4064 0
-1123 -4238 0
-4064 -4238 0
1123 4064 4238 0
-1350 -6663 0
-1350 -8442 0
-6663 -8442 0
1350 6663 8442 0
-8443 -8444 0
-8443 -8445 0
-8444 -8445 0
8443 8444 8445 0
-8446 -8447 0
-8446 -8448 0
-8447 -8448 0
8446 8447 8448 0
-3560 -8126 0
-3560 -8449 0
-8126 -8449 0
3560 8126 8449 0
-2613 -8450 0
-2613 -8451 0
-8450 -8451 0
2613 8450 8451 0
-7216 -8452 0
-7216 -8453 0
-8452 -8453 0
7216 8452 8453 0
-6031 -8454 0
-6031 -8455 0
-8454 -8455 0
6031 8454 8455 0
-7451 -8456 0
-7451 -8457 0
-8456 -8457 0
7451 8456 8457 0
-1413 -7220 0
-1413 -7632 0
-7220 -7632 0
1413 7220 7632 0
-2591 -8458 0
-2591 -8459 0
-8458 -8459 0
2591 8458 8459 0
-4036 -4068 0
-4036 -8460 0
-4068 -8460 0
4036 4068 8460 0
-6399 -8461 0
-6399 -8462 0
-8461 -8462 0
6399 8461 8462 0
-4516 -8463 0
-4516 -8464 0
-8463 -8464 0
4516 8463 8464 0
-37 -4556 0
-37 -8465 0
-4556 -8465 0
37 4556 8465 0
-8466 -8467 0
-8466 -8468 0
-8467 -8468 0
8466 8467 8468 0
-447 -959 0
-447 -8469 0
-959 -8469 0
447 959 8469 0
-8470 -8471 0
-8470 -8472 0
-8471 -8472 0
8470 8471 8472 0
-6446 -7917 0
-6446 -8473 0
-7917 -8473 0
6446 7917 8473 0
-6073 -8321 0
-6073 -8474 0
-8321 -8474 0
6073 8321 8474 0
-8475 -8476 0
-8475 -8477 0
-8476 -8477 0
8475 8476 8477 0
-7353 -8478 0
-7353 -8479 0
-8478 -8479 0
7353 8478 8479 0
-5232 -8480 0
-5232 -8481 0
-8480 -8481 0
5232 8480 8481 0
-8482 -8483 0
-8482 -8484 0
-8483 -8484 0
8482 8483 8484 0
-7207 -8485 0
-7207 -8486 0
-8485 -8486 0
7207 8485 8486 0
-8487 -8488 0
-8487 -8489 0
-8488 -8489 0
8487 8488 8489 0
-8490 -8491 0
-8490 -8492 0
-8491 -8492 0
8490 8491 8492 0
-3779 -8493 0
-3779 -8494 0
-8493 -8494 0
3779 8493 8494 0
-2998 -7849 0
-2998 -8495 0
-7849 -8495 0
2998 7849 8495 0
-8496 -8497 0
-8496 -8498 0
-8497 -8498 0
8496 8497 8498 0
-713 -7826 0
-713 -8499 0
-7826 -8499 0
713 7826 8499 0
-4154 -6207 0
-4154 -8500 0
-6207 -8500 0
4154 6207 8500 0
-8501 -8502 0
-8501 -8503 0
-8502 -8503 0
8501 8502 8503 0
-5224 -5689 0
-5224 -8504 0
-5689 -8504 0
5224 5689 8504 0
-2773 -8505 0
-2773 -8506 0
-8505 -8506 0
2773 8505 8506 0
-6430 -7478 0
-6430 -8507 0
-7478 -8507 0
6430 7478 8507 0
-8508 -8509 0
-8508 -8510 0
-8509 -8510 0
8508 8509 8510 0
-6377 -8082 0
-6377 -8511 0
-8082 -8511 0
6377 8082 8511 0
-8512 -8513 0
-8512 -8514 0
-8513 -8514 0
8512 8513 8514 0
-3027 -5552 0
-3027 -8515 0
-5552 -8515 0
3027 5552 8515 0
-8516 -8517 0
-8516 -8518 0
-8517 -8518 0
8516 8517 8518 0
-8519 -8520 0
-8519 -8521 0
-8520 -8521 0
8519 8520 8521 0
-3747 -8522 0
-3747 -8523 0
-8522 -8523 0
3747 8522 8523 0
-8524 -8525 0
-8524 -8526 0
-8525 -8526 0
8524 8525 8526 0
-1467 -8527 0
-1467 -8528 0
-8527 -8528 0
1467 8527 8528 0
-292 -6679 0
-292 -8529 0
-6679 -8529 0
292 6679 8529 0
-8530 -8531 0
-8530 -8532 0
-8531 -8532 0
8530 8531 8532 0
-8533 -8534 0
-8533 -8535 0
-8534 -8535 0
8533 8534 8535 0
-2381 -6001 0
-2381 -8536 0
-6001 -8536 0
2381 6001 8536 0
-7818 -8537 0
-7818 -8538 0
-8537 -8538 0
7818 8537 8538 0
-8539 -8540 0
-8539 -8541 0
-8540 -8541 0
8539 8540 8541 0
-7285 -8542 0
-7285 -8543 0
-8542 -8543 0
7285 8542 8543 0
-1595 -3162 0
-1595 -8544 0
-3162 -8544 0
1595 3162 8544 0
-6709 -8545 0
-6709 -8546 0
-8545 -8546 0
6709 8545 8546 0
-8243 -8274 0
-8243 -8547 0
-8274 -8547 0
8243 8274 8547 0
-3130 -8548 0
-3130 -8549 0
-8548 -8549 0
3130 8548 8549 0
-3092 -4535 0
-3092 -8271 0
-4535 -8271 0
3092 4535 8271 0
-1096 -2451 0
-1096 -8550 0
-2451 -8550 0
1096 2451 8550 0
-2906 -8551 0
-2906 -8552 0
-8551 -8552 0
2906 8551 8552 0
-1038 -3616 0
-1038 -8067 0
-3616 -8067 0
1038 3616 8067 0
-5420 -8553 0
-5420 -8554 0
-8553 -8554 0
5420 8553 8554 0
-8555 -8556 0
-8555 -8557 0
-8556 -8557 0
8555 8556 8557 0
-216 -8558 0
-216 -8559 0
-8558 -8559 0
216 8558 8559 0
-8560 -8561 0
-8560 -8562 0
-8561 -8562 0
8560 8561 8562 0
-8563 -8564 0
-8563 -8565 0
-8564 -8565 0
8563 8564 8565 0
-1846 -8465 0
-1846 -8566 0
-8465 -8566 0
1846 8465 8566 0
-8567 -8568 0
-8567 -8569 0
-8568 -8569 0
8567 8568 8569 0
-2032 -8570 0
-2032 -8571 0
-8570 -8571 0
2032 8570 8571 0
-3653 -8572 0
-3653 -8573 0
-8572 -8573 0
3653 8572 8573 0
-8574 -8575 0
-8574 -8576 0
-8575 -8576 0
8574 8575 8576 0
-8238 -8577 0
-8238 -8578 0
-8577 -8578 0
8238 8577 8578 0
-6512 -8579 0
-6512 -8580 0
-8579 -8580 0
6512 8579 8580 0
-8581 -8582 0
-8581 -8583 0
-8582 -8583 0
8581 8582 8583 0
-8584 -8585 0
-8584 -8586 0
-8585 -8586 0
8584 8585 8586 0
-8587 -8588 0
-8587 -8589 0
-8588 -8589 0
8587 8588 8589 0
-6896 -7297 0
-6896 -8590 0
-7297 -8590 0
6896 7297 8590 0
-3122 -8591 0
-3122 -8592 0
-8591 -8592 0
3122 8591 8592 0
-3668 -8593 0
-3668 -8594 0
-8593 -8594 0
3668 8593 8594 0
-8279 -8595 0
-8279 -8596 0
-8595 -8596 0
8279 8595 8596 0
-1872 -2529 0
-1872 -8597 0
-2529 -8597 0
1872 2529 8597 0
-997 -6859 0
-997 -8598 0
-6859 -8598 0
997 6859 8598 0
-4881 -8599 0
-4881 -8600 0
-8599 -8600 0
4881 8599 8600 0
-8601 -8602 0
-8601 -8603 0
-8602 -8603 0
8601 8602 8603 0
-8604 -8605 0
-8604 -8606 0
-8605 -8606 0
8604 8605 8606 0
-5130 -8607 0
-5130 -8608 0
-8607 -8608 0
5130 8607 8608 0
-2828 -4479 0
-2828 -8609 0
-4479 -8609 0
2828 4479 8609 0
-3907 -8610 0
-3907 -8611 0
-8610 -8611 0
3907 8610 8611 0
-2794 -8612 0
-2794 -8613 0
-8612 -8613 0
2794 8612 8613 0
-5541 -7846 0
-5541 -8614 0
-7846 -8614 0
5541 7846 8614 0
-4375 -7919 0
-4375 -8615 0
-7919 -8615 0
4375 7919 8615 0
-97 -8616 0
-97 -8617 0
-8616 -8617 0
97 8616 8617 0
-726 -8618 0
-726 -8619 0
-8618 -8619 0
726 8618 8619 0
-2586 -8620 0
-2586 -8621 0
-8620 -8621 0
2586 8620 8621 0
-8622 -8623 0
-8622 -8624 0
-8623 -8624 0
8622 8623 8624 0
-855 -4855 0
-855 -8625 0
-4855 -8625 0
855 4855 8625 0
-8626 -8627 0
-8626 -8628 0
-8627 -8628 0
8626 8627 8628 0
-1526 -7395 0
-1526 -8629 0
-7395 -8629 0
1526 7395 8629 0
-3534 -8630 0
-3534 -8631 0
-8630 -8631 0
3534 8630 8631 0
-3346 -6081 0
-3346 -8632 0
-6081 -8632 0
3346 6081 8632 0
-8633 -8634 0
-8633 -8635 0
-8634 -8635 0
8633 8634 8635 0
-8181 -8636 0
-8181 -8637 0
-8636 -8637 0
8181 8636 8637 0
-8638 -8639 0
-8638 -8640 0
-8639 -8640 0
8638 8639 8640 0
-8641 -8642 0
-8641 -8643 0
-8642 -8643 0
8641 8642 8643 0
-8644 -8645 0
-8644 -8646 0
-8645 -8646 0
8644 8645 8646 0
-8647 -8648 0
-8647 -8649 0
-8648 -8649 0
8647 8648 8649 0
-8650 -8651 0
-8650 -8652 0
-8651 -8652 0
8650 8651 8652 0
-1733 -8653 0
-1733 -8654 0
-8653 -8654 0
1733 8653 8654 0
-8655 -8656 0
-8655 -8657 0
-8656 -8657 0
8655 8656 8657 0
-5709 -8658 0
-5709 -8659 0
-8658 -8659 0
5709 8658 8659 0
-8660 -8661 0
-8660 -8662 0
-8661 -8662 0
8660 8661 8662 0
-8095 -8663 0
-8095 -8664 0
-8663 -8664 0
8095 8663 8664 0
-8665 -8666 0
-8665 -8667 0
-8666 -8667 0
8665 8666 8667 0
-8668 -8669 0
-8668 -8670 0
-8669 -8670 0
8668 8669 8670 0
-6995 -8385 0
-6995 -8671 0
-8385 -8671 0
6995 8385 8671 0
-4341 -8672 0
-4341 -8673 0
-8672 -8673 0
4341 8672 8673 0
-1178 -8674 0
-1178 -8675 0
-8674 -8675 0
1178 8674 8675 0
-1431 -5332 0
-1431 -8676 0
-5332 -8676 0
1431 5332 8676 0
-5167 -8677 0
-5167 -8678 0
-8677 -8678 0
5167 8677 8678 0
-8679 -8680 0
-8679 -8681 0
-8680 -8681 0
8679 8680 8681 0
-8682 -8683 0
-8682 -8684 0
-8683 -8684 0
8682 8683 8684 0
-4038 -8685 0
-4038 -8686 0
-8685 -8686 0
4038 8685 8686 0
-1875 -8687 0
-1875 -8688 0
-8687 -8688 0
1875 8687 8688 0
-2872 -7960 0
-2872 -8689 0
-7960 -8689 0
2872 7960 8689 0
-3098 -8690 0
-3098 -8691 0
-8690 -8691 0
3098 8690 8691 0
-8692 -8693 0
-8692 -8694 0
-8693 -8694 0
8692 8693 8694 0
-627 -4686 0
-627 -8695 0
-4686 -8695 0
627 4686 8695 0
-8696 -8697 0
-8696 -8698 0
-8697 -8698 0
8696 8697 8698 0
-222 -2837 0
-222 -8699 0
-2837 -8699 0
222 2837 8699 0
-1395 -5635 0
-1395 -8700 0
-5635 -8700 0
1395 5635 8700 0
-8701 -8702 0
-8701 -8703 0
-8702 -8703 0
8701 8702 8703 0
-5218 -8704 0
-5218 -8705 0
-8704 -8705 0
5218 8704 8705 0
-8706 -8707 0
-8706 -8708 0
-8707 -8708 0
8706 8707 8708 0
-5921 -8709 0
-5921 -8710 0
-8709 -8710 0
5921 8709 8710 0
-1828 -7012 0
-1828 -8711 0
-7012 -8711 0
1828 7012 8711 0
-1439 -2771 0
-1439 -8712 0
-2771 -8712 0
1439 2771 8712 0
-8713 -8714 0
-8713 -8715 0
-8714 -8715 0
8713 8714 8715 0
-3824 -8716 0
-3824 -8717 0
-8716 -8717 0
3824 8716 8717 0
-4222 -8718 0
-4222 -8719 0
-8718 -8719 0
4222 8718 8719 0
-8012 -8720 0
-8012 -8721 0
-8720 -8721 0
8012 8720 8721 0
-7685 -8722 0
-7685 -8723 0
-8722 -8723 0
7685 8722 8723 0
-1641 -8724 0
-1641 -8725 0
-8724 -8725 0
1641 8724 8725 0
-2231 -8726 0
-2231 -8727 0
-8726 -8727 0
2231 8726 8727 0
-3812 -8728 0
-3812 -8729 0
-8728 -8729 0
3812 8728 8729 0
-4263 -8730 0
-4263 -8731 0
-8730 -8731 0
4263 8730 8731 0
-8732 -8733 0
-8732 -8734 0
-8733 -8734 0
8732 8733 8734 0
-2772 -7440 0
-2772 -8735 0
-7440 -8735 0
2772 7440 8735 0
-3352 -8736 0
-3352 -8737 0
-8736 -8737 0
3352 8736 8737 0
-8738 -8739 0
-8738 -8740 0
-8739 -8740 0
8738 8739 8740 0
-2379 -8741 0
-2379 -8742 0
-8741 -8742 0
2379 8741 8742 0
-8743 -8744 0
-8743 -8745 0
-8744 -8745 0
8743 8744 8745 0
-8746 -8747 0
-8746 -8748 0
-8747 -8748 0
8746 8747 8748 0
-8749 -8750 0
-8749 -8751 0
-8750 -8751 0
8749 8750 8751 0
-8718 -8752 0
-8718 -8753 0
-8752 -8753 0
8718 8752 8753 0
-3816 -8754 0
-3816 -8755 0
-8754 -8755 0
3816 8754 8755 0
-8756 -8757 0
-8756 -8758 0
-8757 -8758 0
8756 8757 8758 0
-8759 -8760 0
-8759 -8761 0
-8760 -8761 0
8759 8760 8761 0
-3781 -8762 0
-3781 -8763 0
-8762 -8763 0
3781 8762 8763 0
-8764 -8765 0
-8764 -8766 0
-8765 -8766 0
8764 8765 8766 0
-8767 -8768 0
-8767 -8769 0
-8768 -8769 0
8767 8768 8769 0
-450 -8756 0
-450 -8770 0
-8756 -8770 0
450 8756 8770 0
-8771 -8772 0
-8771 -8773 0
-8772 -8773 0
8771 8772 8773 0
-7515 -8774 0
-7515 -8775 0
-8774 -8775 0
7515 8774 8775 0
-3671 -8776 0
-3671 -8777 0
-8776 -8777 0
3671 8776 8777 0
-8778 -8779 0
-8778 -8780 0
-8779 -8780 0
8778 8779 8780 0
-8781 -8782 0
-8781 -8783 0
-8782 -8783 0
8781 8782 8783 0
-2375 -8653 0
-2375 -8784 0
-8653 -8784 0
2375 8653 8784 0
-113 -8674 0
-113 -8785 0
-8674 -8785 0
113 8674 8785 0
-4790 -8786 0
-4790 -8787 0
-8786 -8787 0
4790 8786 8787 0
-1274 -4244 0
-1274 -8788 0
-4244 -8788 0
1274 4244 8788 0
-5295 -8789 0
-5295 -8790 0
-8789 -8790 0
5295 8789 8790 0
-6154 -8791 0
-6154 -8792 0
-8791 -8792 0
6154 8791 8792 0
-780 -8793 0
-780 -8794 0
-8793 -8794 0
780 8793 8794 0
-2986 -6022 0
-2986 -7068 0
-6022 -7068 0
2986 6022 7068 0
-6849 -8795 0
-6849 -8796 0
-8795 -8796 0
6849 8795 8796 0
-3775 -8797 0
-3775 -8798 0
-8797 -8798 0
3775 8797 8798 0
-8353 -8799 0
-8353 -8800 0
-8799 -8800 0
8353 8799 8800 0
-5187 -8801 0
-5187 -8802 0
-8801 -8802 0
5187 8801 8802 0
-8803 -8804 0
-8803 -8805 0
-8804 -8805 0
8803 8804 8805 0
-8806 -8807 0
-8806 -8808 0
-8807 -8808 0
8806 8807 8808 0
-8809 -8810 0
-8809 -8811 0
-8810 -8811 0
8809 8810 8811 0
-8791 -8812 0
-8791 -8813 0
-8812 -8813 0
8791 8812 8813 0
-8746 -8814 0
-8746 -8815 0
-8814 -8815 0
8746 8814 8815 0
-3892 -8816 0
-3892 -8817 0
-8816 -8817 0
3892 8816 8817 0
-2252 -7325 0
-2252 -8818 0
-7325 -8818 0
2252 7325 8818 0
-8819 -8820 0
-8819 -8821 0
-8820 -8821 0
8819 8820 8821 0
-6483 -8466 0
-6483 -8822 0
-8466 -8822 0
6483 8466 8822 0
-8823 -8824 0
-8823 -8825 0
-8824 -8825 0
8823 8824 8825 0
-7640 -8826 0
-7640 -8827 0
-8826 -8827 0
7640 8826 8827 0
-8828 -8829 0
-8828 -8830 0
-8829 -8830 0
8828 8829 8830 0
-8210 -8831 0
-8210 -8832 0
-8831 -8832 0
8210 8831 8832 0
-4579 -8833 0
-4579 -8834 0
-8833 -8834 0
4579 8833 8834 0
-2298 -8522 0
-2298 -8835 0
-8522 -8835 0
2298 8522 8835 0
-1109 -8836 0
-1109 -8837 0
-8836 -8837 0
1109 8836 8837 0
-5311 -7802 0
-5311 -8838 0
-7802 -8838 0
5311 7802 8838 0
-8839 -8840 0
-8839 -8841 0
-8840 -8841 0
8839 8840 8841 0
-6131 -8842 0
-6131 -8843 0
-8842 -8843 0
6131 8842 8843 0
-8844 -8845 0
-8844 -8846 0
-8845 -8846 0
8844 8845 8846 0
-7873 -8045 0
-7873 -8847 0
-8045 -8847 0
7873 8045 8847 0
-926 -8848 0
-926 -8849 0
-8848 -8849 0
926 8848 8849 0
-6521 -8850 0
-6521 -8851 0
-8850 -8851 0
6521 8850 8851 0
-412 -5610 0
-412 -8852 0
-5610 -8852 0
412 5610 8852 0
-1048 -1106 0
-1048 -8853 0
-1106 -8853 0
1048 1106 8853 0
-5862 -8854 0
-5862 -8855 0
-8854 -8855 0
5862 8854 8855 0
-240 -2421 0
-240 -2492 0
-2421 -2492 0
240 2421 2492 0
-5787 -8096 0
-5787 -8856 0
-8096 -8856 0
5787 8096 8856 0
-8857 -8858 0
-8857 -8859 0
-8858 -8859 0
8857 8858 8859 0
-8655 -8860 0
-8655 -8861 0
-8860 -8861 0
8655 8860 8861 0
-3225 -6452 0
-3225 -8862 0
-6452 -8862 0
3225 6452 8862 0
-1112 -8863 0
-1112 -8864 0
-8863 -8864 0
1112 8863 8864 0
-8865 -8866 0
-8865 -8867 0
-8866 -8867 0
8865 8866 8867 0
-5170 -6272 0
-5170 -8868 0
-6272 -8868 0
5170 6272 8868 0
-4403 -8869 0
-4403 -8870 0
-8869 -8870 0
4403 8869 8870 0
-8871 -8872 0
-8871 -8873 0
-8872 -8873 0
8871 8872 8873 0
-8874 -8875 0
-8874 -8876 0
-8875 -8876 0
8874 8875 8876 0
-4345 -4627 0
-4345 -8877 0
-4627 -8877 0
4345 4627 8877 0
-8878 -8879 0
-8878 -8880 0
-8879 -8880 0
8878 8879 8880 0
-6062 -8881 0
-6062 -8882 0
-8881 -8882 0
6062 8881 8882 0
-2442 -8883 0
-2442 -8884 0
-8883 -8884 0
2442 8883 8884 0
-4008 -8885 0
-4008 -8886 0
-8885 -8886 0
4008 8885 8886 0
-8887 -8888 0
-8887 -8889 0
-8888 -8889 0
8887 8888 8889 0
-8890 -8891 0
-8890 -8892 0
-8891 -8892 0
8890 8891 8892 0
-8893 -8894 0
-8893 -8895 0
-8894 -8895 0
8893 8894 8895 0
-8896 -8897 0
-8896 -8898 0
-8897 -8898 0
8896 8897 8898 0
-2780 -8899 0
-2780 -8900 0
-8899 -8900 0
2780 8899 8900 0
-8901 -8902 0
-8901 -8903 0
-8902 -8903 0
8901 8902 8903 0
-8904 -8905 0
-8904 -8906 0
-8905 -8906 0
8904 8905 8906 0
-1538 -8907 0
-1538 -8908 0
-8907 -8908 0
1538 8907 8908 0
-8909 -8910 0
-8909 -8911 0
-8910 -8911 0
8909 8910 8911 0
-1849 -8912 0
-1849 -8913 0
-8912 -8913 0
1849 8912 8913 0
-757 -6777 0
-757 -8914 0
-6777 -8914 0
757 6777 8914 0
-3840 -8915 0
-3840 -8916 0
-8915 -8916 0
3840 8915 8916 0
-2063 -8917 0
-2063 -8918 0
-8917 -8918 0
2063 8917 8918 0
-8919 -8920 0
-8919 -8921 0
-8920 -8921 0
8919 8920 8921 0
-8922 -8923 0
-8922 -8924 0
-8923 -8924 0
8922 8923 8924 0
-7855 -8925 0
-7855 -8926 0
-8925 -8926 0
7855 8925 8926 0
-8927 -8928 0
-8927 -8929 0
-8928 -8929 0
8927 8928 8929 0
-3955 -6114 0
-3955 -8930 0
-6114 -8930 0
3955 6114 8930 0
-8931 -8932 0
-8931 -8933 0
-8932 -8933 0
8931 8932 8933 0
-8934 -8935 0
-8934 -8936 0
-8935 -8936 0
8934 8935 8936 0
-2753 -8937 0
-2753 -8938 0
-8937 -8938 0
2753 8937 8938 0
-6967 -8939 0
-6967 -8940 0
-8939 -8940 0
6967 8939 8940 0
-919 -8941 0
-919 -8942 0
-8941 -8942 0
919 8941 8942 0
-110 -6785 0
-110 -8943 0
-6785 -8943 0
110 6785 8943 0
-2382 -4302 0
-2382 -4376 0
-4302 -4376 0
2382 4302 4376 0
-8944 -8945 0
-8944 -8946 0
-8945 -8946 0
8944 8945 8946 0
-7558 -8947 0
-7558 -8948 0
-8947 -8948 0
7558 8947 8948 0
-2111 -3381 0
-2111 -6725 0
-3381 -6725 0
2111 3381 6725 0
-5835 -8949 0
-5835 -8950 0
-8949 -8950 0
5835 8949 8950 0
-2479 -2929 0
-2479 -8951 0
-2929 -8951 0
2479 2929 8951 0
-8042 -8952 0
-8042 -8953 0
-8952 -8953 0
8042 8952 8953 0
-8954 -8955 0
-8954 -8956 0
-8955 -8956 0
8954 8955 8956 0
-1240 -8957 0
-1240 -8958 0
-8957 -8958 0
1240 8957 8958 0
-8959 -8960 0
-8959 -8961 0
-8960 -8961 0
8959 8960 8961 0
-6733 -8962 0
-6733 -8963 0
-8962 -8963 0
6733 8962 8963 0
-3481 -7235 0
-3481 -8964 0
-7235 -8964 0
3481 7235 8964 0
-2449 -8965 0
-2449 -8966 0
-8965 -8966 0
2449 8965 8966 0
-7725 -8967 0
-7725 -8968 0
-8967 -8968 0
7725 8967 8968 0
-8969 -8970 0
-8969 -8971 0
-8970 -8971 0
8969 8970 8971 0
-8972 -8973 0
-8972 -8974 0
-8973 -8974 0
8972 8973 8974 0
-675 -8975 0
-675 -8976 0
-8975 -8976 0
675 8975 8976 0
-3234 -4320 0
-3234 -8977 0
-4320 -8977 0
3234 4320 8977 0
-3179 -3332 0
-3179 -8978 0
-3332 -8978 0
3179 3332 8978 0
-1305 -3053 0
-1305 -7104 0
-3053 -7104 0
1305 3053 7104 0
-1515 -8836 0
-1515 -8979 0
-8836 -8979 0
1515 8836 8979 0
-128 -8980 0
-128 -8981 0
-8980 -8981 0
128 8980 8981 0
-5774 -8982 0
-5774 -8983 0
-8982 -8983 0
5774 8982 8983 0
-7077 -8984 0
-7077 -8985 0
-8984 -8985 0
7077 8984 8985 0
-2160 -4608 0
-2160 -8986 0
-4608 -8986 0
2160 4608 8986 0
-283 -8987 0
-283 -8988 0
-8987 -8988 0
283 8987 8988 0
-8482 -8989 0
-8482 -8990 0
-8989 -8990 0
8482 8989 8990 0
-7308 -8991 0
-7308 -8992 0
-8991 -8992 0
7308 8991 8992 0
-5120 -8139 0
-5120 -8993 0
-8139 -8993 0
5120 8139 8993 0
-5783 -7402 0
-5783 -8994 0
-7402 -8994 0
5783 7402 8994 0
-2072 -8995 0
-2072 -8996 0
-8995 -8996 0
2072 8995 8996 0
-4477 -6287 0
-4477 -7394 0
-6287 -7394 0
4477 6287 7394 0
-8997 -8998 0
-8997 -8999 0
-8998 -8999 0
8997 8998 8999 0
-4573 -9000 0
-4573 -9001 0
-9000 -9001 0
4573 9000 9001 0
-9002 -9003 0
-9002 -9004 0
-9003 -9004 0
9002 9003 9004 0
-9005 -9006 0
-9005 -9007 0
-9006 -9007 0
9005 9006 9007 0
-9008 -9009 0
-9008 -9010 0
-9009 -9010 0
9008 9009 9010 0
-6644 -9011 0
-6644 -9012 0
-9011 -9012 0
6644 9011 9012 0
-9013 -9014 0
-9013 -9015 0
-9014 -9015 0
9013 9014 9015 0
-3525 -9016 0
-3525 -9017 0
-9016 -9017 0
3525 9016 9017 0
-6155 -8266 0
-6155 -9018 0
-8266 -9018 0
6155 8266 9018 0
-7733 -9019 0
-7733 -9020 0
-9019 -9020 0
7733 9019 9020 0
-7835 -9021 0
-7835 -9022 0
-9021 -9022 0
7835 9021 9022 0
-2869 -9023 0
-2869 -9024 0
-9023 -9024 0
2869 9023 9024 0
-7646 -9025 0
-7646 -9026 0
-9025 -9026 0
7646 9025 9026 0
-7003 -9027 0
-7003 -9028 0
-9027 -9028 0
7003 9027 9028 0
-4415 -9029 0
-4415 -9030 0
-9029 -9030 0
4415 9029 9030 0
-9031 -9032 0
-9031 -9033 0
-9032 -9033 0
9031 9032 9033 0
-8429 -9034 0
-8429 -9035 0
-9034 -9035 0
8429 9034 9035 0
-1906 -7843 0
-1906 -9036 0
-7843 -9036 0
1906 7843 9036 0
-6567 -9037 0
-6567 -9038 0
-9037 -9038 0
6567 9037 9038 0
-9039 -9040 0
-9039 -9041 0
-9040 -9041 0
9039 9040 9041 0
-9042 -9043 0
-9042 -9044 0
-9043 -9044 0
9042 9043 9044 0
-9045 -9046 0
-9045 -9047 0
-9046 -9047 0
9045 9046 9047 0
-9048 -9049 0
-9048 -9050 0
-9049 -9050 0
9048 9049 9050 0
-5836 -6250 0
-5836 -7614 0
-6250 -7614 0
5836 6250 7614 0
-9051 -9052 0
-9051 -9053 0
-9052 -9053 0
9051 9052 9053 0
-81 -5356 0
-81 -8034 0
-5356 -8034 0
81 5356 8034 0
-9054 -9055 0
-9054 -9056 0
-9055 -9056 0
9054 9055 9056 0
-9057 -9058 0
-9057 -9059 0
-9058 -9059 0
9057 9058 9059 0
-5436 -9060 0
-5436 -9061 0
-9060 -9061 0
5436 9060 9061 0
-6863 -9062 0
-6863 -9063 0
-9062 -9063 0
6863 9062 9063 0
-9064 -9065 0
-9064 -9066 0
-9065 -9066 0
9064 9065 9066 0
-7972 -9067 0
-7972 -9068 0
-9067 -9068 0
7972 9067 9068 0
-4005 -9069 0
-4005 -9070 0
-9069 -9070 0
4005 9069 9070 0
-4207 -7676 0
-4207 -9071 0
-7676 -9071 0
4207 7676 9071 0
-8088 -9072 0
-8088 -9073 0
-9072 -9073 0
8088 9072 9073 0
-1564 -3221 0
-1564 -3325 0
-3221 -3325 0
1564 3221 3325 0
-6339 -9074 0
-6339 -9075 0
-9074 -9075 0
6339 9074 9075 0
-3945 -8660 0
-3945 -9076 0
-8660 -9076 0
3945 8660 9076 0
-4147 -7627 0
-4147 -9077 0
-7627 -9077 0
4147 7627 9077 0
-8215 -9078 0
-8215 -9079 0
-9078 -9079 0
8215 9078 9079 0
-3632 -9080 0
-3632 -9081 0
-9080 -9081 0
3632 9080 9081 0
-2706 -9082 0
-2706 -9083 0
-9082 -9083 0
2706 9082 9083 0
-9084 -9085 0
-9084 -9086 0
-9085 -9086 0
9084 9085 9086 0
-9087 -9088 0
-9087 -9089 0
-9088 -9089 0
9087 9088 9089 0
-5071 -9090 0
-5071 -9091 0
-9090 -9091 0
5071 9090 9091 0
-397 -9092 0
-397 -9093 0
-9092 -9093 0
397 9092 9093 0
-9094 -9095 0
-9094 -9096 0
-9095 -9096 0
9094 9095 9096 0
-5734 -8456 0
-5734 -9097 0
-8456 -9097 0
5734 8456 9097 0
-3005 -9098 0
-3005 -9099 0
-9098 -9099 0
3005 9098 9099 0
-131 -9100 0
-131 -9101 0
-9100 -9101 0
131 9100 9101 0
-9102 -9103 0
-9102 -9104 0
-9103 -9104 0
9102 9103 9104 0
-3006 -9105 0
-3006 -9106 0
-9105 -9106 0
3006 9105 9106 0
-9107 -9108 0
-9107 -9109 0
-9108 -9109 0
9107 9108 9109 0
-214 -9110 0
-214 -9111 0
-9110 -9111 0
214 9110 9111 0
-9112 -9113 0
-9112 -9114 0
-9113 -9114 0
9112 9113 9114 0
-4809 -9115 0
-4809 -9116 0
-9115 -9116 0
4809 9115 9116 0
-8104 -9117 0
-8104 -9118 0
-9117 -9118 0
8104 9117 9118 0
-9119 -9120 0
-9119 -9121 0
-9120 -9121 0
9119 9120 9121 0
-6839 -7542 0
-6839 -9122 0
-7542 -9122 0
6839 7542 9122 0
-4972 -6722 0
-4972 -9123 0
-6722 -9123 0
4972 6722 9123 0
-9124 -9125 0
-9124 -9126 0
-9125 -9126 0
9124 9125 9126 0
-6630 -9127 0
-6630 -9128 0
-9127 -9128 0
6630 9127 9128 0
-2840 -9129 0
-2840 -9130 0
-9129 -9130 0
2840 9129 9130 0
-2795 -9131 0
-2795 -9132 0
-9131 -9132 0
2795 9131 9132 0
-7798 -9133 0
-7798 -9134 0
-9133 -9134 0
7798 9133 9134 0
-9135 -9136 0
-9135 -9137 0
-9136 -9137 0
9135 9136 9137 0
-3554 -6625 0
-3554 -7071 0
-6625 -7071 0
3554 6625 7071 0
-5242 -9138 0
-5242 -9139 0
-9138 -9139 0
5242 9138 9139 0
-2930 -7808 0
-2930 -9140 0
-7808 -9140 0
2930 7808 9140 0
-9141 -9142 0
-9141 -9143 0
-9142 -9143 0
9141 9142 9143 0
-1544 -7888 0
-1544 -9144 0
-7888 -9144 0
1544 7888 9144 0
-379 -9145 0
-379 -9146 0
-9145 -9146 0
379 9145 9146 0
-9147 -9148 0
-9147 -9149 0
-9148 -9149 0
9147 9148 9149 0
-3359 -8641 0
-3359 -9150 0
-8641 -9150 0
3359 8641 9150 0
-5115 -7288 0
-5115 -9151 0
-7288 -9151 0
5115 7288 9151 0
-2659 -9152 0
-2659 -9153 0
-9152 -9153 0
2659 9152 9153 0
-2383 -9154 0
-2383 -9155 0
-9154 -9155 0
2383 9154 9155 0
-827 -9156 0
-827 -9157 0
-9156 -9157 0
827 9156 9157 0
-4892 -7858 0
-4892 -9158 0
-7858 -9158 0
4892 7858 9158 0
-360 -1635 0
-360 -9159 0
-1635 -9159 0
360 1635 9159 0
-426 -9160 0
-426 -9161 0
-9160 -9161 0
426 9160 9161 0
-6482 -9162 0
-6482 -9163 0
-9162 -9163 0
6482 9162 9163 0
-8899 -9164 0
-8899 -9165 0
-9164 -9165 0
8899 9164 9165 0
-1561 -8854 0
-1561 -9166 0
-8854 -9166 0
1561 8854 9166 0
-4852 -9167 0
-4852 -9168 0
-9167 -9168 0
4852 9167 9168 0
-887 -3738 0
-887 -9169 0
-3738 -9169 0
887 3738 9169 0
-5922 -6868 0
-5922 -9170 0
-6868 -9170 0
5922 6868 9170 0
-2658 -5877 0
-2658 -9171 0
-5877 -9171 0
2658 5877 9171 0
-398 -9172 0
-398 -9173 0
-9172 -9173 0
398 9172 9173 0
-9174 -9175 0
-9174 -9176 0
-9175 -9176 0
9174 9175 9176 0
-5478 -5935 0
-5478 -9177 0
-5935 -9177 0
5478 5935 9177 0
-9178 -9179 0
-9178 -9180 0
-9179 -9180 0
9178 9179 9180 0
-9181 -9182 0
-9181 -9183 0
-9182 -9183 0
9181 9182 9183 0
-4649 -9184 0
-4649 -9185 0
-9184 -9185 0
4649 9184 9185 0
-7175 -9186 0
-7175 -9187 0
-9186 -9187 0
7175 9186 9187 0
-7124 -9188 0
-7124 -9189 0
-9188 -9189 0
7124 9188 9189 0
-9190 -9191 0
-9190 -9192 0
-9191 -9192 0
9190 9191 9192 0
-9193 -9194 0
-9193 -9195 0
-9194 -9195 0
9193 9194 9195 0
-4041 -6506 0
-4041 -9196 0
-6506 -9196 0
4041 6506 9196 0
-5532 -9197 0
-5532 -9198 0
-9197 -9198 0
5532 9197 9198 0
-9199 -9200 0
-9199 -9201 0
-9200 -9201 0
9199 9200 9201 0
-2739 -9202 0
-2739 -9203 0
-9202 -9203 0
2739 9202 9203 0
-3458 -9204 0
-3458 -9205 0
-9204 -9205 0
3458 9204 9205 0
-3361 -9206 0
-3361 -9207 0
-9206 -9207 0
3361 9206 9207 0
-6468 -8701 0
-6468 -9208 0
-8701 -9208 0
6468 8701 9208 0
-7316 -9209 0
-7316 -9210 0
-9209 -9210 0
7316 9209 9210 0
-9211 -9212 0
-9211 -9213 0
-9212 -9213 0
9211 9212 9213 0
-5153 -9214 0
-5153 -9215 0
-9214 -9215 0
5153 9214 9215 0
-6620 -8065 0
-6620 -9216 0
-8065 -9216 0
6620 8065 9216 0
-4744 -9217 0
-4744 -9218 0
-9217 -9218 0
4744 9217 9218 0
-4232 -9219 0
-4232 -9220 0
-9219 -9220 0
4232 9219 9220 0
-5314 -9221 0
-5314 -9222 0
-9221 -9222 0
5314 9221 9222 0
-3045 -9223 0
-3045 -9224 0
-9223 -9224 0
3045 9223 9224 0
-3701 -9225 0
-3701 -9226 0
-9225 -9226 0
3701 9225 9226 0
-9227 -9228 0
-9227 -9229 0
-9228 -9229 0
9227 9228 9229 0
-334 -9230 0
-334 -9231 0
-9230 -9231 0
334 9230 9231 0
-2112 -3885 0
-2112 -4142 0
-3885 -4142 0
2112 3885 4142 0
-7602 -9232 0
-7602 -9233 0
-9232 -9233 0
7602 9232 9233 0
-9234 -9235 0
-9234 -9236 0
-9235 -9236 0
9234 9235 9236 0
-640 -6390 0
-640 -9237 0
-6390 -9237 0
640 6390 9237 0
-5151 -9238 0
-5151 -9239 0
-9238 -9239 0
5151 9238 9239 0
-2313 -9240 0
-2313 -9241 0
-9240 -9241 0
2313 9240 9241 0
-6016 -9242 0
-6016 -9243 0
-9242 -9243 0
6016 9242 9243 0
-3876 -7754 0
-3876 -9244 0
-7754 -9244 0
3876 7754 9244 0
-9245 -9246 0
-9245 -9247 0
-9246 -9247 0
9245 9246 9247 0
-1838 -9248 0
-1838 -9249 0
-9248 -9249 0
1838 9248 9249 0
-2726 -5606 0
-2726 -9250 0
-5606 -9250 0
2726 5606 9250 0
-8533 -9251 0
-8533 -9252 0
-9251 -9252 0
8533 9251 9252 0
-1090 -9253 0
-1090 -9254 0
-9253 -9254 0
1090 9253 9254 0
-9255 -9256 0
-9255 -9257 0
-9256 -9257 0
9255 9256 9257 0
-4370 -9258 0
-4370 -9259 0
-9258 -9259 0
4370 9258 9259 0
-6460 -7248 0
-6460 -9260 0
-7248 -9260 0
6460 7248 9260 0
-4520 -9261 0
-4520 -9262 0
-9261 -9262 0
4520 9261 9262 0
-5457 -7755 0
-5457 -9263 0
-7755 -9263 0
5457 7755 9263 0
-6181 -9264 0
-6181 -9265 0
-9264 -9265 0
6181 9264 9265 0
-2473 -5811 0
-2473 -7117 0
-5811 -7117 0
2473 5811 7117 0
-9266 -9267 0
-9266 -9268 0
-9267 -9268 0
9266 9267 9268 0
-2307 -9269 0
-2307 -9270 0
-9269 -9270 0
2307 9269 9270 0
-7830 -9271 0
-7830 -9272 0
-9271 -9272 0
7830 9271 9272 0
-8121 -9273 0
-8121 -9274 0
-9273 -9274 0
8121 9273 9274 0
-1486 -9275 0
-1486 -9276 0
-9275 -9276 0
1486 9275 9276 0
-3916 -7051 0
-3916 -9277 0
-7051 -9277 0
3916 7051 9277 0
-3979 -6378 0
-3979 -7629 0
-6378 -7629 0
3979 6378 7629 0
-1768 -3395 0
-1768 -9278 0
-3395 -9278 0
1768 3395 9278 0
-5926 -9279 0
-5926 -9280 0
-9279 -9280 0
5926 9279 9280 0
-5781 -6743 0
-5781 -9281 0
-6743 -9281 0
5781 6743 9281 0
-1824 -3425 0
-1824 -6288 0
-3425 -6288 0
1824 3425 6288 0
-2728 -9282 0
-2728 -9283 0
-9282 -9283 0
2728 9282 9283 0
-2953 -9284 0
-2953 -9285 0
-9284 -9285 0
2953 9284 9285 0
-9286 -9287 0
-9286 -9288 0
-9287 -9288 0
9286 9287 9288 0
-9289 -9290 0
-9289 -9291 0
-9290 -9291 0
9289 9290 9291 0
-7017 -7237 0
-7017 -9292 0
-7237 -9292 0
7017 7237 9292 0
-9293 -9294 0
-9293 -9295 0
-9294 -9295 0
9293 9294 9295 0
-9296 -9297 0
-9296 -9298 0
-9297 -9298 0
9296 9297 9298 0
-1230 -9299 0
-1230 -9300 0
-9299 -9300 0
1230 9299 9300 0
-9301 -9302 0
-9301 -9303 0
-9302 -9303 0
9301 9302 9303 0
-8267 -9304 0
-8267 -9305 0
-9304 -9305 0
8267 9304 9305 0
-4277 -8795 0
-4277 -9306 0
-8795 -9306 0
4277 8795 9306 0
-2297 -3404 0
-2297 -9307 0
-3404 -9307 0
2297 3404 9307 0
-3415 -9308 0
-3415 -9309 0
-9308 -9309 0
3415 9308 9309 0
-1748 -5962 0
-1748 -9310 0
-5962 -9310 0
1748 5962 9310 0
-9311 -9312 0
-9311 -9313 0
-9312 -9313 0
9311 9312 9313 0
-9314 -9315 0
-9314 -9316 0
-9315 -9316 0
9314 9315 9316 0
-9317 -9318 0
-9317 -9319 0
-9318 -9319 0
9317 9318 9319 0
-9320 -9321 0
-9320 -9322 0
-9321 -9322 0
9320 9321 9322 0
-545 -3961 0
-545 -4844 0
-3961 -4844 0
545 3961 4844 0
-6223 -9214 0
-6223 -9323 0
-9214 -9323 0
6223 9214 9323 0
-95 -5475 0
-95 -9324 0
-5475 -9324 0
95 5475 9324 0
-2979 -8883 0
-2979 -9325 0
-8883 -9325 0
2979 8883 9325 0
-9326 -9327 0
-9326 -9328 0
-9327 -9328 0
9326 9327 9328 0
-5250 -5572 0
-5250 -9329 0
-5572 -9329 0
5250 5572 9329 0
-9330 -9331 0
-9330 -9332 0
-9331 -9332 0
9330 9331 9332 0
-1852 -3511 0
-1852 -9333 0
-3511 -9333 0
1852 3511 9333 0
-6688 -7115 0
-6688 -8544 0
-7115 -8544 0
6688 7115 8544 0
-2039 -9334 0
-2039 -9335 0
-9334 -9335 0
2039 9334 9335 0
-5068 -9336 0
-5068 -9337 0
-9336 -9337 0
5068 9336 9337 0
-6637 -9338 0
-6637 -9339 0
-9338 -9339 0
6637 9338 9339 0
-9340 -9341 0
-9340 -9342 0
-9341 -9342 0
9340 9341 9342 0
-9343 -9344 0
-9343 -9345 0
-9344 -9345 0
9343 9344 9345 0
-3654 -6214 0
-3654 -9346 0
-6214 -9346 0
3654 6214 9346 0
-284 -7162 0
-284 -9347 0
-7162 -9347 0
284 7162 9347 0
-2074 -8460 0
-2074 -9348 0
-8460 -9348 0
2074 8460 9348 0
-9349 -9350 0
-9349 -9351 0
-9350 -9351 0
9349 9350 9351 0
-2251 -5442 0
-2251 -8197 0
-5442 -8197 0
2251 5442 8197 0
-4208 -9352 0
-4208 -9353 0
-9352 -9353 0
4208 9352 9353 0
-1474 -1954 0
-1474 -3860 0
-1954 -3860 0
1474 1954 3860 0
-930 -9354 0
-930 -9355 0
-9354 -9355 0
930 9354 9355 0
-3964 -9356 0
-3964 -9357 0
-9356 -9357 0
3964 9356 9357 0
-2519 -5404 0
-2519 -9358 0
-5404 -9358 0
2519 5404 9358 0
-3393 -9359 0
-3393 -9360 0
-9359 -9360 0
3393 9359 9360 0
-9147 -9361 0
-9147 -9362 0
-9361 -9362 0
9147 9361 9362 0
-31 -3764 0
-31 -9363 0
-3764 -9363 0
31 3764 9363 0
-9364 -9365 0
-9364 -9366 0
-9365 -9366 0
9364 9365 9366 0
-2137 -9367 0
-2137 -9368 0
-9367 -9368 0
2137 9367 9368 0
-1955 -8041 0
-1955 -9369 0
-8041 -9369 0
1955 8041 9369 0
-1611 -9370 0
-1611 -9371 0
-9370 -9371 0
1611 9370 9371 0
-170 -3546 0
-170 -9372 0
-3546 -9372 0
170 3546 9372 0
-9084 -9373 0
-9084 -9374 0
-9373 -9374 0
9084 9373 9374 0
-9375 -9376 0
-9375 -9377 0
-9376 -9377 0
9375 9376 9377 0
-9378 -9379 0
-9378 -9380 0
-9379 -9380 0
9378 9379 9380 0
-4904 -9381 0
-4904 -9382 0
-9381 -9382 0
4904 9381 9382 0
-9326 -9383 0
-9326 -9384 0
-9383 -9384 0
9326 9383 9384 0
-8253 -9385 0
-8253 -9386 0
-9385 -9386 0
8253 9385 9386 0
-1036 -7800 0
-1036 -9387 0
-7800 -9387 0
1036 7800 9387 0
-4803 -5950 0
-4803 -9388 0
-5950 -9388 0
4803 5950 9388 0
-9389 -9390 0
-9389 -9391 0
-9390 -9391 0
9389 9390 9391 0
-1642 -9392 0
-1642 -9393 0
-9392 -9393 0
1642 9392 9393 0
-9394 -9395 0
-9394 -9396 0
-9395 -9396 0
9394 9395 9396 0
-1414 -9397 0
-1414 -9398 0
-9397 -9398 0
1414 9397 9398 0
-8345 -9330 0
-8345 -9399 0
-9330 -9399 0
8345 9330 9399 0
-5711 -9400 0
-5711 -9401 0
-9400 -9401 0
5711 9400 9401 0
-1447 -9402 0
-1447 -9403 0
-9402 -9403 0
1447 9402 9403 0
-1941 -6346 0
-1941 -9404 0
-6346 -9404 0
1941 6346 9404 0
-4638 -9090 0
-4638 -9405 0
-9090 -9405 0
4638 9090 9405 0
-8359 -9406 0
-8359 -9407 0
-9406 -9407 0
8359 9406 9407 0
-9408 -9409 0
-9408 -9410 0
-9409 -9410 0
9408 9409 9410 0
-1970 -9411 0
-1970 -9412 0
-9411 -9412 0
1970 9411 9412 0
-8547 -9413 0
-8547 -9414 0
-9413 -9414 0
8547 9413 9414 0
-9415 -9416 0
-9415 -9417 0
-9416 -9417 0
9415 9416 9417 0
-1463 -3813 0
-1463 -9418 0
-3813 -9418 0
1463 3813 9418 0
-1312 -7121 0
-1312 -9419 0
-7121 -9419 0
1312 7121 9419 0
-9420 -9421 0
-9420 -9422 0
-9421 -9422 0
9420 9421 9422 0
-957 -7606 0
-957 -8671 0
-7606 -8671 0
957 7606 8671 0
-4977 -9423 0
-4977 -9424 0
-9423 -9424 0
4977 9423 9424 0
-3062 -9425 0
-3062 -9426 0
-9425 -9426 0
3062 9425 9426 0
-1972 -9427 0
-1972 -9428 0
-9427 -9428 0
1972 9427 9428 0
-1710 -9429 0
-1710 -9430 0
-9429 -9430 0
1710 9429 9430 0
-8516 -9431 0
-8516 -9432 0
-9431 -9432 0
8516 9431 9432 0
-4358 -8469 0
-4358 -9433 0
-8469 -9433 0
4358 8469 9433 0
-1700 -3956 0
-1700 -8356 0
-3956 -8356 0
1700 3956 8356 0
-7528 -9434 0
-7528 -9435 0
-9434 -9435 0
7528 9434 9435 0
-9436 -9437 0
-9436 -9438 0
-9437 -9438 0
9436 9437 9438 0
-3014 -3583 0
-3014 -9439 0
-3583 -9439 0
3014 3583 9439 0
-8839 -9440 0
-8839 -9441 0
-9440 -9441 0
8839 9440 9441 0
-1689 -9442 0
-1689 -9443 0
-9442 -9443 0
1689 9442 9443 0
-9444 -9445 0
-9444 -9446 0
-9445 -9446 0
9444 9445 9446 0
-4103 -9447 0
-4103 -9448 0
-9447 -9448 0
4103 9447 9448 0
-1981 -9449 0
-1981 -9450 0
-9449 -9450 0
1981 9449 9450 0
-2813 -3347 0
-2813 -9451 0
-3347 -9451 0
2813 3347 9451 0
-2134 -9452 0
-2134 -9453 0
-9452 -9453 0
2134 9452 9453 0
-373 -9454 0
-373 -9455 0
-9454 -9455 0
373 9454 9455 0
-5895 -8593 0
-5895 -9456 0
-8593 -9456 0
5895 8593 9456 0
-8975 -9457 0
-8975 -9458 0
-9457 -9458 0
8975 9457 9458 0
-5063 -9459 0
-5063 -9460 0
-9459 -9460 0
5063 9459 9460 0
-1632 -9461 0
-1632 -9462 0
-9461 -9462 0
1632 9461 9462 0
-9463 -9464 0
-9463 -9465 0
-9464 -9465 0
9463 9464 9465 0
-9016 -9466 0
-9016 -9467 0
-9466 -9467 0
9016 9466 9467 0
-9468 -9469 0
-9468 -9470 0
-9469 -9470 0
9468 9469 9470 0
-8144 -9471 0
-8144 -9472 0
-9471 -9472 0
8144 9471 9472 0
-1132 -2592 0
-1132 -9473 0
-2592 -9473 0
1132 2592 9473 0
-1254 -2454 0
-1254 -8716 0
-2454 -8716 0
1254 2454 8716 0
-1876 -5790 0
-1876 -9474 0
-5790 -9474 0
1876 5790 9474 0
-1153 -4145 0
-1153 -9475 0
-4145 -9475 0
1153 4145 9475 0
-487 -2172 0
-487 -9476 0
-2172 -9476 0
487 2172 9476 0
-5308 -8159 0
-5308 -9477 0
-8159 -9477 0
5308 8159 9477 0
-9320 -9478 0
-9320 -9479 0
-9478 -9479 0
9320 9478 9479 0
-7352 -9480 0
-7352 -9481 0
-9480 -9481 0
7352 9480 9481 0
-3722 -9482 0
-3722 -9483 0
-9482 -9483 0
3722 9482 9483 0
-4787 -8647 0
-4787 -9484 0
-8647 -9484 0
4787 8647 9484 0
-9485 -9486 0
-9485 -9487 0
-9486 -9487 0
9485 9486 9487 0
-7483 -8692 0
-7483 -9488 0
-8692 -9488 0
7483 8692 9488 0
-9489 -9490 0
-9489 -9491 0
-9490 -9491 0
9489 9490 9491 0
-9492 -9493 0
-9492 -9494 0
-9493 -9494 0
9492 9493 9494 0
-944 -5355 0
-944 -9495 0
-5355 -9495 0
944 5355 9495 0
-2246 -9496 0
-2246 -9497 0
-9496 -9497 0
2246 9496 9497 0
-4665 -9498 0
-4665 -9499 0
-9498 -9499 0
4665 9498 9499 0
-6045 -9500 0
-6045 -9501 0
-9500 -9501 0
6045 9500 9501 0
-9349 -9502 0
-9349 -9503 0
-9502 -9503 0
9349 9502 9503 0
-2493 -9504 0
-2493 -9505 0
-9504 -9505 0
2493 9504 9505 0
-540 -6599 0
-540 -9506 0
-6599 -9506 0
540 6599 9506 0
-1023 -3973 0
-1023 -9507 0
-3973 -9507 0
1023 3973 9507 0
-7958 -7968 0
-7958 -9508 0
-7968 -9508 0
7958 7968 9508 0
-4305 -9509 0
-4305 -9510 0
-9509 -9510 0
4305 9509 9510 0
-5546 -7126 0
-5546 -9511 0
-7126 -9511 0
5546 7126 9511 0
-9512 -9513 0
-9512 -9514 0
-9513 -9514 0
9512 9513 9514 0
-5320 -9197 0
-5320 -9515 0
-9197 -9515 0
5320 9197 9515 0
-9516 -9517 0
-9516 -9518 0
-9517 -9518 0
9516 9517 9518 0
-1759 -9519 0
-1759 -9520 0
-9519 -9520 0
1759 9519 9520 0
-108 -3903 0
-108 -9521 0
-3903 -9521 0
108 3903 9521 0
-4260 -4960 0
-4260 -5052 0
-4960 -5052 0
4260 4960 5052 0
-6696 -9522 0
-6696 -9523 0
-9522 -9523 0
6696 9522 9523 0
-1994 -4754 0
-1994 -9524 0
-4754 -9524 0
1994 4754 9524 0
-1961 -9525 0
-1961 -9526 0
-9525 -9526 0
1961 9525 9526 0
-9527 -9528 0
-9527 -9529 0
-9528 -9529 0
9527 9528 9529 0
-7095 -9530 0
-7095 -9531 0
-9530 -9531 0
7095 9530 9531 0
-2016 -3048 0
-2016 -9532 0
-3048 -9532 0
2016 3048 9532 0
-9264 -9533 0
-9264 -9534 0
-9533 -9534 0
9264 9533 9534 0
-6552 -8965 0
-6552 -9535 0
-8965 -9535 0
6552 8965 9535 0
-9536 -9537 0
-9536 -9538 0
-9537 -9538 0
9536 9537 9538 0
-2083 -9539 0
-2083 -9540 0
-9539 -9540 0
2083 9539 9540 0
-3794 -6417 0
-3794 -9541 0
-6417 -9541 0
3794 6417 9541 0
-5509 -9542 0
-5509 -9543 0
-9542 -9543 0
5509 9542 9543 0
-8809 -9544 0
-8809 -9545 0
-9544 -9545 0
8809 9544 9545 0
-631 -9546 0
-631 -9547 0
-9546 -9547 0
631 9546 9547 0
-2302 -3993 0
-2302 -9548 0
-3993 -9548 0
2302 3993 9548 0
-5557 -7965 0
-5557 -9549 0
-7965 -9549 0
5557 7965 9549 0
-462 -9550 0
-462 -9551 0
-9550 -9551 0
462 9550 9551 0
-1588 -9552 0
-1588 -9553 0
-9552 -9553 0
1588 9552 9553 0
-4711 -6546 0
-4711 -9554 0
-6546 -9554 0
4711 6546 9554 0
-8537 -9555 0
-8537 -9556 0
-9555 -9556 0
8537 9555 9556 0
-2823 -3635 0
-2823 -9557 0
-3635 -9557 0
2823 3635 9557 0
-5180 -7880 0
-5180 -9558 0
-7880 -9558 0
5180 7880 9558 0
-4155 -9559 0
-4155 -9560 0
-9559 -9560 0
4155 9559 9560 0
-7358 -9561 0
-7358 -9562 0
-9561 -9562 0
7358 9561 9562 0
-6439 -7893 0
-6439 -9563 0
-7893 -9563 0
6439 7893 9563 0
-1577 -5865 0
-1577 -9564 0
-5865 -9564 0
1577 5865 9564 0
-4748 -9565 0
-4748 -9566 0
-9565 -9566 0
4748 9565 9566 0
-9567 -9568 0
-9567 -9569 0
-9568 -9569 0
9567 9568 9569 0
-357 -6647 0
-357 -9570 0
-6647 -9570 0
357 6647 9570 0
-6860 -8251 0
-6860 -9571 0
-8251 -9571 0
6860 8251 9571 0
-5160 -5866 0
-5160 -8930 0
-5866 -8930 0
5160 5866 8930 0
-9572 -9573 0
-9572 -9574 0
-9573 -9574 0
9572 9573 9574 0
-1397 -9575 0
-1397 -9576 0
-9575 -9576 0
1397 9575 9576 0
-265 -714 0
-265 -9577 0
-714 -9577 0
265 714 9577 0
-2418 -9578 0
-2418 -9579 0
-9578 -9579 0
2418 9578 9579 0
-3950 -8475 0
-3950 -9580 0
-8475 -9580 0
3950 8475 9580 0
-4693 -9581 0
-4693 -9582 0
-9581 -9582 0
4693 9581 9582 0
-1878 -6878 0
-1878 -9583 0
-6878 -9583 0
1878 6878 9583 0
-3417 -8495 0
-3417 -9584 0
-8495 -9584 0
3417 8495 9584 0
-2665 -9585 0
-2665 -9586 0
-9585 -9586 0
2665 9585 9586 0
-7778 -9587 0
-7778 -9588 0
-9587 -9588 0
7778 9587 9588 0
-3750 -6279 0
-3750 -9589 0
-6279 -9589 0
3750 6279 9589 0
-5636 -9202 0
-5636 -9590 0
-9202 -9590 0
5636 9202 9590 0
-8922 -9591 0
-8922 -9592 0
-9591 -9592 0
8922 9591 9592 0
-8069 -9593 0
-8069 -9594 0
-9593 -9594 0
8069 9593 9594 0
-1882 -2672 0
-1882 -7240 0
-2672 -7240 0
1882 2672 7240 0
-9595 -9596 0
-9595 -9597 0
-9596 -9597 0
9595 9596 9597 0
-2337 -9244 0
-2337 -9598 0
-9244 -9598 0
2337 9244 9598 0
-6063 -8551 0
-6063 -9023 0
-8551 -9023 0
6063 8551 9023 0
-3523 -9599 0
-3523 -9600 0
-9599 -9600 0
3523 9599 9600 0
-6899 -9601 0
-6899 -9602 0
-9601 -9602 0
6899 9601 9602 0
-5649 -5995 0
-5649 -9603 0
-5995 -9603 0
5649 5995 9603 0
-3872 -9604 0
-3872 -9605 0
-9604 -9605 0
3872 9604 9605 0
-4552 -9606 0
-4552 -9607 0
-9606 -9607 0
4552 9606 9607 0
-2603 -9057 0
-2603 -9608 0
-9057 -9608 0
2603 9057 9608 0
-7371 -9609 0
-7371 -9610 0
-9609 -9610 0
7371 9609 9610 0
-9611 -9612 0
-9611 -9613 0
-9612 -9613 0
9611 9612 9613 0
-9614 -9615 0
-9614 -9616 0
-9615 -9616 0
9614 9615 9616 0
-6414 -9617 0
-6414 -9618 0
-9617 -9618 0
6414 9617 9618 0
-6775 -9619 0
-6775 -9620 0
-9619 -9620 0
6775 9619 9620 0
-9306 -9621 0
-9306 -9622 0
-9621 -9622 0
9306 9621 9622 0
-9623 -9624 0
-9623 -9625 0
-9624 -9625 0
9623 9624 9625 0
-624 -9626 0
-624 -9627 0
-9626 -9627 0
624 9626 9627 0
-7142 -7252 0
-7142 -9628 0
-7252 -9628 0
7142 7252 9628 0
-7009 -9629 0
-7009 -9630 0
-9629 -9630 0
7009 9629 9630 0
-208 -9515 0
-208 -9631 0
-9515 -9631 0
208 9515 9631 0
-456 -7915 0
-456 -9632 0
-7915 -9632 0
456 7915 9632 0
-1997 -9633 0
-1997 -9634 0
-9633 -9634 0
1997 9633 9634 0
-2539 -9635 0
-2539 -9636 0
-9635 -9636 0
2539 9635 9636 0
-9005 -9637 0
-9005 -9638 0
-9637 -9638 0
9005 9637 9638 0
-3180 -9639 0
-3180 -9640 0
-9639 -9640 0
3180 9639 9640 0
-2817 -9641 0
-2817 -9642 0
-9641 -9642 0
2817 9641 9642 0
-3896 -7149 0
-3896 -7586 0
-7149 -7586 0
3896 7149 7586 0
-9643 -9644 0
-9643 -9645 0
-9644 -9645 0
9643 9644 9645 0
-2647 -9646 0
-2647 -9647 0
-9646 -9647 0
2647 9646 9647 0
-662 -9648 0
-662 -9649 0
-9648 -9649 0
662 9648 9649 0
-9650 -9651 0
-9650 -9652 0
-9651 -9652 0
9650 9651 9652 0
-7838 -9653 0
-7838 -9654 0
-9653 -9654 0
7838 9653 9654 0
-2438 -4459 0
-2438 -9655 0
-4459 -9655 0
2438 4459 9655 0
-1623 -4831 0
-1623 -9656 0
-4831 -9656 0
1623 4831 9656 0
-4388 -9657 0
-4388 -9658 0
-9657 -9658 0
4388 9657 9658 0
-9659 -9660 0
-9659 -9661 0
-9660 -9661 0
9659 9660 9661 0
-9662 -9663 0
-9662 -9664 0
-9663 -9664 0
9662 9663 9664 0
-977 -4431 0
-977 -9665 0
-4431 -9665 0
977 4431 9665 0
-3126 -9666 0
-3126 -9667 0
-9666 -9667 0
3126 9666 9667 0
-7460 -7639 0
-7460 -9668 0
-7639 -9668 0
7460 7639 9668 0
-9669 -9670 0
-9669 -9671 0
-9670 -9671 0
9669 9670 9671 0
-1942 -9672 0
-1942 -9673 0
-9672 -9673 0
1942 9672 9673 0
-6189 -6748 0
-6189 -9674 0
-6748 -9674 0
6189 6748 9674 0
-3732 -9675 0
-3732 -9676 0
-9675 -9676 0
3732 9675 9676 0
-7036 -9677 0
-7036 -9678 0
-9677 -9678 0
7036 9677 9678 0
-8437 -8700 0
-8437 -9679 0
-8700 -9679 0
8437 8700 9679 0
-2155 -5544 0
-2155 -9680 0
-5544 -9680 0
2155 5544 9680 0
-5927 -9681 0
-5927 -9682 0
-9681 -9682 0
5927 9681 9682 0
-1533 -8273 0
-1533 -9683 0
-8273 -9683 0
1533 8273 9683 0
-8116 -9684 0
-8116 -9685 0
-9684 -9685 0
8116 9684 9685 0
-9686 -9687 0
-9686 -9688 0
-9687 -9688 0
9686 9687 9688 0
-6917 -9689 0
-6917 -9690 0
-9689 -9690 0
6917 9689 9690 0
-4517 -9691 0
-4517 -9692 0
-9691 -9692 0
4517 9691 9692 0
-4410 -9406 0
-4410 -9461 0
-9406 -9461 0
4410 9406 9461 0
-4289 -9693 0
-4289 -9694 0
-9693 -9694 0
4289 9693 9694 0
-5294 -9695 0
-5294 -9696 0
-9695 -9696 0
5294 9695 9696 0
-9697 -9698 0
-9697 -9699 0
-9698 -9699 0
9697 9698 9699 0
-7443 -9700 0
-7443 -9701 0
-9700 -9701 0
7443 9700 9701 0
-8418 -9062 0
-8418 -9702 0
-9062 -9702 0
8418 9062 9702 0
-9480 -9703 0
-9480 -9704 0
-9703 -9704 0
9480 9703 9704 0
-1051 -9705 0
-1051 -9706 0
-9705 -9706 0
1051 9705 9706 0
-8947 -9707 0
-8947 -9708 0
-9707 -9708 0
8947 9707 9708 0
-4950 -7417 0
-4950 -9709 0
-7417 -9709 0
4950 7417 9709 0
-5206 -9710 0
-5206 -9711 0
-9710 -9711 0
5206 9710 9711 0
-3581 -9712 0
-3581 -9713 0
-9712 -9713 0
3581 9712 9713 0
-2173 -6924 0
-2173 -7492 0
-6924 -7492 0
2173 6924 7492 0
-1883 -9714 0
-1883 -9715 0
-9714 -9715 0
1883 9714 9715 0
-671 -1265 0
-671 -9716 0
-1265 -9716 0
671 1265 9716 0
-1666 -6706 0
-1666 -9717 0
-6706 -9717 0
1666 6706 9717 0
-9718 -9719 0
-9718 -9720 0
-9719 -9720 0
9718 9719 9720 0
-239 -2715 0
-239 -9721 0
-2715 -9721 0
239 2715 9721 0
-6642 -9722 0
-6642 -9723 0
-9722 -9723 0
6642 9722 9723 0
-5725 -9724 0
-5725 -9725 0
-9724 -9725 0
5725 9724 9725 0
-6358 -9726 0
-6358 -9727 0
-9726 -9727 0
6358 9726 9727 0
-3350 -6772 0
-3350 -9728 0
-6772 -9728 0
3350 6772 9728 0
-6530 -9729 0
-6530 -9730 0
-9729 -9730 0
6530 9729 9730 0
-4590 -6912 0
-4590 -9731 0
-6912 -9731 0
4590 6912 9731 0
-4136 -9732 0
-4136 -9733 0
-9732 -9733 0
4136 9732 9733 0
-4272 -9734 0
-4272 -9735 0
-9734 -9735 0
4272 9734 9735 0
-1133 -9736 0
-1133 -9737 0
-9736 -9737 0
1133 9736 9737 0
-5904 -9738 0
-5904 -9739 0
-9738 -9739 0
5904 9738 9739 0
-5054 -5637 0
-5054 -9740 0
-5637 -9740 0
5054 5637 9740 0
-8977 -9741 0
-8977 -9742 0
-9741 -9742 0
8977 9741 9742 0
-7974 -9743 0
-7974 -9744 0
-9743 -9744 0
7974 9743 9744 0
-7349 -9745 0
-7349 -9746 0
-9745 -9746 0
7349 9745 9746 0
-191 -8136 0
-191 -9013 0
-8136 -9013 0
191 8136 9013 0
-9747 -9748 0
-9747 -9749 0
-9748 -9749 0
9747 9748 9749 0
-9750 -9751 0
-9750 -9752 0
-9751 -9752 0
9750 9751 9752 0
-7448 -9753 0
-7448 -9754 0
-9753 -9754 0
7448 9753 9754 0
-4845 -6235 0
-4845 -8070 0
-6235 -8070 0
4845 6235 8070 0
-5846 -9755 0
-5846 -9756 0
-9755 -9756 0
5846 9755 9756 0
-6975 -9757 0
-6975 -9758 0
-9757 -9758 0
6975 9757 9758 0
-5062 -9759 0
-5062 -9760 0
-9759 -9760 0
5062 9759 9760 0
-7069 -9761 0
-7069 -9762 0
-9761 -9762 0
7069 9761 9762 0
-923 -6470 0
-923 -6580 0
-6470 -6580 0
923 6470 6580 0
-931 -9763 0
-931 -9764 0
-9763 -9764 0
931 9763 9764 0
-940 -2358 0
-940 -5106 0
-2358 -5106 0
940 2358 5106 0
-414 -6274 0
-414 -9765 0
-6274 -9765 0
414 6274 9765 0
-5226 -9766 0
-5226 -9767 0
-9766 -9767 0
5226 9766 9767 0
-3437 -9768 0
-3437 -9769 0
-9768 -9769 0
3437 9768 9769 0
-1286 -2667 0
-1286 -9770 0
-2667 -9770 0
1286 2667 9770 0
-9385 -9771 0
-9385 -9772 0
-9771 -9772 0
9385 9771 9772 0
-7938 -8397 0
-7938 -9773 0
-8397 -9773 0
7938 8397 9773 0
-9774 -9775 0
-9774 -9776 0
-9775 -9776 0
9774 9775 9776 0
-32 -1998 0
-32 -8833 0
-1998 -8833 0
32 1998 8833 0
-1170 -9777 0
-1170 -9778 0
-9777 -9778 0
1170 9777 9778 0
-5251 -9779 0
-5251 -9780 0
-9779 -9780 0
5251 9779 9780 0
-4022 -7346 0
-4022 -9781 0
-7346 -9781 0
4022 7346 9781 0
-9782 -9783 0
-9782 -9784 0
-9783 -9784 0
9782 9783 9784 0
-2640 -9700 0
-2640 -9785 0
-9700 -9785 0
2640 9700 9785 0
-9786 -9787 0
-9786 -9788 0
-9787 -9788 0
9786 9787 9788 0
-5896 -7221 0
-5896 -9789 0
-7221 -9789 0
5896 7221 9789 0
-76 -9790 0
-76 -9791 0
-9790 -9791 0
76 9790 9791 0
-6386 -9792 0
-6386 -9793 0
-9792 -9793 0
6386 9792 9793 0
-9794 -9795 0
-9794 -9796 0
-9795 -9796 0
9794 9795 9796 0
-8709 -9115 0
-8709 -9797 0
-9115 -9797 0
8709 9115 9797 0
-9747 -9798 0
-9747 -9799 0
-9798 -9799 0
9747 9798 9799 0
-3094 -9800 0
-3094 -9801 0
-9800 -9801 0
3094 9800 9801 0
-7125 -9077 0
-7125 -9802 0
-9077 -9802 0
7125 9077 9802 0
-1651 -9803 0
-1651 -9804 0
-9803 -9804 0
1651 9803 9804 0
-3679 -5894 0
-3679 -9805 0
-5894 -9805 0
3679 5894 9805 0
-5951 -7688 0
-5951 -9806 0
-7688 -9806 0
5951 7688 9806 0
-9807 -9808 0
-9807 -9809 0
-9808 -9809 0
9807 9808 9809 0
-3164 -9810 0
-3164 -9811 0
-9810 -9811 0
3164 9810 9811 0
-7327 -9209 0
-7327 -9812 0
-9209 -9812 0
7327 9209 9812 0
-6969 -7014 0
-6969 -9813 0
-7014 -9813 0
6969 7014 9813 0
-9814 -9815 0
-9814 -9816 0
-9815 -9816 0
9814 9815 9816 0
-8972 -9817 0
-8972 -9818 0
-9817 -9818 0
8972 9817 9818 0
-5377 -9819 0
-5377 -9820 0
-9819 -9820 0
5377 9819 9820 0
-9821 -9822 0
-9821 -9823 0
-9822 -9823 0
9821 9822 9823 0
-861 -5020 0
-861 -9824 0
-5020 -9824 0
861 5020 9824 0
-847 -9825 0
-847 -9826 0
-9825 -9826 0
847 9825 9826 0
-9827 -9828 0
-9827 -9829 0
-9828 -9829 0
9827 9828 9829 0
-2369 -8612 0
-2369 -9830 0
-8612 -9830 0
2369 8612 9830 0
-3684 -6568 0
-3684 -9831 0
-6568 -9831 0
3684 6568 9831 0
-6222 -9495 0
-6222 -9832 0
-9495 -9832 0
6222 9495 9832 0
-9583 -9833 0
-9583 -9834 0
-9833 -9834 0
9583 9833 9834 0
-3582 -5987 0
-3582 -9835 0
-5987 -9835 0
3582 5987 9835 0
-6420 -9836 0
-6420 -9837 0
-9836 -9837 0
6420 9836 9837 0
-6173 -6534 0
-6173 -9838 0
-6534 -9838 0
6173 6534 9838 0
-9839 -9840 0
-9839 -9841 0
-9840 -9841 0
9839 9840 9841 0
-7386 -9842 0
-7386 -9843 0
-9842 -9843 0
7386 9842 9843 0
-3989 -9844 0
-3989 -9845 0
-9844 -9845 0
3989 9844 9845 0
-9565 -9846 0
-9565 -9847 0
-9846 -9847 0
9565 9846 9847 0
-9848 -9849 0
-9848 -9850 0
-9849 -9850 0
9848 9849 9850 0
-7652 -9234 0
-7652 -9851 0
-9234 -9851 0
7652 9234 9851 0
-9852 -9853 0
-9852 -9854 0
-9853 -9854 0
9852 9853 9854 0
-4911 -9855 0
-4911 -9856 0
-9855 -9856 0
4911 9855 9856 0
-8563 -9857 0
-8563 -9858 0
-9857 -9858 0
8563 9857 9858 0
-3618 -9859 0
-3618 -9860 0
-9859 -9860 0
3618 9859 9860 0
-5662 -9861 0
-5662 -9862 0
-9861 -9862 0
5662 9861 9862 0
-9863 -9864 0
-9863 -9865 0
-9864 -9865 0
9863 9864 9865 0
-2740 -4724 0
-2740 -9866 0
-4724 -9866 0
2740 4724 9866 0
-3280 -8109 0
-3280 -9867 0
-8109 -9867 0
3280 8109 9867 0
-186 -710 0
-186 -9868 0
-710 -9868 0
186 710 9868 0
-8860 -9245 0
-8860 -9869 0
-9245 -9869 0
8860 9245 9869 0
-9870 -9871 0
-9870 -9872 0
-9871 -9872 0
9870 9871 9872 0
-5957 -9873 0
-5957 -9874 0
-9873 -9874 0
5957 9873 9874 0
-3977 -9875 0
-3977 -9876 0
-9875 -9876 0
3977 9875 9876 0
-2754 -3386 0
-2754 -9877 0
-3386 -9877 0
2754 3386 9877 0
-9107 -9878 0
-9107 -9879 0
-9878 -9879 0
9107 9878 9879 0
-9880 -9881 0
-9880 -9882 0
-9881 -9882 0
9880 9881 9882 0
-2214 -9883 0
-2214 -9884 0
-9883 -9884 0
2214 9883 9884 0
-1039 -4221 0
-1039 -7015 0
-4221 -7015 0
1039 4221 7015 0
-5139 -9885 0
-5139 -9886 0
-9885 -9886 0
5139 9885 9886 0
-9887 -9888 0
-9887 -9889 0
-9888 -9889 0
9887 9888 9889 0
-7947 -8752 0
-7947 -9890 0
-8752 -9890 0
7947 8752 9890 0
-9891 -9892 0
-9891 -9893 0
-9892 -9893 0
9891 9892 9893 0
-1194 -1425 0
-1194 -9894 0
-1425 -9894 0
1194 1425 9894 0
-9895 -9896 0
-9895 -9897 0
-9896 -9897 0
9895 9896 9897 0
-4014 -9898 0
-4014 -9899 0
-9898 -9899 0
4014 9898 9899 0
-9900 -9901 0
-9900 -9902 0
-9901 -9902 0
9900 9901 9902 0
-1037 -6248 0
-1037 -9903 0
-6248 -9903 0
1037 6248 9903 0
-9904 -9905 0
-9904 -9906 0
-9905 -9906 0
9904 9905 9906 0
-5499 -9907 0
-5499 -9908 0
-9907 -9908 0
5499 9907 9908 0
-4929 -5576 0
-4929 -9909 0
-5576 -9909 0
4929 5576 9909 0
-6537 -9002 0
-6537 -9910 0
-9002 -9910 0
6537 9002 9910 0
-4164 -9911 0
-4164 -9912 0
-9911 -9912 0
4164 9911 9912 0
-9913 -9914 0
-9913 -9915 0
-9914 -9915 0
9913 9914 9915 0
-251 -8066 0
-251 -9916 0
-8066 -9916 0
251 8066 9916 0
-651 -9917 0
-651 -9918 0
-9917 -9918 0
651 9917 9918 0
-9919 -9920 0
-9919 -9921 0
-9920 -9921 0
9919 9920 9921 0
-9922 -9923 0
-9922 -9924 0
-9923 -9924 0
9922 9923 9924 0
-8590 -9814 0
-8590 -9925 0
-9814 -9925 0
8590 9814 9925 0
-1368 -6910 0
-1368 -7920 0
-6910 -7920 0
1368 6910 7920 0
-5536 -5905 0
-5536 -9926 0
-5905 -9926 0
5536 5905 9926 0
-1929 -4606 0
-1929 -9927 0
-4606 -9927 0
1929 4606 9927 0
-9928 -9929 0
-9928 -9930 0
-9929 -9930 0
9928 9929 9930 0
-3260 -9931 0
-3260 -9932 0
-9931 -9932 0
3260 9931 9932 0
-5406 -9933 0
-5406 -9934 0
-9933 -9934 0
5406 9933 9934 0
-7836 -9935 0
-7836 -9936 0
-9935 -9936 0
7836 9935 9936 0
-4541 -8885 0
-4541 -9937 0
-8885 -9937 0
4541 8885 9937 0
-6471 -9938 0
-6471 -9939 0
-9938 -9939 0
6471 9938 9939 0
-9940 -9941 0
-9940 -9942 0
-9941 -9942 0
9940 9941 9942 0
-1756 -9164 0
-1756 -9943 0
-9164 -9943 0
1756 9164 9943 0
-1417 -4583 0
-1417 -9944 0
-4583 -9944 0
1417 4583 9944 0
-9945 -9946 0
-9945 -9947 0
-9946 -9947 0
9945 9946 9947 0
-2059 -9948 0
-2059 -9949 0
-9948 -9949 0
2059 9948 9949 0
-3319 -5418 0
-3319 -7278 0
-5418 -7278 0
3319 5418 7278 0
-6524 -8071 0
-6524 -9950 0
-8071 -9950 0
6524 8071 9950 0
-6474 -8212 0
-6474 -9951 0
-8212 -9951 0
6474 8212 9951 0
-9952 -9953 0
-9952 -9954 0
-9953 -9954 0
9952 9953 9954 0
-7122 -9955 0
-7122 -9956 0
-9955 -9956 0
7122 9955 9956 0
-4750 -5276 0
-4750 -9957 0
-5276 -9957 0
4750 5276 9957 0
-7782 -9958 0
-7782 -9959 0
-9958 -9959 0
7782 9958 9959 0
-3060 -4309 0
-3060 -9960 0
-4309 -9960 0
3060 4309 9960 0
-1873 -6229 0
-1873 -9961 0
-6229 -9961 0
1873 6229 9961 0
-2597 -7892 0
-2597 -9269 0
-7892 -9269 0
2597 7892 9269 0
-3031 -9962 0
-3031 -9963 0
-9962 -9963 0
3031 9962 9963 0
-9686 -9964 0
-9686 -9965 0
-9964 -9965 0
9686 9964 9965 0
-4330 -4751 0
-4330 -9966 0
-4751 -9966 0
4330 4751 9966 0
-2950 -9967 0
-2950 -9968 0
-9967 -9968 0
2950 9967 9968 0
-3740 -8223 0
-3740 -9969 0
-8223 -9969 0
3740 8223 9969 0
-122 -7155 0
-122 -9970 0
-7155 -9970 0
122 7155 9970 0
-307 -6362 0
-307 -9971 0
-6362 -9971 0
307 6362 9971 0
-4507 -9972 0
-4507 -9973 0
-9972 -9973 0
4507 9972 9973 0
-9466 -9974 0
-9466 -9975 0
-9974 -9975 0
9466 9974 9975 0
-1638 -9186 0
-1638 -9976 0
-9186 -9976 0
1638 9186 9976 0
-8131 -9977 0
-8131 -9978 0
-9977 -9978 0
8131 9977 9978 0
-6765 -9979 0
-6765 -9980 0
-9979 -9980 0
6765 9979 9980 0
-8325 -9981 0
-8325 -9982 0
-9981 -9982 0
8325 9981 9982 0
-9983 -9984 0
-9983 -9985 0
-9984 -9985 0
9983 9984 9985 0
-3982 -9131 0
-3982 -9986 0
-9131 -9986 0
3982 9131 9986 0
-9987 -9988 0
-9987 -9989 0
-9988 -9989 0
9987 9988 9989 0
-9990 -9991 0
-9990 -9992 0
-9991 -9992 0
9990 9991 9992 0
-3449 -9993 0
-3449 -9994 0
-9993 -9994 0
3449 9993 9994 0
-5726 -7359 0
-5726 -9995 0
-7359 -9995 0
5726 7359 9995 0
-4935 -8248 0
-4935 -9996 0
-8248 -9996 0
4935 8248 9996 0
-2324 -9997 0
-2324 -9998 0
-9997 -9998 0
2324 9997 9998 0
-5412 -9999 0
-5412 -10000 0
-9999 -10000 0
5412 9999 10000 0
-3759 -8341 0
-3759 -10001 0
-8341 -10001 0
3759 8341 10001 0
-10002 -10003 0
-10002 -10004 0
-10003 -10004 0
10002 10003 10004 0
-2729 -10005 0
-2729 -10006 0
-10005 -10006 0
2729 10005 10006 0
-2910 -6478 0
-2910 -8893 0
-6478 -8893 0
2910 6478 8893 0
-8816 -9442 0
-8816 -10007 0
-9442 -10007 0
8816 9442 10007 0
-8231 -9092 0
-8231 -10008 0
-9092 -10008 0
8231 9092 10008 0
-1126 -10009 0
-1126 -10010 0
-10009 -10010 0
1126 10009 10010 0
-2959 -10011 0
-2959 -10012 0
-10011 -10012 0
2959 10011 10012 0
-10013 -10014 0
-10013 -10015 0
-10014 -10015 0
10013 10014 10015 0
-3855 -9293 0
-3855 -10016 0
-9293 -10016 0
3855 9293 10016 0
-10017 -10018 0
-10017 -10019 0
-10018 -10019 0
10017 10018 10019 0
-310 -10020 0
-310 -10021 0
-10020 -10021 0
310 10020 10021 0
-2548 -10022 0
-2548 -10023 0
-10022 -10023 0
2548 10022 10023 0
-9389 -10024 0
-9389 -10025 0
-10024 -10025 0
9389 10024 10025 0
-3378 -6959 0
-3378 -10026 0
-6959 -10026 0
3378 6959 10026 0
-10027 -10028 0
-10027 -10029 0
-10028 -10029 0
10027 10028 10029 0
-4641 -10030 0
-4641 -10031 0
-10030 -10031 0
4641 10030 10031 0
-1862 -10032 0
-1862 -10033 0
-10032 -10033 0
1862 10032 10033 0
-4056 -7672 0
-4056 -10034 0
-7672 -10034 0
4056 7672 10034 0
-10035 -10036 0
-10035 -10037 0
-10036 -10037 0
10035 10036 10037 0
-6532 -10038 0
-6532 -10039 0
-10038 -10039 0
6532 10038 10039 0
-6788 -7504 0
-6788 -10040 0
-7504 -10040 0
6788 7504 10040 0
-4887 -8952 0
-4887 -9468 0
-8952 -9468 0
4887 8952 9468 0
-8083 -8388 0
-8083 -10041 0
-8388 -10041 0
8083 8388 10041 0
-7131 -10042 0
-7131 -10043 0
-10042 -10043 0
7131 10042 10043 0
-1670 -6661 0
-1670 -10044 0
-6661 -10044 0
1670 6661 10044 0
-10045 -10046 0
-10045 -10047 0
-10046 -10047 0
10045 10046 10047 0
-10048 -10049 0
-10048 -10050 0
-10049 -10050 0
10048 10049 10050 0
-10051 -10052 0
-10051 -10053 0
-10052 -10053 0
10051 10052 10053 0
-3390 -10054 0
-3390 -10055 0
-10054 -10055 0
3390 10054 10055 0
-10056 -10057 0
-10056 -10058 0
-10057 -10058 0
10056 10057 10058 0
-10059 -10060 0
-10059 -10061 0
-10060 -10061 0
10059 10060 10061 0
-10062 -10063 0
-10062 -10064 0
-10063 -10064 0
10062 10063 10064 0
-3146 -5729 0
-3146 -10065 0
-5729 -10065 0
3146 5729 10065 0
-5602 -9045 0
-5602 -10066 0
-9045 -10066 0
5602 9045 10066 0
-171 -10067 0
-171 -10068 0
-10067 -10068 0
171 10067 10068 0
-10069 -10070 0
-10069 -10071 0
-10070 -10071 0
10069 10070 10071 0
-10072 -10073 0
-10072 -10074 0
-10073 -10074 0
10072 10073 10074 0
-8225 -10075 0
-8225 -10076 0
-10075 -10076 0
8225 10075 10076 0
-1545 -2791 0
-1545 -10077 0
-2791 -10077 0
1545 2791 10077 0
-4192 -5366 0
-4192 -10078 0
-5366 -10078 0
4192 5366 10078 0
-611 -5844 0
-611 -10079 0
-5844 -10079 0
611 5844 10079 0
-2338 -10080 0
-2338 -10081 0
-10080 -10081 0
2338 10080 10081 0
-719 -10082 0
-719 -10083 0
-10082 -10083 0
719 10082 10083 0
-10084 -10085 0
-10084 -10086 0
-10085 -10086 0
10084 10085 10086 0
-4613 -7876 0
-4613 -10087 0
-7876 -10087 0
4613 7876 10087 0
-10088 -10089 0
-10088 -10090 0
-10089 -10090 0
10088 10089 10090 0
-6199 -6215 0
-6199 -10091 0
-6215 -10091 0
6199 6215 10091 0
-10092 -10093 0
-10092 -10094 0
-10093 -10094 0
10092 10093 10094 0
-1859 -10095 0
-1859 -10096 0
-10095 -10096 0
1859 10095 10096 0
-6703 -10097 0
-6703 -10098 0
-10097 -10098 0
6703 10097 10098 0
-4269 -10099 0
-4269 -10100 0
-10099 -10100 0
4269 10099 10100 0
-1867 -3636 0
-1867 -10101 0
-3636 -10101 0
1867 3636 10101 0
-7381 -10102 0
-7381 -10103 0
-10102 -10103 0
7381 10102 10103 0
-1073 -8165 0
-1073 -10104 0
-8165 -10104 0
1073 8165 10104 0
-3862 -7792 0
-3862 -10105 0
-7792 -10105 0
3862 7792 10105 0
-6734 -9559 0
-6734 -10106 0
-9559 -10106 0
6734 9559 10106 0
-10107 -10108 0
-10107 -10109 0
-10108 -10109 0
10107 10108 10109 0
-10110 -10111 0
-10110 -10112 0
-10111 -10112 0
10110 10111 10112 0
-1124 -9821 0
-1124 -10113 0
-9821 -10113 0
1124 9821 10113 0
-9064 -10114 0
-9064 -10115 0
-10114 -10115 0
9064 10114 10115 0
-10116 -10117 0
-10116 -10118 0
-10117 -10118 0
10116 10117 10118 0
-10119 -10120 0
-10119 -10121 0
-10120 -10121 0
10119 10120 10121 0
-9485 -10122 0
-9485 -10123 0
-10122 -10123 0
9485 10122 10123 0
-4614 -8247 0
-4614 -10124 0
-8247 -10124 0
4614 8247 10124 0
-6359 -10125 0
-6359 -10126 0
-10125 -10126 0
6359 10125 10126 0
-3953 -7824 0
-3953 -10127 0
-7824 -10127 0
3953 7824 10127 0
-10128 -10129 0
-10128 -10130 0
-10129 -10130 0
10128 10129 10130 0
-2524 -10131 0
-2524 -10132 0
-10131 -10132 0
2524 10131 10132 0
-10133 -10134 0
-10133 -10135 0
-10134 -10135 0
10133 10134 10135 0
-6652 -9833 0
-6652 -10136 0
-9833 -10136 0
6652 9833 10136 0
-10137 -10138 0
-10137 -10139 0
-10138 -10139 0
10137 10138 10139 0
-6717 -7625 0
-6717 -10140 0
-7625 -10140 0
6717 7625 10140 0
-10141 -10142 0
-10141 -10143 0
-10142 -10143 0
10141 10142 10143 0
-856 -5485 0
-856 -7870 0
-5485 -7870 0
856 5485 7870 0
-137 -6719 0
-137 -10144 0
-6719 -10144 0
137 6719 10144 0
-1246 -9549 0
-1246 -10145 0
-9549 -10145 0
1246 9549 10145 0
-7484 -8336 0
-7484 -10146 0
-8336 -10146 0
7484 8336 10146 0
-4524 -7433 0
-4524 -10147 0
-7433 -10147 0
4524 7433 10147 0
-7969 -10148 0
-7969 -10149 0
-10148 -10149 0
7969 10148 10149 0
-9286 -10150 0
-9286 -10151 0
-10150 -10151 0
9286 10150 10151 0
-5622 -10152 0
-5622 -10153 0
-10152 -10153 0
5622 10152 10153 0
-4983 -10154 0
-4983 -10155 0
-10154 -10155 0
4983 10154 10155 0
-6574 -10156 0
-6574 -10157 0
-10156 -10157 0
6574 10156 10157 0
-10158 -10159 0
-10158 -10160 0
-10159 -10160 0
10158 10159 10160 0
-10161 -10162 0
-10161 -10163 0
-10162 -10163 0
10161 10162 10163 0
-4204 -10164 0
-4204 -10165 0
-10164 -10165 0
4204 10164 10165 0
-6802 -10166 0
-6802 -10167 0
-10166 -10167 0
6802 10166 10167 0
-9716 -10168 0
-9716 -10169 0
-10168 -10169 0
9716 10168 10169 0
-6623 -10170 0
-6623 -10171 0
-10170 -10171 0
6623 10170 10171 0
-6965 -10172 0
-6965 -10173 0
-10172 -10173 0
6965 10172 10173 0
-10174 -10175 0
-10174 -10176 0
-10175 -10176 0
10174 10175 10176 0
-7164 -9807 0
-7164 -10177 0
-9807 -10177 0
7164 9807 10177 0
-2115 -10178 0
-2115 -10179 0
-10178 -10179 0
2115 10178 10179 0
-1900 -2017 0
-1900 -10180 0
-2017 -10180 0
1900 2017 10180 0
-3253 -10181 0
-3253 -10182 0
-10181 -10182 0
3253 10181 10182 0
-9790 -10183 0
-9790 -10184 0
-10183 -10184 0
9790 10183 10184 0
-6786 -7543 0
-6786 -10185 0
-7543 -10185 0
6786 7543 10185 0
-3452 -10186 0
-3452 -10187 0
-10186 -10187 0
3452 10186 10187 0
-2727 -10188 0
-2727 -10189 0
-10188 -10189 0
2727 10188 10189 0
-1260 -9561 0
-1260 -10190 0
-9561 -10190 0
1260 9561 10190 0
-430 -9310 0
-430 -10191 0
-9310 -10191 0
430 9310 10191 0
-10192 -10193 0
-10192 -10194 0
-10193 -10194 0
10192 10193 10194 0
-555 -10195 0
-555 -10196 0
-10195 -10196 0
555 10195 10196 0
-10197 -10198 0
-10197 -10199 0
-10198 -10199 0
10197 10198 10199 0
-1426 -10200 0
-1426 -10201 0
-10200 -10201 0
1426 10200 10201 0
-3111 -9981 0
-3111 -10202 0
-9981 -10202 0
3111 9981 10202 0
-5542 -10203 0
-5542 -10204 0
-10203 -10204 0
5542 10203 10204 0
-2873 -10205 0
-2873 -10206 0
-10205 -10206 0
2873 10205 10206 0
-10207 -10208 0
-10207 -10209 0
-10208 -10209 0
10207 10208 10209 0
-2144 -4694 0
-2144 -10210 0
-4694 -10210 0
2144 4694 10210 0
-7027 -10211 0
-7027 -10212 0
-10211 -10212 0
7027 10211 10212 0
-515 -10213 0
-515 -10214 0
-10213 -10214 0
515 10213 10214 0
-5533 -9476 0
-5533 -10215 0
-9476 -10215 0
5533 9476 10215 0
-600 -9413 0
-600 -10216 0
-9413 -10216 0
600 9413 10216 0
-10217 -10218 0
-10217 -10219 0
-10218 -10219 0
10217 10218 10219 0
-10220 -10221 0
-10220 -10222 0
-10221 -10222 0
10220 10221 10222 0
-2210 -5341 0
-2210 -10223 0
-5341 -10223 0
2210 5341 10223 0
-6617 -10224 0
-6617 -10225 0
-10224 -10225 0
6617 10224 10225 0
-4091 -10226 0
-4091 -10227 0
-10226 -10227 0
4091 10226 10227 0
-10088 -10228 0
-10088 -10229 0
-10228 -10229 0
10088 10228 10229 0
-1614 -10230 0
-1614 -10231 0
-10230 -10231 0
1614 10230 10231 0
-5641 -10232 0
-5641 -10233 0
-10232 -10233 0
5641 10232 10233 0
-3261 -10234 0
-3261 -10235 0
-10234 -10235 0
3261 10234 10235 0
-8292 -10236 0
-8292 -10237 0
-10236 -10237 0
8292 10236 10237 0
-4847 -7617 0
-4847 -10238 0
-7617 -10238 0
4847 7617 10238 0
-8776 -9697 0
-8776 -10239 0
-9697 -10239 0
8776 9697 10239 0
-10240 -10241 0
-10240 -10242 0
-10241 -10242 0
10240 10241 10242 0
-10243 -10244 0
-10243 -10245 0
-10244 -10245 0
10243 10244 10245 0
-2288 -4804 0
-2288 -10246 0
-4804 -10246 0
2288 4804 10246 0
-10247 -10248 0
-10247 -10249 0
-10248 -10249 0
10247 10248 10249 0
-7267 -9364 0
-7267 -10250 0
-9364 -10250 0
7267 9364 10250 0
-5501 -7343 0
-5501 -10251 0
-7343 -10251 0
5501 7343 10251 0
-4002 -5003 0
-4002 -6117 0
-5003 -6117 0
4002 5003 6117 0
-5015 -6380 0
-5015 -10252 0
-6380 -10252 0
5015 6380 10252 0
-2629 -6146 0
-2629 -10253 0
-6146 -10253 0
2629 6146 10253 0
-4817 -10254 0
-4817 -10255 0
-10254 -10255 0
4817 10254 10255 0
-5837 -10256 0
-5837 -10257 0
-10256 -10257 0
5837 10256 10257 0
-4224 -6643 0
-4224 -6700 0
-6643 -6700 0
4224 6643 6700 0
-6894 -8346 0
-6894 -10258 0
-8346 -10258 0
6894 8346 10258 0
-10259 -10260 0
-10259 -10261 0
-10260 -10261 0
10259 10260 10261 0
-3536 -5853 0
-3536 -10262 0
-5853 -10262 0
3536 5853 10262 0
-8989 -10263 0
-8989 -10264 0
-10263 -10264 0
8989 10263 10264 0
-7783 -10265 0
-7783 -10266 0
-10265 -10266 0
7783 10265 10266 0
-8380 -10267 0
-8380 -10268 0
-10267 -10268 0
8380 10267 10268 0
-8969 -10269 0
-8969 -10270 0
-10269 -10270 0
8969 10269 10270 0
-9221 -9542 0
-9221 -10271 0
-9542 -10271 0
9221 9542 10271 0
-10272 -10273 0
-10272 -10274 0
-10273 -10274 0
10272 10273 10274 0
-10275 -10276 0
-10275 -10277 0
-10276 -10277 0
10275 10276 10277 0
-336 -10278 0
-336 -10279 0
-10278 -10279 0
336 10278 10279 0
-4462 -10280 0
-4462 -10281 0
-10280 -10281 0
4462 10280 10281 0
-5021 -10282 0
-5021 -10283 0
-10282 -10283 0
5021 10282 10283 0
-6125 -10284 0
-6125 -10285 0
-10284 -10285 0
6125 10284 10285 0
-10286 -10287 0
-10286 -10288 0
-10287 -10288 0
10286 10287 10288 0
-7463 -10289 0
-7463 -10290 0
-10289 -10290 0
7463 10289 10290 0
-6290 -9210 0
-6290 -10291 0
-9210 -10291 0
6290 9210 10291 0
-2215 -2220 0
-2215 -10292 0
-2220 -10292 0
2215 2220 10292 0
-9777 -10293 0
-9777 -10294 0
-10293 -10294 0
9777 10293 10294 0
-6575 -9927 0
-6575 -10295 0
-9927 -10295 0
6575 9927 10295 0
-7375 -10296 0
-7375 -10297 0
-10296 -10297 0
7375 10296 10297 0
-10032 -10298 0
-10032 -10299 0
-10298 -10299 0
10032 10298 10299 0
-6874 -10300 0
-6874 -10301 0
-10300 -10301 0
6874 10300 10301 0
-8831 -10302 0
-8831 -10303 0
-10302 -10303 0
8831 10302 10303 0
-1141 -4707 0
-1141 -5049 0
-4707 -5049 0
1141 4707 5049 0
-4118 -10304 0
-4118 -10305 0
-10304 -10305 0
4118 10304 10305 0
-5419 -10306 0
-5419 -10307 0
-10306 -10307 0
5419 10306 10307 0
-4785 -6321 0
-4785 -10308 0
-6321 -10308 0
4785 6321 10308 0
-10309 -10310 0
-10309 -10311 0
-10310 -10311 0
10309 10310 10311 0
-10312 -10313 0
-10312 -10314 0
-10313 -10314 0
10312 10313 10314 0
-480 -5972 0
-480 -6681 0
-5972 -6681 0
480 5972 6681 0
-5682 -10315 0
-5682 -10316 0
-10315 -10316 0
5682 10315 10316 0
-7669 -8401 0
-7669 -10317 0
-8401 -10317 0
7669 8401 10317 0
-5588 -10092 0
-5588 -10318 0
-10092 -10318 0
5588 10092 10318 0
-6951 -8061 0
-6951 -10319 0
-8061 -10319 0
6951 8061 10319 0
-2036 -6500 0
-2036 -10320 0
-6500 -10320 0
2036 6500 10320 0
-9750 -10321 0
-9750 -10322 0
-10321 -10322 0
9750 10321 10322 0
-3339 -6550 0
-3339 -8706 0
-6550 -8706 0
3339 6550 8706 0
-2511 -8982 0
-2511 -10323 0
-8982 -10323 0
2511 8982 10323 0
-318 -10324 0
-318 -10325 0
-10324 -10325 0
318 10324 10325 0
-2474 -9145 0
-2474 -10326 0
-9145 -10326 0
2474 9145 10326 0
-10327 -10328 0
-10327 -10329 0
-10328 -10329 0
10327 10328 10329 0
-10330 -10331 0
-10330 -10332 0
-10331 -10332 0
10330 10331 10332 0
-4496 -8184 0
-4496 -10333 0
-8184 -10333 0
4496 8184 10333 0
-10334 -10335 0
-10334 -10336 0
-10335 -10336 0
10334 10335 10336 0
-6224 -10337 0
-6224 -10338 0
-10337 -10338 0
6224 10337 10338 0
-7082 -10339 0
-7082 -10340 0
-10339 -10340 0
7082 10339 10340 0
-3235 -10341 0
-3235 -10342 0
-10341 -10342 0
3235 10341 10342 0
-6192 -10343 0
-6192 -10344 0
-10343 -10344 0
6192 10343 10344 0
-9148 -10345 0
-9148 -10346 0
-10345 -10346 0
9148 10345 10346 0
-6404 -8711 0
-6404 -10347 0
-8711 -10347 0
6404 8711 10347 0
-3429 -10348 0
-3429 -10349 0
-10348 -10349 0
3429 10348 10349 0
-2037 -10350 0
-2037 -10351 0
-10350 -10351 0
2037 10350 10351 0
-768 -4464 0
-768 -6881 0
-4464 -6881 0
768 4464 6881 0
-7159 -7921 0
-7159 -10352 0
-7921 -10352 0
7159 7921 10352 0
-4291 -9240 0
-4291 -10353 0
-9240 -10353 0
4291 9240 10353 0
-5839 -6260 0
-5839 -10354 0
-6260 -10354 0
5839 6260 10354 0
-924 -8587 0
-924 -10355 0
-8587 -10355 0
924 8587 10355 0
-82 -4826 0
-82 -10356 0
-4826 -10356 0
82 4826 10356 0
-900 -6866 0
-900 -10357 0
-6866 -10357 0
900 6866 10357 0
-9486 -10038 0
-9486 -10358 0
-10038 -10358 0
9486 10038 10358 0
-3937 -10359 0
-3937 -10360 0
-10359 -10360 0
3937 10359 10360 0
-3391 -3856 0
-3391 -10361 0
-3856 -10361 0
3391 3856 10361 0
-187 -6645 0
-187 -7981 0
-6645 -7981 0
187 6645 7981 0
-4162 -10362 0
-4162 -10363 0
-10362 -10363 0
4162 10362 10363 0
-1714 -10364 0
-1714 -10365 0
-10364 -10365 0
1714 10364 10365 0
-1197 -3910 0
-1197 -10366 0
-3910 -10366 0
1197 3910 10366 0
-5522 -5644 0
-5522 -10367 0
-5644 -10367 0
5522 5644 10367 0
-8202 -10368 0
-8202 -10369 0
-10368 -10369 0
8202 10368 10369 0
-2721 -3911 0
-2721 -4780 0
-3911 -4780 0
2721 3911 4780 0
-3767 -8814 0
-3767 -9952 0
-8814 -9952 0
3767 8814 9952 0
-1289 -10370 0
-1289 -10371 0
-10370 -10371 0
1289 10370 10371 0
-4404 -10372 0
-4404 -10373 0
-10372 -10373 0
4404 10372 10373 0
-10321 -10374 0
-10321 -10375 0
-10374 -10375 0
10321 10374 10375 0
-10376 -10377 0
-10376 -10378 0
-10377 -10378 0
10376 10377 10378 0
-7819 -8446 0
-7819 -10379 0
-8446 -10379 0
7819 8446 10379 0
-2701 -10380 0
-2701 -10381 0
-10380 -10381 0
2701 10380 10381 0
-1826 -4163 0
-1826 -10382 0
-4163 -10382 0
1826 4163 10382 0
-3576 -4788 0
-3576 -10383 0
-4788 -10383 0
3576 4788 10383 0
-8487 -10384 0
-8487 -10385 0
-10384 -10385 0
8487 10384 10385 0
-1984 -5277 0
-1984 -10386 0
-5277 -10386 0
1984 5277 10386 0
-6821 -7522 0
-6821 -10387 0
-7522 -10387 0
6821 7522 10387 0
-10388 -10389 0
-10388 -10390 0
-10389 -10390 0
10388 10389 10390 0
-10391 -10392 0
-10391 -10393 0
-10392 -10393 0
10391 10392 10393 0
-6415 -9761 0
-6415 -10309 0
-9761 -10309 0
6415 9761 10309 0
-4818 -10394 0
-4818 -10395 0
-10394 -10395 0
4818 10394 10395 0
-415 -4258 0
-415 -8452 0
-4258 -8452 0
415 4258 8452 0
-6491 -10396 0
-6491 -10397 0
-10396 -10397 0
6491 10396 10397 0
-6208 -10398 0
-6208 -10399 0
-10398 -10399 0
6208 10398 10399 0
-4073 -10400 0
-4073 -10401 0
-10400 -10401 0
4073 10400 10401 0
-6593 -10402 0
-6593 -10403 0
-10402 -10403 0
6593 10402 10403 0
-10404 -10405 0
-10404 -10406 0
-10405 -10406 0
10404 10405 10406 0
-7633 -10407 0
-7633 -10408 0
-10407 -10408 0
7633 10407 10408 0
-3283 -9150 0
-3283 -10409 0
-9150 -10409 0
3283 9150 10409 0
-5625 -10410 0
-5625 -10411 0
-10410 -10411 0
5625 10410 10411 0
-1818 -10412 0
-1818 -10413 0
-10412 -10413 0
1818 10412 10413 0
-9900 -10414 0
-9900 -10415 0
-10414 -10415 0
9900 10414 10415 0
-6903 -10416 0
-6903 -10417 0
-10416 -10417 0
6903 10416 10417 0
-3799 -5840 0
-3799 -10418 0
-5840 -10418 0
3799 5840 10418 0
-1847 -10419 0
-1847 -10420 0
-10419 -10420 0
1847 10419 10420 0
-5043 -10421 0
-5043 -10422 0
-10421 -10422 0
5043 10421 10422 0
-10048 -10423 0
-10048 -10424 0
-10423 -10424 0
10048 10423 10424 0
-8022 -10425 0
-8022 -10426 0
-10425 -10426 0
8022 10425 10426 0
-507 -9601 0
-507 -10427 0
-9601 -10427 0
507 9601 10427 0
-10428 -10429 0
-10428 -10430 0
-10429 -10430 0
10428 10429 10430 0
-6085 -8806 0
-6085 -10431 0
-8806 -10431 0
6085 8806 10431 0
-735 -9953 0
-735 -10432 0
-9953 -10432 0
735 9953 10432 0
-1030 -6092 0
-1030 -10433 0
-6092 -10433 0
1030 6092 10433 0
-10434 -10435 0
-10434 -10436 0
-10435 -10436 0
10434 10435 10436 0
-2192 -10437 0
-2192 -10438 0
-10437 -10438 0
2192 10437 10438 0
-6265 -8663 0
-6265 -10439 0
-8663 -10439 0
6265 8663 10439 0
-10440 -10441 0
-10440 -10442 0
-10441 -10442 0
10440 10441 10442 0
-458 -10443 0
-458 -10444 0
-10443 -10444 0
458 10443 10444 0
-5098 -10445 0
-5098 -10446 0
-10445 -10446 0
5098 10445 10446 0
-10447 -10448 0
-10447 -10449 0
-10448 -10449 0
10447 10448 10449 0
-6021 -8762 0
-6021 -10450 0
-8762 -10450 0
6021 8762 10450 0
-4278 -10451 0
-4278 -10452 0
-10451 -10452 0
4278 10451 10452 0
-7573 -10453 0
-7573 -10454 0
-10453 -10454 0
7573 10453 10454 0
-2012 -8167 0
-2012 -10455 0
-8167 -10455 0
2012 8167 10455 0
-2332 -7785 0
-2332 -10456 0
-7785 -10456 0
2332 7785 10456 0
-10457 -10458 0
-10457 -10459 0
-10458 -10459 0
10457 10458 10459 0
-2731 -10460 0
-2731 -10461 0
-10460 -10461 0
2731 10460 10461 0
-8007 -10462 0
-8007 -10463 0
-10462 -10463 0
8007 10462 10463 0
-9181 -10161 0
-9181 -10464 0
-10161 -10464 0
9181 10161 10464 0
-1434 -9851 0
-1434 -10465 0
-9851 -10465 0
1434 9851 10465 0
-1206 -3090 0
-1206 -10466 0
-3090 -10466 0
1206 3090 10466 0
-10467 -10468 0
-10467 -10469 0
-10468 -10469 0
10467 10468 10469 0
-10470 -10471 0
-10470 -10472 0
-10471 -10472 0
10470 10471 10472 0
-388 -10473 0
-388 -10474 0
-10473 -10474 0
388 10473 10474 0
-5012 -10475 0
-5012 -10476 0
-10475 -10476 0
5012 10475 10476 0
-5290 -10477 0
-5290 -10478 0
-10477 -10478 0
5290 10477 10478 0
-2520 -10479 0
-2520 -10480 0
-10479 -10480 0
2520 10479 10480 0
-8579 -10481 0
-8579 -10482 0
-10481 -10482 0
8579 10481 10482 0
-4439 -10483 0
-4439 -10484 0
-10483 -10484 0
4439 10483 10484 0
-7766 -10485 0
-7766 -10486 0
-10485 -10486 0
7766 10485 10486 0
-6396 -7498 0
-6396 -10487 0
-7498 -10487 0
6396 7498 10487 0
-10488 -10489 0
-10488 -10490 0
-10489 -10490 0
10488 10489 10490 0
-9855 -10491 0
-9855 -10492 0
-10491 -10492 0
9855 10491 10492 0
-9867 -10493 0
-9867 -10494 0
-10493 -10494 0
9867 10493 10494 0
-5109 -10495 0
-5109 -10496 0
-10495 -10496 0
5109 10495 10496 0
-8170 -10497 0
-8170 -10498 0
-10497 -10498 0
8170 10497 10498 0
-10499 -10500 0
-10499 -10501 0
-10500 -10501 0
10499 10500 10501 0
-4372 -10502 0
-4372 -10503 0
-10502 -10503 0
4372 10502 10503 0
-8205 -10504 0
-8205 -10505 0
-10504 -10505 0
8205 10504 10505 0
-8381 -9797 0
-8381 -10506 0
-9797 -10506 0
8381 9797 10506 0
-6454 -10507 0
-6454 -10508 0
-10507 -10508 0
6454 10507 10508 0
-5765 -9938 0
-5765 -10509 0
-9938 -10509 0
5765 9938 10509 0
-1695 -10510 0
-1695 -10511 0
-10510 -10511 0
1695 10510 10511 0
-2092 -10512 0
-2092 -10513 0
-10512 -10513 0
2092 10512 10513 0
-1303 -6056 0
-1303 -10095 0
-6056 -10095 0
1303 6056 10095 0
-849 -9449 0
-849 -10514 0
-9449 -10514 0
849 9449 10514 0
-2831 -10515 0
-2831 -10516 0
-10515 -10516 0
2831 10515 10516 0
-10186 -10517 0
-10186 -10518 0
-10517 -10518 0
10186 10517 10518 0
-6626 -10519 0
-6626 -10520 0
-10519 -10520 0
6626 10519 10520 0
-5219 -10521 0
-5219 -10522 0
-10521 -10522 0
5219 10521 10522 0
-10523 -10524 0
-10523 -10525 0
-10524 -10525 0
10523 10524 10525 0
-10526 -10527 0
-10526 -10528 0
-10527 -10528 0
10526 10527 10528 0
-9408 -10364 0
-9408 -10529 0
-10364 -10529 0
9408 10364 10529 0
-9822 -10530 0
-9822 -10531 0
-10530 -10531 0
9822 10530 10531 0
-5960 -10532 0
-5960 -10533 0
-10532 -10533 0
5960 10532 10533 0
-1527 -10534 0
-1527 -10535 0
-10534 -10535 0
1527 10534 10535 0
-8599 -9156 0
-8599 -10536 0
-9156 -10536 0
8599 9156 10536 0
-34 -10537 0
-34 -10538 0
-10537 -10538 0
34 10537 10538 0
-1113 -8865 0
-1113 -9051 0
-8865 -9051 0
1113 8865 9051 0
-1333 -3880 0
-1333 -10539 0
-3880 -10539 0
1333 3880 10539 0
-2983 -10540 0
-2983 -10541 0
-10540 -10541 0
2983 10540 10541 0
-8145 -10542 0
-8145 -10543 0
-10542 -10543 0
8145 10542 10543 0
-10544 -10545 0
-10544 -10546 0
-10545 -10546 0
10544 10545 10546 0
-10547 -10548 0
-10547 -10549 0
-10548 -10549 0
10547 10548 10549 0
-10550 -10551 0
-10550 -10552 0
-10551 -10552 0
10550 10551 10552 0
-7335 -10107 0
-7335 -10553 0
-10107 -10553 0
7335 10107 10553 0
-2294 -10554 0
-2294 -10555 0
-10554 -10555 0
2294 10554 10555 0
-1912 -4034 0
-1912 -10556 0
-4034 -10556 0
1912 4034 10556 0
-7055 -10557 0
-7055 -10558 0
-10557 -10558 0
7055 10557 10558 0
-9987 -10559 0
-9987 -10560 0
-10559 -10560 0
9987 10559 10560 0
-10561 -10562 0
-10561 -10563 0
-10562 -10563 0
10561 10562 10563 0
-10564 -10565 0
-10564 -10566 0
-10565 -10566 0
10564 10565 10566 0
-3863 -6269 0
-3863 -10185 0
-6269 -10185 0
3863 6269 10185 0
-4701 -10567 0
-4701 -10568 0
-10567 -10568 0
4701 10567 10568 0
-1150 -1789 0
-1150 -7689 0
-1789 -7689 0
1150 1789 7689 0
-2851 -4179 0
-2851 -10569 0
-4179 -10569 0
2851 4179 10569 0
-10570 -10571 0
-10570 -10572 0
-10571 -10572 0
10570 10571 10572 0
-1575 -3434 0
-1575 -10573 0
-3434 -10573 0
1575 3434 10573 0
-4688 -7709 0
-4688 -10574 0
-7709 -10574 0
4688 7709 10574 0
-271 -10575 0
-271 -10576 0
-10575 -10576 0
271 10575 10576 0
-10577 -10578 0
-10577 -10579 0
-10578 -10579 0
10577 10578 10579 0
-10580 -10581 0
-10580 -10582 0
-10581 -10582 0
10580 10581 10582 0
-980 -10583 0
-980 -10584 0
-10583 -10584 0
980 10583 10584 0
-10585 -10586 0
-10585 -10587 0
-10586 -10587 0
10585 10586 10587 0
-10588 -10589 0
-10588 -10590 0
-10589 -10590 0
10588 10589 10590 0
-3965 -10591 0
-3965 -10592 0
-10591 -10592 0
3965 10591 10592 0
-5 -10593 0
-5 -10594 0
-10593 -10594 0
5 10593 10594 0
-3426 -10595 0
-3426 -10596 0
-10595 -10596 0
3426 10595 10596 0
-4412 -7272 0
-4412 -10597 0
-7272 -10597 0
4412 7272 10597 0
-1487 -10598 0
-1487 -10599 0
-10598 -10599 0
1487 10598 10599 0
-850 -10559 0
-850 -10600 0
-10559 -10600 0
850 10559 10600 0
-2846 -10601 0
-2846 -10602 0
-10601 -10602 0
2846 10601 10602 0
-7618 -10603 0
-7618 -10604 0
-10603 -10604 0
7618 10603 10604 0
-5496 -6309 0
-5496 -10605 0
-6309 -10605 0
5496 6309 10605 0
-6376 -10606 0
-6376 -10607 0
-10606 -10607 0
6376 10606 10607 0
-1675 -10608 0
-1675 -10609 0
-10608 -10609 0
1675 10608 10609 0
-667 -5033 0
-667 -10610 0
-5033 -10610 0
667 5033 10610 0
-1107 -5202 0
-1107 -10443 0
-5202 -10443 0
1107 5202 10443 0
-2086 -6714 0
-2086 -10611 0
-6714 -10611 0
2086 6714 10611 0
-4111 -5136 0
-4111 -10049 0
-5136 -10049 0
4111 5136 10049 0
-8141 -10612 0
-8141 -10613 0
-10612 -10613 0
8141 10612 10613 0
-2176 -10614 0
-2176 -10615 0
-10614 -10615 0
2176 10614 10615 0
-2426 -9857 0
-2426 -10616 0
-9857 -10616 0
2426 9857 10616 0
-2747 -5553 0
-2747 -10302 0
-5553 -10302 0
2747 5553 10302 0
-10617 -10618 0
-10617 -10619 0
-10618 -10619 0
10617 10618 10619 0
-7231 -10620 0
-7231 -10621 0
-10620 -10621 0
7231 10620 10621 0
-4373 -10622 0
-4373 -10623 0
-10622 -10623 0
4373 10622 10623 0
-5458 -9169 0
-5458 -9778 0
-9169 -9778 0
5458 9169 9778 0
-7737 -10624 0
-7737 -10625 0
-10624 -10625 0
7737 10624 10625 0
-6371 -10213 0
-6371 -10626 0
-10213 -10626 0
6371 10213 10626 0
-10627 -10628 0
-10627 -10629 0
-10628 -10629 0
10627 10628 10629 0
-10630 -10631 0
-10630 -10632 0
-10631 -10632 0
10630 10631 10632 0
-1115 -10633 0
-1115 -10634 0
-10633 -10634 0
1115 10633 10634 0
-7786 -10635 0
-7786 -10636 0
-10635 -10636 0
7786 10635 10636 0
-3960 -6581 0
-3960 -10637 0
-6581 -10637 0
3960 6581 10637 0
-115 -7533 0
-115 -10638 0
-7533 -10638 0
115 7533 10638 0
-2826 -10639 0
-2826 -10640 0
-10639 -10640 0
2826 10639 10640 0
-10641 -10642 0
-10641 -10643 0
-10642 -10643 0
10641 10642 10643 0
-10544 -10644 0
-10544 -10645 0
-10644 -10645 0
10544 10644 10645 0
-5188 -10646 0
-5188 -10647 0
-10646 -10647 0
5188 10646 10647 0
-10648 -10649 0
-10648 -10650 0
-10649 -10650 0
10648 10649 10650 0
-2361 -10651 0
-2361 -10652 0
-10651 -10652 0
2361 10651 10652 0
-7309 -8931 0
-7309 -10653 0
-8931 -10653 0
7309 8931 10653 0
-927 -10654 0
-927 -10655 0
-10654 -10655 0
927 10654 10655 0
-8665 -10656 0
-8665 -10657 0
-10656 -10657 0
8665 10656 10657 0
-9722 -10658 0
-9722 -10659 0
-10658 -10659 0
9722 10658 10659 0
-7461 -10660 0
-7461 -10661 0
-10660 -10661 0
7461 10660 10661 0
-7307 -10662 0
-7307 -10663 0
-10662 -10663 0
7307 10662 10663 0
-4673 -10664 0
-4673 -10665 0
-10664 -10665 0
4673 10664 10665 0
-367 -2008 0
-367 -6815 0
-2008 -6815 0
367 2008 6815 0
-4872 -7984 0
-4872 -10666 0
-7984 -10666 0
4872 7984 10666 0
-3602 -10667 0
-3602 -10668 0
-10667 -10668 0
3602 10667 10668 0
-5144 -9502 0
-5144 -10669 0
-9502 -10669 0
5144 9502 10669 0
-901 -8778 0
-901 -10670 0
-8778 -10670 0
901 8778 10670 0
-10671 -10672 0
-10671 -10673 0
-10672 -10673 0
10671 10672 10673 0
-4046 -5133 0
-4046 -10674 0
-5133 -10674 0
4046 5133 10674 0
-10675 -10676 0
-10675 -10677 0
-10676 -10677 0
10675 10676 10677 0
-4798 -10678 0
-4798 -10679 0
-10678 -10679 0
4798 10678 10679 0
-8430 -8863 0
-8430 -10680 0
-8863 -10680 0
8430 8863 10680 0
-10026 -10681 0
-10026 -10682 0
-10681 -10682 0
10026 10681 10682 0
-6658 -6664 0
-6658 -10683 0
-6664 -10683 0
6658 6664 10683 0
-3335 -6892 0
-3335 -10365 0
-6892 -10365 0
3335 6892 10365 0
-772 -10684 0
-772 -10685 0
-10684 -10685 0
772 10684 10685 0
-4806 -10131 0
-4806 -10686 0
-10131 -10686 0
4806 10131 10686 0
-8823 -10687 0
-8823 -10688 0
-10687 -10688 0
8823 10687 10688 0
-9182 -10689 0
-9182 -10690 0
-10689 -10690 0
9182 10689 10690 0
-9835 -10691 0
-9835 -10692 0
-10691 -10692 0
9835 10691 10692 0
-10693 -10694 0
-10693 -10695 0
-10694 -10695 0
10693 10694 10695 0
-6806 -10696 0
-6806 -10697 0
-10696 -10697 0
6806 10696 10697 0
-7283 -8289 0
-7283 -10698 0
-8289 -10698 0
7283 8289 10698 0
-773 -10699 0
-773 -10700 0
-10699 -10700 0
773 10699 10700 0
-7787 -10027 0
-7787 -10269 0
-10027 -10269 0
7787 10027 10269 0
-4134 -6492 0
-4134 -10701 0
-6492 -10701 0
4134 6492 10701 0
-10702 -10703 0
-10702 -10704 0
-10703 -10704 0
10702 10703 10704 0
-8192 -10705 0
-8192 -10706 0
-10705 -10706 0
8192 10705 10706 0
-9039 -10707 0
-9039 -10708 0
-10707 -10708 0
9039 10707 10708 0
-25 -5057 0
-25 -10709 0
-5057 -10709 0
25 5057 10709 0
-2679 -10710 0
-2679 -10711 0
-10710 -10711 0
2679 10710 10711 0
-4003 -10712 0
-4003 -10713 0
-10712 -10713 0
4003 10712 10713 0
-8815 -10585 0
-8815 -10714 0
-10585 -10714 0
8815 10585 10714 0
-2019 -8980 0
-2019 -10715 0
-8980 -10715 0
2019 8980 10715 0
-6239 -6538 0
-6239 -10716 0
-6538 -10716 0
6239 6538 10716 0
-10606 -10717 0
-10606 -10718 0
-10717 -10718 0
10606 10717 10718 0
-10570 -10719 0
-10570 -10720 0
-10719 -10720 0
10570 10719 10720 0
-274 -1045 0
-274 -10557 0
-1045 -10557 0
274 1045 10557 0
-7931 -10721 0
-7931 -10722 0
-10721 -10722 0
7931 10721 10722 0
-2402 -6753 0
-2402 -10564 0
-6753 -10564 0
2402 6753 10564 0
-960 -10723 0
-960 -10724 0
-10723 -10724 0
960 10723 10724 0
-6317 -8973 0
-6317 -10725 0
-8973 -10725 0
6317 8973 10725 0
-10701 -10726 0
-10701 -10727 0
-10726 -10727 0
10701 10726 10727 0
-3809 -10728 0
-3809 -10729 0
-10728 -10729 0
3809 10728 10729 0
-3598 -10730 0
-3598 -10731 0
-10730 -10731 0
3598 10730 10731 0
-10732 -10733 0
-10732 -10734 0
-10733 -10734 0
10732 10733 10734 0
-111 -4011 0
-111 -7134 0
-4011 -7134 0
111 4011 7134 0
-10735 -10736 0
-10735 -10737 0
-10736 -10737 0
10735 10736 10737 0
-652 -4023 0
-652 -10738 0
-4023 -10738 0
652 4023 10738 0
-4139 -10739 0
-4139 -10740 0
-10739 -10740 0
4139 10739 10740 0
-4791 -9436 0
-4791 -10741 0
-9436 -10741 0
4791 9436 10741 0
-9178 -9536 0
-9178 -10732 0
-9536 -10732 0
9178 9536 10732 0
-9972 -10742 0
-9972 -10743 0
-10742 -10743 0
9972 10742 10743 0
-1884 -10612 0
-1884 -10744 0
-10612 -10744 0
1884 10612 10744 0
-10745 -10746 0
-10745 -10747 0
-10746 -10747 0
10745 10746 10747 0
-4839 -10410 0
-4839 -10748 0
-10410 -10748 0
4839 10410 10748 0
-482 -10078 0
-482 -10749 0
-10078 -10749 0
482 10078 10749 0
-7928 -10750 0
-7928 -10751 0
-10750 -10751 0
7928 10750 10751 0
-4837 -10752 0
-4837 -10753 0
-10752 -10753 0
4837 10752 10753 0
-3394 -6216 0
-3394 -10754 0
-6216 -10754 0
3394 6216 10754 0
-2820 -10263 0
-2820 -10755 0
-10263 -10755 0
2820 10263 10755 0
-4069 -10756 0
-4069 -10757 0
-10756 -10757 0
4069 10756 10757 0
-10758 -10759 0
-10758 -10760 0
-10759 -10760 0
10758 10759 10760 0
-2841 -5184 0
-2841 -10761 0
-5184 -10761 0
2841 5184 10761 0
-570 -10762 0
-570 -10763 0
-10762 -10763 0
570 10762 10763 0
-5459 -8004 0
-5459 -10764 0
-8004 -10764 0
5459 8004 10764 0
-4888 -5854 0
-4888 -10765 0
-5854 -10765 0
4888 5854 10765 0
-10766 -10767 0
-10766 -10768 0
-10767 -10768 0
10766 10767 10768 0
-10769 -10770 0
-10769 -10771 0
-10770 -10771 0
10769 10770 10771 0
-6178 -7955 0
-6178 -9979 0
-7955 -9979 0
6178 7955 9979 0
-255 -10772 0
-255 -10773 0
-10772 -10773 0
255 10772 10773 0
-2020 -5681 0
-2020 -10774 0
-5681 -10774 0
2020 5681 10774 0
-3568 -10775 0
-3568 -10776 0
-10775 -10776 0
3568 10775 10776 0
-6322 -10777 0
-6322 -10778 0
-10777 -10778 0
6322 10777 10778 0
-9227 -10779 0
-9227 -10780 0
-10779 -10780 0
9227 10779 10780 0
-8093 -10781 0
-8093 -10782 0
-10781 -10782 0
8093 10781 10782 0
-1282 -6920 0
-1282 -10783 0
-6920 -10783 0
1282 6920 10783 0
-10784 -10785 0
-10784 -10786 0
-10785 -10786 0
10784 10785 10786 0
-8618 -10787 0
-8618 -10788 0
-10787 -10788 0
8618 10787 10788 0
-9124 -10789 0
-9124 -10790 0
-10789 -10790 0
9124 10789 10790 0
-4930 -10752 0
-4930 -10791 0
-10752 -10791 0
4930 10752 10791 0
-10792 -10793 0
-10792 -10794 0
-10793 -10794 0
10792 10793 10794 0
-3324 -3495 0
-3324 -10795 0
-3495 -10795 0
3324 3495 10795 0
-10588 -10796 0
-10588 -10797 0
-10796 -10797 0
10588 10796 10797 0
-315 -10798 0
-315 -10799 0
-10798 -10799 0
315 10798 10799 0
-10800 -10801 0
-10800 -10802 0
-10801 -10802 0
10800 10801 10802 0
-1718 -10803 0
-1718 -10804 0
-10803 -10804 0
1718 10803 10804 0
-8072 -10805 0
-8072 -10806 0
-10805 -10806 0
8072 10805 10806 0
-339 -1797 0
-339 -10807 0
-1797 -10807 0
339 1797 10807 0
-2762 -10808 0
-2762 -10809 0
-10808 -10809 0
2762 10808 10809 0
-8101 -9554 0
-8101 -10810 0
-9554 -10810 0
8101 9554 10810 0
-4941 -5510 0
-4941 -10811 0
-5510 -10811 0
4941 5510 10811 0
-57 -10812 0
-57 -10813 0
-10812 -10813 0
57 10812 10813 0
-10808 -10814 0
-10808 -10815 0
-10814 -10815 0
10808 10814 10815 0
-513 -2755 0
-513 -7102 0
-2755 -7102 0
513 2755 7102 0
-1655 -1681 0
-1655 -10002 0
-1681 -10002 0
1655 1681 10002 0
-501 -9093 0
-501 -10816 0
-9093 -10816 0
501 9093 10816 0
-5192 -5885 0
-5192 -10817 0
-5885 -10817 0
5192 5885 10817 0
-3087 -9463 0
-3087 -10818 0
-9463 -10818 0
3087 9463 10818 0
-4919 -5638 0
-4919 -10819 0
-5638 -10819 0
4919 5638 10819 0
-10820 -10821 0
-10820 -10822 0
-10821 -10822 0
10820 10821 10822 0
-2434 -8962 0
-2434 -10183 0
-8962 -10183 0
2434 8962 10183 0
-7157 -10823 0
-7157 -10824 0
-10823 -10824 0
7157 10823 10824 0
-3015 -10825 0
-3015 -10826 0
-10825 -10826 0
3015 10825 10826 0
-7127 -8365 0
-7127 -10537 0
-8365 -10537 0
7127 8365 10537 0
-10827 -10828 0
-10827 -10829 0
-10828 -10829 0
10827 10828 10829 0
-8689 -10830 0
-8689 -10831 0
-10830 -10831 0
8689 10830 10831 0
-986 -10832 0
-986 -10833 0
-10832 -10833 0
986 10832 10833 0
-2856 -10834 0
-2856 -10835 0
-10834 -10835 0
2856 10834 10835 0
-4352 -5984 0
-4352 -6502 0
-5984 -6502 0
4352 5984 6502 0
-10836 -10837 0
-10836 -10838 0
-10837 -10838 0
10836 10837 10838 0
-3419 -10719 0
-3419 -10839 0
-10719 -10839 0
3419 10719 10839 0
-7578 -8154 0
-7578 -9132 0
-8154 -9132 0
7578 8154 9132 0
-98 -9868 0
-98 -10840 0
-9868 -10840 0
98 9868 10840 0
-10841 -10842 0
-10841 -10843 0
-10842 -10843 0
10841 10842 10843 0
-10844 -10845 0
-10844 -10846 0
-10845 -10846 0
10844 10845 10846 0
-2025 -9006 0
-2025 -10847 0
-9006 -10847 0
2025 9006 10847 0
-1033 -6327 0
-1033 -10848 0
-6327 -10848 0
1033 6327 10848 0
-10849 -10850 0
-10849 -10851 0
-10850 -10851 0
10849 10850 10851 0
-3079 -3547 0
-3079 -10852 0
-3547 -10852 0
3079 3547 10852 0
-8625 -8934 0
-8625 -10853 0
-8934 -10853 0
8625 8934 10853 0
-5519 -8650 0
-5519 -10854 0
-8650 -10854 0
5519 8650 10854 0
-10855 -10856 0
-10855 -10857 0
-10856 -10857 0
10855 10856 10857 0
-2232 -9880 0
-2232 -10858 0
-9880 -10858 0
2232 9880 10858 0
-10595 -10859 0
-10595 -10860 0
-10859 -10860 0
10595 10859 10860 0
-1734 -3032 0
-1734 -10861 0
-3032 -10861 0
1734 3032 10861 0
-2227 -3478 0
-2227 -10862 0
-3478 -10862 0
2227 3478 10862 0
-10863 -10864 0
-10863 -10865 0
-10864 -10865 0
10863 10864 10865 0
-10102 -10866 0
-10102 -10867 0
-10866 -10867 0
10102 10866 10867 0
-8241 -10453 0
-8241 -10868 0
-10453 -10868 0
8241 10453 10868 0
-3733 -6418 0
-3733 -10869 0
-6418 -10869 0
3733 6418 10869 0
-10234 -10870 0
-10234 -10871 0
-10870 -10871 0
10234 10870 10871 0
-3163 -10872 0
-3163 -10873 0
-10872 -10873 0
3163 10872 10873 0
-2431 -3969 0
-2431 -7458 0
-3969 -7458 0
2431 3969 7458 0
-6103 -10699 0
-6103 -10874 0
-10699 -10874 0
6103 10699 10874 0
-3526 -10875 0
-3526 -10876 0
-10875 -10876 0
3526 10875 10876 0
-5016 -8348 0
-5016 -10877 0
-8348 -10877 0
5016 8348 10877 0
-8168 -10878 0
-8168 -10879 0
-10878 -10879 0
8168 10878 10879 0
-35 -10880 0
-35 -10881 0
-10880 -10881 0
35 10880 10881 0
-7427 -9273 0
-7427 -10882 0
-9273 -10882 0
7427 9273 10882 0
-53 -3606 0
-53 -10883 0
-3606 -10883 0
53 3606 10883 0
-3230 -8124 0
-3230 -10884 0
-8124 -10884 0
3230 8124 10884 0
-9527 -10885 0
-9527 -10886 0
-10885 -10886 0
9527 10885 10886 0
-10887 -10888 0
-10887 -10889 0
-10888 -10889 0
10887 10888 10889 0
-1436 -10890 0
-1436 -10891 0
-10890 -10891 0
1436 10890 10891 0
-1228 -3873 0
-1228 -10892 0
-3873 -10892 0
1228 3873 10892 0
-2476 -5455 0
-2476 -10893 0
-5455 -10893 0
2476 5455 10893 0
-6571 -10894 0
-6571 -10895 0
-10894 -10895 0
6571 10894 10895 0
-8512 -10896 0
-8512 -10897 0
-10896 -10897 0
8512 10896 10897 0
-10898 -10899 0
-10898 -10900 0
-10899 -10900 0
10898 10899 10900 0
-3226 -4953 0
-3226 -10901 0
-4953 -10901 0
3226 4953 10901 0
-6411 -10902 0
-6411 -10903 0
-10902 -10903 0
6411 10902 10903 0
-6479 -9356 0
-6479 -10904 0
-9356 -10904 0
6479 9356 10904 0
-5603 -8232 0
-5603 -10905 0
-8232 -10905 0
5603 8232 10905 0
-10259 -10906 0
-10259 -10907 0
-10906 -10907 0
10259 10906 10907 0
-2621 -10908 0
-2621 -10909 0
-10908 -10909 0
2621 10908 10909 0
-10910 -10911 0
-10910 -10912 0
-10911 -10912 0
10910 10911 10912 0
-6991 -8257 0
-6991 -9632 0
-8257 -9632 0
6991 8257 9632 0
-921 -1777 0
-921 -10913 0
-1777 -10913 0
921 1777 10913 0
-4755 -9608 0
-4755 -10914 0
-9608 -10914 0
4755 9608 10914 0
-1967 -3438 0
-1967 -10571 0
-3438 -10571 0
1967 3438 10571 0
-10915 -10916 0
-10915 -10917 0
-10916 -10917 0
10915 10916 10917 0
-4909 -4990 0
-4909 -10918 0
-4990 -10918 0
4909 4990 10918 0
-9766 -10919 0
-9766 -10920 0
-10919 -10920 0
9766 10919 10920 0
-6938 -9471 0
-6938 -10921 0
-9471 -10921 0
6938 9471 10921 0
-10922 -10923 0
-10922 -10924 0
-10923 -10924 0
10922 10923 10924 0
-1127 -10925 0
-1127 -10926 0
-10925 -10926 0
1127 10925 10926 0
-5706 -10927 0
-5706 -10928 0
-10927 -10928 0
5706 10927 10928 0
-316 -2926 0
-316 -10929 0
-2926 -10929 0
316 2926 10929 0
-6392 -10930 0
-6392 -10931 0
-10930 -10931 0
6392 10930 10931 0
-4963 -6366 0
-4963 -10932 0
-6366 -10932 0
4963 6366 10932 0
-673 -10933 0
-673 -10934 0
-10933 -10934 0
673 10933 10934 0
-5482 -10935 0
-5482 -10936 0
-10935 -10936 0
5482 10935 10936 0
-5751 -8869 0
-5751 -10937 0
-8869 -10937 0
5751 8869 10937 0
-3985 -7281 0
-3985 -10938 0
-7281 -10938 0
3985 7281 10938 0
-4851 -10939 0
-4851 -10940 0
-10939 -10940 0
4851 10939 10940 0
-10941 -10942 0
-10941 -10943 0
-10942 -10943 0
10941 10942 10943 0
-881 -10944 0
-881 -10945 0
-10944 -10945 0
881 10944 10945 0
-7657 -8598 0
-7657 -10425 0
-8598 -10425 0
7657 8598 10425 0
-5287 -10128 0
-5287 -10946 0
-10128 -10946 0
5287 10128 10946 0
-10536 -10947 0
-10536 -10948 0
-10947 -10948 0
10536 10947 10948 0
-9657 -10723 0
-9657 -10949 0
-10723 -10949 0
9657 10723 10949 0
-8524 -10084 0
-8524 -10950 0
-10084 -10950 0
8524 10084 10950 0
-10951 -10952 0
-10951 -10953 0
-10952 -10953 0
10951 10952 10953 0
-10954 -10955 0
-10954 -10956 0
-10955 -10956 0
10954 10955 10956 0
-5804 -8160 0
-5804 -10957 0
-8160 -10957 0
5804 8160 10957 0
-374 -10958 0
-374 -10959 0
-10958 -10959 0
374 10958 10959 0
-402 -1590 0
-402 -7595 0
-1590 -7595 0
402 1590 7595 0
-8155 -10464 0
-8155 -10960 0
-10464 -10960 0
8155 10464 10960 0
-4418 -10961 0
-4418 -10962 0
-10961 -10962 0
4418 10961 10962 0
-8211 -10963 0
-8211 -10964 0
-10963 -10964 0
8211 10963 10964 0
-2941 -3401 0
-2941 -10965 0
-3401 -10965 0
2941 3401 10965 0
-1978 -4667 0
-1978 -10966 0
-4667 -10966 0
1978 4667 10966 0
-146 -3633 0
-146 -9008 0
-3633 -9008 0
146 3633 9008 0
-10967 -10968 0
-10967 -10969 0
-10968 -10969 0
10967 10968 10969 0
-1400 -10970 0
-1400 -10971 0
-10970 -10971 0
1400 10970 10971 0
-3313 -10675 0
-3313 -10972 0
-10675 -10972 0
3313 10675 10972 0
-2526 -10938 0
-2526 -10973 0
-10938 -10973 0
2526 10938 10973 0
-6283 -8203 0
-6283 -9294 0
-8203 -9294 0
6283 8203 9294 0
-3191 -5989 0
-3191 -10974 0
-5989 -10974 0
3191 5989 10974 0
-6104 -10975 0
-6104 -10976 0
-10975 -10976 0
6104 10975 10976 0
-10977 -10978 0
-10977 -10979 0
-10978 -10979 0
10977 10978 10979 0
-6723 -10980 0
-6723 -10981 0
-10980 -10981 0
6723 10980 10981 0
-5753 -10603 0
-5753 -10982 0
-10603 -10982 0
5753 10603 10982 0
-10983 -10984 0
-10983 -10985 0
-10984 -10985 0
10983 10984 10985 0
-4529 -10986 0
-4529 -10987 0
-10986 -10987 0
4529 10986 10987 0
-6852 -10158 0
-6852 -10988 0
-10158 -10988 0
6852 10158 10988 0
-10989 -10990 0
-10989 -10991 0
-10990 -10991 0
10989 10990 10991 0
-6040 -10992 0
-6040 -10993 0
-10992 -10993 0
6040 10992 10993 0
-10994 -10995 0
-10994 -10996 0
-10995 -10996 0
10994 10995 10996 0
-10997 -10998 0
-10997 -10999 0
-10998 -10999 0
10997 10998 10999 0
-7697 -9895 0
-7697 -11000 0
-9895 -11000 0
7697 9895 11000 0
-4623 -7475 0
-4623 -11001 0
-7475 -11001 0
4623 7475 11001 0
-64 -7292 0
-64 -11002 0
-7292 -11002 0
64 7292 11002 0
-311 -5958 0
-311 -5988 0
-5958 -5988 0
311 5958 5988 0
-11003 -11004 0
-11003 -11005 0
-11004 -11005 0
11003 11004 11005 0
-3008 -11006 0
-3008 -11007 0
-11006 -11007 0
3008 11006 11007 0
-5140 -6913 0
-5140 -11008 0
-6913 -11008 0
5140 6913 11008 0
-9177 -9340 0
-9177 -11009 0
-9340 -11009 0
9177 9340 11009 0
-9729 -11010 0
-9729 -11011 0
-11010 -11011 0
9729 11010 11011 0
-11012 -11013 0
-11012 -11014 0
-11013 -11014 0
11012 11013 11014 0
-1879 -4553 0
-1879 -11015 0
-4553 -11015 0
1879 4553 11015 0
-7087 -7489 0
-7087 -11016 0
-7489 -11016 0
7087 7489 11016 0
-11017 -11018 0
-11017 -11019 0
-11018 -11019 0
11017 11018 11019 0
-2911 -6768 0
-2911 -10913 0
-6768 -10913 0
2911 6768 10913 0
-7245 -10020 0
-7245 -11020 0
-10020 -11020 0
7245 10020 11020 0
-8726 -9266 0
-8726 -11021 0
-9266 -11021 0
8726 9266 11021 0
-11022 -11023 0
-11022 -11024 0
-11023 -11024 0
11022 11023 11024 0
-11025 -11026 0
-11025 -11027 0
-11026 -11027 0
11025 11026 11027 0
-3934 -8785 0
-3934 -11028 0
-8785 -11028 0
3934 8785 11028 0
-8366 -10428 0
-8366 -11029 0
-10428 -11029 0
8366 10428 11029 0
-983 -11030 0
-983 -11031 0
-11030 -11031 0
983 11030 11031 0
-11032 -11033 0
-11032 -11034 0
-11033 -11034 0
11032 11033 11034 0
-11035 -11036 0
-11035 -11037 0
-11036 -11037 0
11035 11036 11037 0
-1440 -8764 0
-1440 -11038 0
-8764 -11038 0
1440 8764 11038 0
-3556 -11039 0
-3556 -11040 0
-11039 -11040 0
3556 11039 11040 0
-6437 -11041 0
-6437 -11042 0
-11041 -11042 0
6437 11041 11042 0
-5037 -11043 0
-5037 -11044 0
-11043 -11044 0
5037 11043 11044 0
-2702 -7966 0
-2702 -11045 0
-7966 -11045 0
2702 7966 11045 0
-5122 -8560 0
-5122 -11046 0
-8560 -11046 0
5122 8560 11046 0
-7863 -11047 0
-7863 -11048 0
-11047 -11048 0
7863 11047 11048 0
-9415 -11049 0
-9415 -11050 0
-11049 -11050 0
9415 11049 11050 0
-8747 -10207 0
-8747 -11008 0
-10207 -11008 0
8747 10207 11008 0
-10854 -11051 0
-10854 -11052 0
-11051 -11052 0
10854 11051 11052 0
-11053 -11054 0
-11053 -11055 0
-11054 -11055 0
11053 11054 11055 0
-7241 -11056 0
-7241 -11057 0
-11056 -11057 0
7241 11056 11057 0
-3396 -9452 0
-3396 -11058 0
-9452 -11058 0
3396 9452 11058 0
-8264 -9378 0
-8264 -11059 0
-9378 -11059 0
8264 9378 11059 0
-3905 -9646 0
-3905 -11060 0
-9646 -11060 0
3905 9646 11060 0
-5824 -11061 0
-5824 -11062 0
-11061 -11062 0
5824 11061 11062 0
-5142 -6112 0
-5142 -11063 0
-6112 -11063 0
5142 6112 11063 0
-2799 -5577 0
-2799 -11064 0
-5577 -11064 0
2799 5577 11064 0
-7643 -11065 0
-7643 -11066 0
-11065 -11066 0
7643 11065 11066 0
-5168 -5870 0
-5168 -11067 0
-5870 -11067 0
5168 5870 11067 0
-1903 -7044 0
-1903 -11068 0
-7044 -11068 0
1903 7044 11068 0
-11069 -11070 0
-11069 -11071 0
-11070 -11071 0
11069 11070 11071 0
-8871 -11072 0
-8871 -11073 0
-11072 -11073 0
8871 11072 11073 0
-5642 -9054 0
-5642 -11074 0
-9054 -11074 0
5642 9054 11074 0
-11075 -11076 0
-11075 -11077 0
-11076 -11077 0
11075 11076 11077 0
-1211 -6689 0
-1211 -11078 0
-6689 -11078 0
1211 6689 11078 0
-8208 -10608 0
-8208 -10648 0
-10608 -10648 0
8208 10608 10648 0
-7100 -11079 0
-7100 -11080 0
-11079 -11080 0
7100 11079 11080 0
-9255 -11081 0
-9255 -11082 0
-11081 -11082 0
9255 11081 11082 0
-8157 -11083 0
-8157 -11084 0
-11083 -11084 0
8157 11083 11084 0
-5979 -11085 0
-5979 -11086 0
-11085 -11086 0
5979 11085 11086 0
-11035 -11087 0
-11035 -11088 0
-11087 -11088 0
11035 11087 11088 0
-8138 -10620 0
-8138 -11089 0
-10620 -11089 0
8138 10620 11089 0
-11039 -11041 0
-11039 -11090 0
-11041 -11090 0
11039 11041 11090 0
-5182 -11091 0
-5182 -11092 0
-11091 -11092 0
5182 11091 11092 0
-9539 -11093 0
-9539 -11094 0
-11093 -11094 0
9539 11093 11094 0
-4366 -7654 0
-4366 -11095 0
-7654 -11095 0
4366 7654 11095 0
-7277 -8227 0
-7277 -11096 0
-8227 -11096 0
7277 8227 11096 0
-3677 -5368 0
-3677 -10758 0
-5368 -10758 0
3677 5368 10758 0
-2040 -11097 0
-2040 -11098 0
-11097 -11098 0
2040 11097 11098 0
-11099 -11100 0
-11099 -11101 0
-11100 -11101 0
11099 11100 11101 0
-4758 -6731 0
-4758 -11102 0
-6731 -11102 0
4758 6731 11102 0
-1110 -11103 0
-1110 -11104 0
-11103 -11104 0
1110 11103 11104 0
-1501 -5299 0
-1501 -7204 0
-5299 -7204 0
1501 5299 7204 0
-2870 -8672 0
-2870 -11105 0
-8672 -11105 0
2870 8672 11105 0
-2611 -11106 0
-2611 -11107 0
-11106 -11107 0
2611 11106 11107 0
-7772 -10228 0
-7772 -11108 0
-10228 -11108 0
7772 10228 11108 0
-3295 -11109 0
-3295 -11110 0
-11109 -11110 0
3295 11109 11110 0
-5798 -9870 0
-5798 -11111 0
-9870 -11111 0
5798 9870 11111 0
-910 -7336 0
-910 -10680 0
-7336 -10680 0
910 7336 10680 0
-1662 -11112 0
-1662 -11113 0
-11112 -11113 0
1662 11112 11113 0
-5952 -11114 0
-5952 -11115 0
-11114 -11115 0
5952 11114 11115 0
-149 -11051 0
-149 -11116 0
-11051 -11116 0
149 11051 11116 0
-583 -11117 0
-583 -11118 0
-11117 -11118 0
583 11117 11118 0
-10684 -11043 0
-10684 -11119 0
-11043 -11119 0
10684 11043 11119 0
-3424 -7242 0
-3424 -11120 0
-7242 -11120 0
3424 7242 11120 0
-9450 -11121 0
-9450 -11122 0
-11121 -11122 0
9450 11121 11122 0
-1559 -11123 0
-1559 -11124 0
-11123 -11124 0
1559 11123 11124 0
-7152 -11125 0
-7152 -11126 0
-11125 -11126 0
7152 11125 11126 0
-609 -3431 0
-609 -11127 0
-3431 -11127 0
609 3431 11127 0
-5965 -7691 0
-5965 -11128 0
-7691 -11128 0
5965 7691 11128 0
-3034 -3879 0
-3034 -10523 0
-3879 -10523 0
3034 3879 10523 0
-11129 -11130 0
-11129 -11131 0
-11130 -11131 0
11129 11130 11131 0
-2218 -11132 0
-2218 -11133 0
-11132 -11133 0
2218 11132 11133 0
-11134 -11135 0
-11134 -11136 0
-11135 -11136 0
11134 11135 11136 0
-3817 -9299 0
-3817 -11137 0
-9299 -11137 0
3817 9299 11137 0
-5397 -8771 0
-5397 -11138 0
-8771 -11138 0
5397 8771 11138 0
-3407 -6914 0
-3407 -11139 0
-6914 -11139 0
3407 6914 11139 0
-5423 -5712 0
-5423 -10445 0
-5712 -10445 0
5423 5712 10445 0
-4227 -10343 0
-4227 -11140 0
-10343 -11140 0
4227 10343 11140 0
-1028 -9977 0
-1028 -11141 0
-9977 -11141 0
1028 9977 11141 0
-8043 -11142 0
-8043 -11143 0
-11142 -11143 0
8043 11142 11143 0
-6694 -11144 0
-6694 -11145 0
-11144 -11145 0
6694 11144 11145 0
-11146 -11147 0
-11146 -11148 0
-11147 -11148 0
11146 11147 11148 0
-10499 -11149 0
-10499 -11150 0
-11149 -11150 0
10499 11149 11150 0
-6597 -11151 0
-6597 -11152 0
-11151 -11152 0
6597 11151 11152 0
-11153 -11154 0
-11153 -11155 0
-11154 -11155 0
11153 11154 11155 0
-11156 -11157 0
-11156 -11158 0
-11157 -11158 0
11156 11157 11158 0
-5348 -8031 0
-5348 -11159 0
-8031 -11159 0
5348 8031 11159 0
-8316 -11160 0
-8316 -11161 0
-11160 -11161 0
8316 11160 11161 0
-11162 -11163 0
-11162 -11164 0
-11163 -11164 0
11162 11163 11164 0
-1381 -1719 0
-1381 -8658 0
-1719 -8658 0
1381 1719 8658 0
-4270 -5369 0
-4270 -6735 0
-5369 -6735 0
4270 5369 6735 0
-11165 -11166 0
-11165 -11167 0
-11166 -11167 0
11165 11166 11167 0
-11168 -11169 0
-11168 -11170 0
-11169 -11170 0
11168 11169 11170 0
-2818 -6372 0
-2818 -11171 0
-6372 -11171 0
2818 6372 11171 0
-4548 -11172 0
-4548 -11173 0
-11172 -11173 0
4548 11172 11173 0
-6074 -11174 0
-6074 -11175 0
-11174 -11175 0
6074 11174 11175 0
-5116 -10630 0
-5116 -11176 0
-10630 -11176 0
5116 10630 11176 0
-5281 -11177 0
-5281 -11178 0
-11177 -11178 0
5281 11177 11178 0
-9940 -10812 0
-9940 -11179 0
-10812 -11179 0
9940 10812 11179 0
-11180 -11181 0
-11180 -11182 0
-11181 -11182 0
11180 11181 11182 0
-11183 -11184 0
-11183 -11185 0
-11184 -11185 0
11183 11184 11185 0
-8189 -11186 0
-8189 -11187 0
-11186 -11187 0
8189 11186 11187 0
-2152 -7789 0
-2152 -11188 0
-7789 -11188 0
2152 7789 11188 0
-3724 -3748 0
-3724 -11189 0
-3748 -11189 0
3724 3748 11189 0
-3217 -11190 0
-3217 -11191 0
-11190 -11191 0
3217 11190 11191 0
-10958 -11192 0
-10958 -11193 0
-11192 -11193 0
10958 11192 11193 0
-4460 -6561 0
-4460 -11194 0
-6561 -11194 0
4460 6561 11194 0
-3529 -8483 0
-3529 -11195 0
-8483 -11195 0
3529 8483 11195 0
-7805 -11196 0
-7805 -11197 0
-11196 -11197 0
7805 11196 11197 0
-612 -6194 0
-612 -11198 0
-6194 -11198 0
612 6194 11198 0
-1968 -10880 0
-1968 -11199 0
-10880 -11199 0
1968 10880 11199 0
-9643 -11200 0
-9643 -11201 0
-11200 -11201 0
9643 11200 11201 0
-3080 -3550 0
-3080 -11202 0
-3550 -11202 0
3080 3550 11202 0
-2723 -8736 0
-2723 -11203 0
-8736 -11203 0
2723 8736 11203 0
-10205 -10654 0
-10205 -10683 0
-10654 -10683 0
10205 10654 10683 0
-6307 -9928 0
-6307 -11204 0
-9928 -11204 0
6307 9928 11204 0
-9307 -11121 0
-9307 -11205 0
-11121 -11205 0
9307 11121 11205 0
-1255 -4927 0
-1255 -5968 0
-4927 -5968 0
1255 4927 5968 0
-11206 -11207 0
-11206 -11208 0
-11207 -11208 0
11206 11207 11208 0
-3947 -8872 0
-3947 -11209 0
-8872 -11209 0
3947 8872 11209 0
-1195 -4973 0
-1195 -11210 0
-4973 -11210 0
1195 4973 11210 0
-10816 -11211 0
-10816 -11212 0
-11211 -11212 0
10816 11211 11212 0
-11213 -11214 0
-11213 -11215 0
-11214 -11215 0
11213 11214 11215 0
-2724 -6732 0
-2724 -6950 0
-6732 -6950 0
2724 6732 6950 0
-2344 -11216 0
-2344 -11217 0
-11216 -11217 0
2344 11216 11217 0
-2632 -11218 0
-2632 -11219 0
-11218 -11219 0
2632 11218 11219 0
-6367 -10905 0
-6367 -11220 0
-10905 -11220 0
6367 10905 11220 0
-4543 -4985 0
-4543 -11221 0
-4985 -11221 0
4543 4985 11221 0
-3917 -9354 0
-3917 -11204 0
-9354 -11204 0
3917 9354 11204 0
-2132 -9623 0
-2132 -11222 0
-9623 -11222 0
2132 9623 11222 0
-11223 -11224 0
-11223 -11225 0
-11224 -11225 0
11223 11224 11225 0
-10431 -10783 0
-10431 -11226 0
-10783 -11226 0
10431 10783 11226 0
-9532 -11227 0
-9532 -11228 0
-11227 -11228 0
9532 11227 11228 0
-11229 -11230 0
-11229 -11231 0
-11230 -11231 0
11229 11230 11231 0
-5253 -11232 0
-5253 -11233 0
-11232 -11233 0
5253 11232 11233 0
-724 -11068 0
-724 -11234 0
-11068 -11234 0
724 11068 11234 0
-11235 -11236 0
-11235 -11237 0
-11236 -11237 0
11235 11236 11237 0
-7376 -11238 0
-7376 -11239 0
-11238 -11239 0
7376 11238 11239 0
-1242 -5233 0
-1242 -11240 0
-5233 -11240 0
1242 5233 11240 0
-7967 -11168 0
-7967 -11241 0
-11168 -11241 0
7967 11168 11241 0
-11162 -11242 0
-11162 -11243 0
-11242 -11243 0
11162 11242 11243 0
-4380 -11244 0
-4380 -11245 0
-11244 -11245 0
4380 11244 11245 0
-11246 -11247 0
-11246 -11248 0
-11247 -11248 0
11246 11247 11248 0
-6472 -11249 0
-6472 -11250 0
-11249 -11250 0
6472 11249 11250 0
-11251 -11252 0
-11251 -11253 0
-11252 -11253 0
11251 11252 11253 0
-2064 -11254 0
-2064 -11255 0
-11254 -11255 0
2064 11254 11255 0
-3930 -7698 0
-3930 -11256 0
-7698 -11256 0
3930 7698 11256 0
-7065 -7738 0
-7065 -11257 0
-7738 -11257 0
7065 7738 11257 0
-6261 -9935 0
-6261 -11258 0
-9935 -11258 0
6261 9935 11258 0
-4609 -10733 0
-4609 -11259 0
-10733 -11259 0
4609 10733 11259 0
-5504 -8561 0
-5504 -11260 0
-8561 -11260 0
5504 8561 11260 0
-3489 -11261 0
-3489 -11262 0
-11261 -11262 0
3489 11261 11262 0
-7006 -8545 0
-7006 -11263 0
-8545 -11263 0
7006 8545 11263 0
-7762 -9593 0
-7762 -11264 0
-9593 -11264 0
7762 9593 11264 0
-2199 -11265 0
-2199 -11266 0
-11265 -11266 0
2199 11265 11266 0
-3025 -11267 0
-3025 -11268 0
-11267 -11268 0
3025 11267 11268 0
-9027 -11142 0
-9027 -11269 0
-11142 -11269 0
9027 11142 11269 0
-3149 -11270 0
-3149 -11271 0
-11270 -11271 0
3149 11270 11271 0
-9388 -10726 0
-9388 -11272 0
-10726 -11272 0
9388 10726 11272 0
-11273 -11274 0
-11273 -11275 0
-11274 -11275 0
11273 11274 11275 0
-1063 -11276 0
-1063 -11277 0
-11276 -11277 0
1063 11276 11277 0
-5312 -11153 0
-5312 -11278 0
-11153 -11278 0
5312 11153 11278 0
-6308 -11279 0
-6308 -11280 0
-11279 -11280 0
6308 11279 11280 0
-9770 -11281 0
-9770 -11282 0
-11281 -11282 0
9770 11281 11282 0
-9907 -11283 0
-9907 -11284 0
-11283 -11284 0
9907 11283 11284 0
-5759 -8098 0
-5759 -11285 0
-8098 -11285 0
5759 8098 11285 0
-3874 -11286 0
-3874 -11287 0
-11286 -11287 0
3874 11286 11287 0
-11288 -11289 0
-11288 -11290 0
-11289 -11290 0
11288 11289 11290 0
-11291 -11292 0
-11291 -11293 0
-11292 -11293 0
11291 11292 11293 0
-2560 -11294 0
-2560 -11295 0
-11294 -11295 0
2560 11294 11295 0
-5902 -7037 0
-5902 -10075 0
-7037 -10075 0
5902 7037 10075 0
-1939 -8312 0
-1939 -8577 0
-8312 -8577 0
1939 8312 8577 0
-2714 -11296 0
-2714 -11297 0
-11296 -11297 0
2714 11296 11297 0
-9431 -11298 0
-9431 -11299 0
-11298 -11299 0
9431 11298 11299 0
-7764 -11300 0
-7764 -11301 0
-11300 -11301 0
7764 11300 11301 0
-11302 -11303 0
-11302 -11304 0
-11303 -11304 0
11302 11303 11304 0
-184 -11305 0
-184 -11306 0
-11305 -11306 0
184 11305 11306 0
-1317 -5828 0
-1317 -7742 0
-5828 -7742 0
1317 5828 7742 0
-5626 -11307 0
-5626 -11308 0
-11307 -11308 0
5626 11307 11308 0
-11309 -11310 0
-11309 -11311 0
-11310 -11311 0
11309 11310 11311 0
-1550 -11312 0
-1550 -11313 0
-11312 -11313 0
1550 11312 11313 0
-3574 -7306 0
-3574 -7513 0
-7306 -7513 0
3574 7306 7513 0
-7298 -8048 0
-7298 -11314 0
-8048 -11314 0
7298 8048 11314 0
-4112 -11315 0
-4112 -11316 0
-11315 -11316 0
4112 11315 11316 0
-3081 -11317 0
-3081 -11318 0
-11317 -11318 0
3081 11317 11318 0
-862 -4827 0
-862 -11319 0
-4827 -11319 0
862 4827 11319 0
-5322 -11221 0
-5322 -11320 0
-11221 -11320 0
5322 11221 11320 0
-7197 -11270 0
-7197 -11321 0
-11270 -11321 0
7197 11270 11321 0
-945 -9785 0
-945 -11322 0
-9785 -11322 0
945 9785 11322 0
-4779 -11294 0
-4779 -11323 0
-11294 -11323 0
4779 11294 11323 0
-2502 -11324 0
-2502 -11325 0
-11324 -11325 0
2502 11324 11325 0
-7998 -10050 0
-7998 -11326 0
-10050 -11326 0
7998 10050 11326 0
-5134 -11137 0
-5134 -11327 0
-11137 -11327 0
5134 11137 11327 0
-2955 -11328 0
-2955 -11329 0
-11328 -11329 0
2955 11328 11329 0
-2021 -8909 0
-2021 -11330 0
-8909 -11330 0
2021 8909 11330 0
-1894 -3427 0
-1894 -11331 0
-3427 -11331 0
1894 3427 11331 0
-11332 -11333 0
-11332 -11334 0
-11333 -11334 0
11332 11333 11334 0
-3726 -4943 0
-3726 -10817 0
-4943 -10817 0
3726 4943 10817 0
-5390 -10168 0
-5390 -11335 0
-10168 -11335 0
5390 10168 11335 0
-8580 -8927 0
-8580 -11336 0
-8927 -11336 0
8580 8927 11336 0
-5408 -6078 0
-5408 -11337 0
-6078 -11337 0
5408 6078 11337 0
-4646 -11038 0
-4646 -11338 0
-11038 -11338 0
4646 11038 11338 0
-8673 -11339 0
-8673 -11340 0
-11339 -11340 0
8673 11339 11340 0
-3796 -8268 0
-3796 -11341 0
-8268 -11341 0
3796 8268 11341 0
-7393 -11342 0
-7393 -11343 0
-11342 -11343 0
7393 11342 11343 0
-1437 -6184 0
-1437 -11344 0
-6184 -11344 0
1437 6184 11344 0
-3938 -7042 0
-3938 -11345 0
-7042 -11345 0
3938 7042 11345 0
-1769 -6798 0
-1769 -11346 0
-6798 -11346 0
1769 6798 11346 0
-5615 -11347 0
-5615 -11348 0
-11347 -11348 0
5615 11347 11348 0
-1409 -11349 0
-1409 -11350 0
-11349 -11350 0
1409 11349 11350 0
-11351 -11352 0
-11351 -11353 0
-11352 -11353 0
11351 11352 11353 0
-8904 -10220 0
-8904 -10291 0
-10220 -10291 0
8904 10220 10291 0
-7686 -8519 0
-7686 -11354 0
-8519 -11354 0
7686 8519 11354 0
-2663 -10177 0
-2663 -11355 0
-10177 -11355 0
2663 10177 11355 0
-1520 -11356 0
-1520 -11357 0
-11356 -11357 0
1520 11356 11357 0
-2512 -11358 0
-2512 -11359 0
-11358 -11359 0
2512 11358 11359 0
-11360 -11361 0
-11360 -11362 0
-11361 -11362 0
11360 11361 11362 0
-8228 -10370 0
-8228 -11363 0
-10370 -11363 0
8228 10370 11363 0
-5274 -11364 0
-5274 -11365 0
-11364 -11365 0
5274 11364 11365 0
-3928 -11366 0
-3928 -11367 0
-11366 -11367 0
3928 11366 11367 0
-5858 -11368 0
-5858 -11369 0
-11368 -11369 0
5858 11368 11369 0
-7160 -11179 0
-7160 -11370 0
-11179 -11370 0
7160 11179 11370 0
-5727 -11279 0
-5727 -11371 0
-11279 -11371 0
5727 11279 11371 0
-2680 -5764 0
-2680 -9641 0
-5764 -9641 0
2680 5764 9641 0
-6197 -11372 0
-6197 -11373 0
-11372 -11373 0
6197 11372 11373 0
-11374 -11375 0
-11374 -11376 0
-11375 -11376 0
11374 11375 11376 0
-3994 -5821 0
-3994 -7170 0
-5821 -7170 0
3994 5821 7170 0
-4216 -11377 0
-4216 -11378 0
-11377 -11378 0
4216 11377 11378 0
-9587 -10671 0
-9587 -11379 0
-10671 -11379 0
9587 10671 11379 0
-5874 -11380 0
-5874 -11381 0
-11380 -11381 0
5874 11380 11381 0
-7626 -11382 0
-7626 -11383 0
-11382 -11383 0
7626 11382 11383 0
-5213 -11384 0
-5213 -11385 0
-11384 -11385 0
5213 11384 11385 0
-936 -2530 0
-936 -8224 0
-2530 -8224 0
936 2530 8224 0
-1489 -10825 0
-1489 -11386 0
-10825 -11386 0
1489 10825 11386 0
-3908 -4870 0
-3908 -9267 0
-4870 -9267 0
3908 4870 9267 0
-11387 -11388 0
-11387 -11389 0
-11388 -11389 0
11387 11388 11389 0
-3563 -11390 0
-3563 -11391 0
-11390 -11391 0
3563 11390 11391 0
-5337 -5472 0
-5337 -11392 0
-5472 -11392 0
5337 5472 11392 0
-5906 -8844 0
-5906 -11393 0
-8844 -11393 0
5906 8844 11393 0
-6672 -11394 0
-6672 -11395 0
-11394 -11395 0
6672 11394 11395 0
-8722 -9555 0
-8722 -11396 0
-9555 -11396 0
8722 9555 11396 0
-2567 -11397 0
-2567 -11398 0
-11397 -11398 0
2567 11397 11398 0
-5053 -9522 0
-5053 -9945 0
-9522 -9945 0
5053 9522 9945 0
-3265 -8322 0
-3265 -11399 0
-8322 -11399 0
3265 8322 11399 0
-9046 -10457 0
-9046 -11400 0
-10457 -11400 0
9046 10457 11400 0
-2616 -9782 0
-2616 -11401 0
-9782 -11401 0
2616 9782 11401 0
-5766 -11402 0
-5766 -11403 0
-11402 -11403 0
5766 11402 11403 0
-4731 -6869 0
-4731 -11404 0
-6869 -11404 0
4731 6869 11404 0
-8539 -8914 0
-8539 -11405 0
-8914 -11405 0
8539 8914 11405 0
-5079 -10214 0
-5079 -11406 0
-10214 -11406 0
5079 10214 11406 0
-11407 -11408 0
-11407 -11409 0
-11408 -11409 0
11407 11408 11409 0
-11410 -11411 0
-11410 -11412 0
-11411 -11412 0
11410 11411 11412 0
-11199 -11413 0
-11199 -11414 0
-11413 -11414 0
11199 11413 11414 0
-7621 -8954 0
-7621 -11415 0
-8954 -11415 0
7621 8954 11415 0
-7859 -11416 0
-7859 -11417 0
-11416 -11417 0
7859 11416 11417 0
-165 -11418 0
-165 -11419 0
-11418 -11419 0
165 11418 11419 0
-5000 -6050 0
-5000 -6631 0
-6050 -6631 0
5000 6050 6631 0
-10190 -11420 0
-10190 -11421 0
-11420 -11421 0
10190 11420 11421 0
-2497 -6665 0
-2497 -11422 0
-6665 -11422 0
2497 6665 11422 0
-3962 -7566 0
-3962 -10635 0
-7566 -10635 0
3962 7566 10635 0
-8629 -11423 0
-8629 -11424 0
-11423 -11424 0
8629 11423 11424 0
-2696 -8767 0
-2696 -8786 0
-8767 -8786 0
2696 8767 8786 0
-4975 -11425 0
-4975 -11426 0
-11425 -11426 0
4975 11425 11426 0
-634 -11427 0
-634 -11428 0
-11427 -11428 0
634 11427 11428 0
-11429 -11430 0
-11429 -11431 0
-11430 -11431 0
11429 11430 11431 0
-2343 -4749 0
-2343 -7604 0
-4749 -7604 0
2343 4749 7604 0
-5704 -7757 0
-5704 -11432 0
-7757 -11432 0
5704 7757 11432 0
-3462 -11433 0
-3462 -11434 0
-11433 -11434 0
3462 11433 11434 0
-9152 -11435 0
-9152 -11436 0
-11435 -11436 0
9152 11435 11436 0
-858 -10859 0
-858 -11437 0
-10859 -11437 0
858 10859 11437 0
-1743 -11438 0
-1743 -11439 0
-11438 -11439 0
1743 11438 11439 0
-11246 -11440 0
-11246 -11441 0
-11440 -11441 0
11246 11440 11441 0
-7205 -10988 0
-7205 -11442 0
-10988 -11442 0
7205 10988 11442 0
-744 -11443 0
-744 -11444 0
-11443 -11444 0
744 11443 11444 0
-6509 -11445 0
-6509 -11446 0
-11445 -11446 0
6509 11445 11446 0
-3388 -11447 0
-3388 -11448 0
-11447 -11448 0
3388 11447 11448 0
-201 -6960 0
-201 -11449 0
-6960 -11449 0
201 6960 11449 0
-11450 -11451 0
-11450 -11452 0
-11451 -11452 0
11450 11451 11452 0
-140 -3666 0
-140 -11453 0
-3666 -11453 0
140 3666 11453 0
-11454 -11455 0
-11454 -11456 0
-11455 -11456 0
11454 11455 11456 0
-3139 -9813 0
-3139 -11457 0
-9813 -11457 0
3139 9813 11457 0
-1546 -11458 0
-1546 -11459 0
-11458 -11459 0
1546 11458 11459 0
-7340 -11163 0
-7340 -11460 0
-11163 -11460 0
7340 11163 11460 0
-5815 -8421 0
-5815 -11461 0
-8421 -11461 0
5815 8421 11461 0
-7722 -11462 0
-7722 -11463 0
-11462 -11463 0
7722 11462 11463 0
-2532 -10275 0
-2532 -11464 0
-10275 -11464 0
2532 10275 11464 0
-8286 -11465 0
-8286 -11466 0
-11465 -11466 0
8286 11465 11466 0
-1173 -1779 0
-1173 -11467 0
-1779 -11467 0
1173 1779 11467 0
-7668 -10322 0
-7668 -11468 0
-10322 -11468 0
7668 10322 11468 0
-2177 -6363 0
-2177 -7587 0
-6363 -7587 0
2177 6363 7587 0
-893 -2897 0
-893 -11144 0
-2897 -11144 0
893 2897 11144 0
-11469 -11470 0
-11469 -11471 0
-11470 -11471 0
11469 11470 11471 0
-9025 -9498 0
-9025 -11472 0
-9498 -11472 0
9025 9498 11472 0
-11473 -11474 0
-11473 -11475 0
-11474 -11475 0
11473 11474 11475 0
-4107 -4280 0
-4107 -8277 0
-4280 -8277 0
4107 4280 8277 0
-10119 -11476 0
-10119 -11477 0
-11476 -11477 0
10119 11476 11477 0
-11478 -11479 0
-11478 -11480 0
-11479 -11480 0
11478 11479 11480 0
-5527 -11481 0
-5527 -11482 0
-11481 -11482 0
5527 11481 11482 0
-1565 -7366 0
-1565 -11483 0
-7366 -11483 0
1565 7366 11483 0
-8078 -9614 0
-8078 -11484 0
-9614 -11484 0
8078 9614 11484 0
-1329 -11296 0
-1329 -11485 0
-11296 -11485 0
1329 11296 11485 0
-11331 -11486 0
-11331 -11487 0
-11486 -11487 0
11331 11486 11487 0
-5966 -6393 0
-5966 -11488 0
-6393 -11488 0
5966 6393 11488 0
-4391 -8409 0
-4391 -11489 0
-8409 -11489 0
4391 8409 11489 0
-11374 -11490 0
-11374 -11491 0
-11490 -11491 0
11374 11490 11491 0
-4440 -8530 0
-4440 -11492 0
-8530 -11492 0
4440 8530 11492 0
-10947 -11493 0
-10947 -11494 0
-11493 -11494 0
10947 11493 11494 0
-6450 -11495 0
-6450 -11496 0
-11495 -11496 0
6450 11495 11496 0
-11497 -11498 0
-11497 -11499 0
-11498 -11499 0
11497 11498 11499 0
-1548 -8597 0
-1548 -11500 0
-8597 -11500 0
1548 8597 11500 0
-6782 -11501 0
-6782 -11502 0
-11501 -11502 0
6782 11501 11502 0
-5955 -7269 0
-5955 -8520 0
-7269 -8520 0
5955 7269 8520 0
-7066 -11503 0
-7066 -11504 0
-11503 -11504 0
7066 11503 11504 0
-2938 -11505 0
-2938 -11506 0
-11505 -11506 0
2938 11505 11506 0
-8175 -11507 0
-8175 -11508 0
-11507 -11508 0
8175 11507 11508 0
-1388 -7163 0
-1388 -11509 0
-7163 -11509 0
1388 7163 11509 0
-11510 -11511 0
-11510 -11512 0
-11511 -11512 0
11510 11511 11512 0
-8294 -11513 0
-8294 -11514 0
-11513 -11514 0
8294 11513 11514 0
-4938 -11515 0
-4938 -11516 0
-11515 -11516 0
4938 11515 11516 0
-3831 -4786 0
-3831 -11517 0
-4786 -11517 0
3831 4786 11517 0
-809 -3430 0
-809 -5245 0
-3430 -5245 0
809 3430 5245 0
-10039 -11518 0
-10039 -11519 0
-11518 -11519 0
10039 11518 11519 0
-6749 -8553 0
-6749 -11520 0
-8553 -11520 0
6749 8553 11520 0
-270 -7193 0
-270 -11521 0
-7193 -11521 0
270 7193 11521 0
-6186 -8326 0
-6186 -8910 0
-8326 -8910 0
6186 8326 8910 0
-345 -5975 0
-345 -11522 0
-5975 -11522 0
345 5975 11522 0
-11523 -11524 0
-11523 -11525 0
-11524 -11525 0
11523 11524 11525 0
-200 -11526 0
-200 -11527 0
-11526 -11527 0
200 11526 11527 0
-6251 -9370 0
-6251 -11528 0
-9370 -11528 0
6251 9370 11528 0
-2164 -7865 0
-2164 -11529 0
-7865 -11529 0
2164 7865 11529 0
-7548 -9962 0
-7548 -10554 0
-9962 -10554 0
7548 9962 10554 0
-10547 -10925 0
-10547 -11530 0
-10925 -11530 0
10547 10925 11530 0
-1309 -2673 0
-1309 -11531 0
-2673 -11531 0
1309 2673 11531 0
-8887 -11532 0
-8887 -11533 0
-11532 -11533 0
8887 11532 11533 0
-4494 -9589 0
-4494 -11534 0
-9589 -11534 0
4494 9589 11534 0
-1874 -4902 0
-1874 -11535 0
-4902 -11535 0
1874 4902 11535 0
-1373 -9034 0
-1373 -11536 0
-9034 -11536 0
1373 9034 11536 0
-4764 -11372 0
-4764 -11537 0
-11372 -11537 0
4764 11372 11537 0
-11309 -11538 0
-11309 -11539 0
-11538 -11539 0
11309 11538 11539 0
-7970 -11540 0
-7970 -11541 0
-11540 -11541 0
7970 11540 11541 0
-6882 -8941 0
-6882 -10636 0
-8941 -10636 0
6882 8941 10636 0
-968 -8127 0
-968 -11542 0
-8127 -11542 0
968 8127 11542 0
-5291 -11543 0
-5291 -11544 0
-11543 -11544 0
5291 11543 11544 0
-9598 -11545 0
-9598 -11546 0
-11545 -11546 0
9598 11545 11546 0
-3413 -7151 0
-3413 -11547 0
-7151 -11547 0
3413 7151 11547 0
-1973 -2681 0
-1973 -11548 0
-2681 -11548 0
1973 2681 11548 0
-5401 -10637 0
-5401 -11549 0
-10637 -11549 0
5401 10637 11549 0
-10361 -11550 0
-10361 -11551 0
-11550 -11551 0
10361 11550 11551 0
-4120 -9878 0
-4120 -11552 0
-9878 -11552 0
4120 9878 11552 0
-11553 -11554 0
-11553 -11555 0
-11554 -11555 0
11553 11554 11555 0
-1684 -10371 0
-1684 -11556 0
-10371 -11556 0
1684 10371 11556 0
-4619 -11557 0
-4619 -11558 0
-11557 -11558 0
4619 11557 11558 0
-5125 -11559 0
-5125 -11560 0
-11559 -11560 0
5125 11559 11560 0
-4549 -11561 0
-4549 -11562 0
-11561 -11562 0
4549 11561 11562 0
-7356 -11563 0
-7356 -11564 0
-11563 -11564 0
7356 11563 11564 0
-1084 -11565 0
-1084 -11566 0
-11565 -11566 0
1084 11565 11566 0
-11567 -11568 0
-11567 -11569 0
-11568 -11569 0
11567 11568 11569 0
-8732 -11570 0
-8732 -11571 0
-11570 -11571 0
8732 11570 11571 0
-2624 -11572 0
-2624 -11573 0
-11572 -11573 0
2624 11572 11573 0
-5467 -11574 0
-5467 -11575 0
-11574 -11575 0
5467 11574 11575 0
-2117 -5773 0
-2117 -11576 0
-5773 -11576 0
2117 5773 11576 0
-4228 -6907 0
-4228 -9637 0
-6907 -9637 0
4228 6907 9637 0
-705 -11577 0
-705 -11578 0
-11577 -11578 0
705 11577 11578 0
-11579 -11580 0
-11579 -11581 0
-11580 -11581 0
11579 11580 11581 0
-11582 -11583 0
-11582 -11584 0
-11583 -11584 0
11582 11583 11584 0
-6275 -10017 0
-6275 -11585 0
-10017 -11585 0
6275 10017 11585 0
-7369 -8402 0
-7369 -11586 0
-8402 -11586 0
7369 8402 11586 0
-4580 -11587 0
-4580 -11588 0
-11587 -11588 0
4580 11587 11588 0
-9635 -11589 0
-9635 -11590 0
-11589 -11590 0
9635 11589 11590 0
-4050 -11591 0
-4050 -11592 0
-11591 -11592 0
4050 11591 11592 0
-4795 -5754 0
-4795 -11593 0
-5754 -11593 0
4795 5754 11593 0
-11594 -11595 0
-11594 -11596 0
-11595 -11596 0
11594 11595 11596 0
-2783 -11597 0
-2783 -11598 0
-11597 -11598 0
2783 11597 11598 0
-11599 -11600 0
-11599 -11601 0
-11600 -11601 0
11599 11600 11601 0
-745 -11602 0
-745 -11603 0
-11602 -11603 0
745 11602 11603 0
-5632 -11604 0
-5632 -11605 0
-11604 -11605 0
5632 11604 11605 0
-10458 -11606 0
-10458 -11607 0
-11606 -11607 0
10458 11606 11607 0
-8919 -9499 0
-8919 -11608 0
-9499 -11608 0
8919 9499 11608 0
-10983 -11609 0
-10983 -11610 0
-11609 -11610 0
10983 11609 11610 0
-3199 -8517 0
-3199 -11611 0
-8517 -11611 0
3199 8517 11611 0
-2505 -4465 0
-2505 -11612 0
-4465 -11612 0
2505 4465 11612 0
-2987 -11613 0
-2987 -11614 0
-11613 -11614 0
2987 11613 11614 0
-5216 -11615 0
-5216 -11616 0
-11615 -11616 0
5216 11615 11616 0
-3870 -10495 0
-3870 -11617 0
-10495 -11617 0
3870 10495 11617 0
-1324 -11044 0
-1324 -11618 0
-11044 -11618 0
1324 11044 11618 0
-8749 -10372 0
-8749 -11619 0
-10372 -11619 0
8749 10372 11619 0
-195 -10319 0
-195 -11620 0
-10319 -11620 0
195 10319 11620 0
-6761 -7815 0
-6761 -11621 0
-7815 -11621 0
6761 7815 11621 0
-971 -2229 0
-971 -10847 0
-2229 -10847 0
971 2229 10847 0
-2914 -9301 0
-2914 -11622 0
-9301 -11622 0
2914 9301 11622 0
-1424 -11623 0
-1424 -11624 0
-11623 -11624 0
1424 11623 11624 0
-11625 -11626 0
-11625 -11627 0
-11626 -11627 0
11625 11626 11627 0
-9373 -11628 0
-9373 -11629 0
-11628 -11629 0
9373 11628 11629 0
-1676 -8058 0
-1676 -11630 0
-8058 -11630 0
1676 8058 11630 0
-399 -11631 0
-399 -11632 0
-11631 -11632 0
399 11631 11632 0
-5040 -11633 0
-5040 -11634 0
-11633 -11634 0
5040 11633 11634 0
-6360 -11635 0
-6360 -11636 0
-11635 -11636 0
6360 11635 11636 0
-9359 -10203 0
-9359 -11637 0
-10203 -11637 0
9359 10203 11637 0
-1156 -3853 0
-1156 -5756 0
-3853 -5756 0
1156 3853 5756 0
-11638 -11639 0
-11638 -11640 0
-11639 -11640 0
11638 11639 11640 0
-2193 -3343 0
-2193 -11641 0
-3343 -11641 0
2193 3343 11641 0
-1299 -9149 0
-1299 -11642 0
-9149 -11642 0
1299 9149 11642 0
-4861 -11643 0
-4861 -11644 0
-11643 -11644 0
4861 11643 11644 0
-9929 -11457 0
-9929 -11645 0
-11457 -11645 0
9929 11457 11645 0
-5114 -11646 0
-5114 -11647 0
-11646 -11647 0
5114 11646 11647 0
-11648 -11649 0
-11648 -11650 0
-11649 -11650 0
11648 11649 11650 0
-8317 -11651 0
-8317 -11652 0
-11651 -11652 0
8317 11651 11652 0
-6737 -7647 0
-6737 -11653 0
-7647 -11653 0
6737 7647 11653 0
-5493 -9317 0
-5493 -11211 0
-9317 -11211 0
5493 9317 11211 0
-340 -6002 0
-340 -10933 0
-6002 -10933 0
340 6002 10933 0
-6381 -9261 0
-6381 -11654 0
-9261 -11654 0
6381 9261 11654 0
-3296 -5928 0
-3296 -11655 0
-5928 -11655 0
3296 5928 11655 0
-2668 -9604 0
-2668 -10298 0
-9604 -10298 0
2668 9604 10298 0
-4946 -5491 0
-4946 -11656 0
-5491 -11656 0
4946 5491 11656 0
-6048 -9948 0
-6048 -11657 0
-9948 -11657 0
6048 9948 11657 0
-8020 -11658 0
-8020 -11659 0
-11658 -11659 0
8020 11658 11659 0
-258 -11660 0
-258 -11661 0
-11660 -11661 0
258 11660 11661 0
-9557 -11662 0
-9557 -11663 0
-11662 -11663 0
9557 11662 11663 0
-1389 -11664 0
-1389 -11665 0
-11664 -11665 0
1389 11664 11665 0
-8857 -10910 0
-8857 -11666 0
-10910 -11666 0
8857 10910 11666 0
-3584 -4725 0
-3584 -11667 0
-4725 -11667 0
3584 4725 11667 0
-5589 -11668 0
-5589 -11669 0
-11668 -11669 0
5589 11668 11669 0
-85 -5683 0
-85 -11670 0
-5683 -11670 0
85 5683 11670 0
-8062 -8443 0
-8062 -11671 0
-8443 -11671 0
8062 8443 11671 0
-10376 -10621 0
-10376 -11672 0
-10621 -11672 0
10376 10621 11672 0
-11673 -11674 0
-11673 -11675 0
-11674 -11675 0
11673 11674 11675 0
-11040 -11676 0
-11040 -11677 0
-11676 -11677 0
11040 11676 11677 0
-806 -4783 0
-806 -11678 0
-4783 -11678 0
806 4783 11678 0
-2495 -11679 0
-2495 -11680 0
-11679 -11680 0
2495 11679 11680 0
-11317 -11681 0
-11317 -11682 0
-11681 -11682 0
11317 11681 11682 0
-2834 -11132 0
-2834 -11683 0
-11132 -11683 0
2834 11132 11683 0
-3459 -11684 0
-3459 -11685 0
-11684 -11685 0
3459 11684 11685 0
-4137 -10922 0
-4137 -11172 0
-10922 -11172 0
4137 10922 11172 0
-9400 -11507 0
-9400 -11686 0
-11507 -11686 0
9400 11507 11686 0
-4200 -11687 0
-4200 -11688 0
-11687 -11688 0
4200 11687 11688 0
-1636 -4661 0
-1636 -9193 0
-4661 -9193 0
1636 4661 9193 0
-8014 -11689 0
-8014 -11690 0
-11689 -11690 0
8014 11689 11690 0
-4143 -11567 0
-4143 -11691 0
-11567 -11691 0
4143 11567 11691 0
-1816 -4712 0
-1816 -7793 0
-4712 -7793 0
1816 4712 7793 0
-65 -11692 0
-65 -11693 0
-11692 -11693 0
65 11692 11693 0
-11318 -11694 0
-11318 -11695 0
-11694 -11695 0
11318 11694 11695 0
-11258 -11696 0
-11258 -11697 0
-11696 -11697 0
11258 11696 11697 0
-1365 -7559 0
-1365 -11698 0
-7559 -11698 0
1365 7559 11698 0
-3980 -5395 0
-3980 -9896 0
-5395 -9896 0
3980 5395 9896 0
-6762 -10475 0
-6762 -11699 0
-10475 -11699 0
6762 10475 11699 0
-11700 -11701 0
-11700 -11702 0
-11701 -11702 0
11700 11701 11702 0
-4530 -11281 0
-4530 -11382 0
-11281 -11382 0
4530 11281 11382 0
-3713 -6847 0
-3713 -11703 0
-6847 -11703 0
3713 6847 11703 0
-8796 -11704 0
-8796 -11705 0
-11704 -11705 0
8796 11704 11705 0
-8901 -11706 0
-8901 -11707 0
-11706 -11707 0
8901 11706 11707 0
-6319 -9206 0
-6319 -11708 0
-9206 -11708 0
6319 9206 11708 0
-11074 -11709 0
-11074 -11710 0
-11709 -11710 0
11074 11709 11710 0
-4925 -11711 0
-4925 -11712 0
-11711 -11712 0
4925 11711 11712 0
-11188 -11713 0
-11188 -11714 0
-11713 -11714 0
11188 11713 11714 0
-281 -4793 0
-281 -9287 0
-4793 -9287 0
281 4793 9287 0
-1475 -11715 0
-1475 -11716 0
-11715 -11716 0
1475 11715 11716 0
-11717 -11718 0
-11717 -11719 0
-11718 -11719 0
11717 11718 11719 0
-851 -4687 0
-851 -11720 0
-4687 -11720 0
851 4687 11720 0
-5338 -10716 0
-5338 -11721 0
-10716 -11721 0
5338 10716 11721 0
-9738 -11379 0
-9738 -11722 0
-11379 -11722 0
9738 11379 11722 0
-9235 -11723 0
-9235 -11724 0
-11723 -11724 0
9235 11723 11724 0
-7744 -11725 0
-7744 -11726 0
-11725 -11726 0
7744 11725 11726 0
-4820 -8017 0
-4820 -10901 0
-8017 -10901 0
4820 8017 10901 0
-563 -11727 0
-563 -11728 0
-11727 -11728 0
563 11727 11728 0
-2882 -8777 0
-2882 -11729 0
-8777 -11729 0
2882 8777 11729 0
-6135 -11478 0
-6135 -11730 0
-11478 -11730 0
6135 11478 11730 0
-5816 -9279 0
-5816 -11731 0
-9279 -11731 0
5816 9279 11731 0
-83 -1760 0
-83 -9919 0
-1760 -9919 0
83 1760 9919 0
-4592 -6707 0
-4592 -11216 0
-6707 -11216 0
4592 6707 11216 0
-6968 -11732 0
-6968 -11733 0
-11732 -11733 0
6968 11732 11733 0
-618 -733 0
-618 -11734 0
-733 -11734 0
618 733 11734 0
-7867 -11735 0
-7867 -11736 0
-11735 -11736 0
7867 11735 11736 0
-5997 -7139 0
-5997 -11737 0
-7139 -11737 0
5997 7139 11737 0
-2284 -9904 0
-2284 -11738 0
-9904 -11738 0
2284 9904 11738 0
-4035 -11739 0
-4035 -11740 0
-11739 -11740 0
4035 11739 11740 0
-11741 -11742 0
-11741 -11743 0
-11742 -11743 0
11741 11742 11743 0
-6064 -11354 0
-6064 -11744 0
-11354 -11744 0
6064 11354 11744 0
-2515 -7387 0
-2515 -11267 0
-7387 -11267 0
2515 7387 11267 0
-4165 -6237 0
-4165 -8948 0
-6237 -8948 0
4165 6237 8948 0
-2219 -11745 0
-2219 -11746 0
-11745 -11746 0
2219 11745 11746 0
-5073 -6383 0
-5073 -11747 0
-6383 -11747 0
5073 6383 11747 0
-4092 -6857 0
-4092 -11195 0
-6857 -11195 0
4092 6857 11195 0
-2234 -11748 0
-2234 -11749 0
-11748 -11749 0
2234 11748 11749 0
-20 -9846 0
-20 -11750 0
-9846 -11750 0
20 9846 11750 0
-11751 -11752 0
-11751 -11753 0
-11752 -11753 0
11751 11752 11753 0
-3656 -6217 0
-3656 -11754 0
-6217 -11754 0
3656 6217 11754 0
-1377 -6757 0
-1377 -11755 0
-6757 -11755 0
1377 6757 11755 0
-11756 -11757 0
-11756 -11758 0
-11757 -11758 0
11756 11757 11758 0
-5443 -6783 0
-5443 -8301 0
-6783 -8301 0
5443 6783 8301 0
-928 -7052 0
-928 -11759 0
-7052 -11759 0
928 7052 11759 0
-11760 -11761 0
-11760 -11762 0
-11761 -11762 0
11760 11761 11762 0
-2927 -4317 0
-2927 -11763 0
-4317 -11763 0
2927 4317 11763 0
-11764 -11765 0
-11764 -11766 0
-11765 -11766 0
11764 11765 11766 0
-11402 -11415 0
-11402 -11767 0
-11415 -11767 0
11402 11415 11767 0
-6348 -11768 0
-6348 -11769 0
-11768 -11769 0
6348 11768 11769 0
-8110 -11006 0
-8110 -11770 0
-11006 -11770 0
8110 11006 11770 0
-8873 -11771 0
-8873 -11772 0
-11771 -11772 0
8873 11771 11772 0
-11481 -11773 0
-11481 -11774 0
-11773 -11774 0
11481 11773 11774 0
-1448 -11775 0
-1448 -11776 0
-11775 -11776 0
1448 11775 11776 0
-810 -8377 0
-810 -11777 0
-8377 -11777 0
810 8377 11777 0
-2141 -5651 0
-2141 -7841 0
-5651 -7841 0
2141 5651 7841 0
-5107 -11778 0
-5107 -11779 0
-11778 -11779 0
5107 11778 11779 0
-3192 -11780 0
-3192 -11781 0
-11780 -11781 0
3192 11780 11781 0
-1449 -9094 0
-1449 -11782 0
-9094 -11782 0
1449 9094 11782 0
-158 -2847 0
-158 -11563 0
-2847 -11563 0
158 2847 11563 0
-370 -11783 0
-370 -11784 0
-11783 -11784 0
370 11783 11784 0
-11401 -11785 0
-11401 -11786 0
-11785 -11786 0
11401 11785 11786 0
-9922 -11180 0
-9922 -11787 0
-11180 -11787 0
9922 11180 11787 0
-11764 -11788 0
-11764 -11789 0
-11788 -11789 0
11764 11788 11789 0
-6318 -11790 0
-6318 -11791 0
-11790 -11791 0
6318 11790 11791 0
-4167 -6621 0
-4167 -11792 0
-6621 -11792 0
4167 6621 11792 0
-8991 -11793 0
-8991 -11794 0
-11793 -11794 0
8991 11793 11794 0
-9102 -11337 0
-9102 -11795 0
-11337 -11795 0
9102 11337 11795 0
-7747 -11796 0
-7747 -11797 0
-11796 -11797 0
7747 11796 11797 0
-9225 -11798 0
-9225 -11799 0
-11798 -11799 0
9225 11798 11799 0
-11800 -11801 0
-11800 -11802 0
-11801 -11802 0
11800 11801 11802 0
-10426 -11803 0
-10426 -11804 0
-11803 -11804 0
10426 11803 11804 0
-7253 -11805 0
-7253 -11806 0
-11805 -11806 0
7253 11805 11806 0
-11286 -11807 0
-11286 -11808 0
-11807 -11808 0
11286 11807 11808 0
-9901 -11809 0
-9901 -11810 0
-11809 -11810 0
9901 11809 11810 0
-4025 -8118 0
-4025 -10963 0
-8118 -10963 0
4025 8118 10963 0
-6556 -10826 0
-6556 -11811 0
-10826 -11811 0
6556 10826 11811 0
-11812 -11813 0
-11812 -11814 0
-11813 -11814 0
11812 11813 11814 0
-5743 -9171 0
-5743 -11815 0
-9171 -11815 0
5743 9171 11815 0
-7861 -10483 0
-7861 -11816 0
-10483 -11816 0
7861 10483 11816 0
-9437 -11653 0
-9437 -11768 0
-11653 -11768 0
9437 11653 11768 0
-8981 -11817 0
-8981 -11818 0
-11817 -11818 0
8981 11817 11818 0
-2984 -5279 0
-2984 -11819 0
-5279 -11819 0
2984 5279 11819 0
-5731 -11820 0
-5731 -11821 0
-11820 -11821 0
5731 11820 11821 0
-796 -2700 0
-796 -10725 0
-2700 -10725 0
796 2700 10725 0
-14 -11822 0
-14 -11823 0
-11822 -11823 0
14 11822 11823 0
-2912 -7171 0
-2912 -11824 0
-7171 -11824 0
2912 7171 11824 0
-9100 -9999 0
-9100 -11809 0
-9999 -11809 0
9100 9999 11809 0
-6655 -9042 0
-6655 -11825 0
-9042 -11825 0
6655 9042 11825 0
-2243 -11826 0
-2243 -11827 0
-11826 -11827 0
2243 11826 11827 0
-11792 -11828 0
-11792 -11829 0
-11828 -11829 0
11792 11828 11829 0
-10954 -11830 0
-10954 -11831 0
-11830 -11831 0
10954 11830 11831 0
-10598 -11210 0
-10598 -11832 0
-11210 -11832 0
10598 11210 11832 0
-2078 -6828 0
-2078 -11833 0
-6828 -11833 0
2078 6828 11833 0
-3894 -11834 0
-3894 -11835 0
-11834 -11835 0
3894 11834 11835 0
-2785 -11836 0
-2785 -11837 0
-11836 -11837 0
2785 11836 11837 0
-9065 -11700 0
-9065 -11838 0
-11700 -11838 0
9065 11700 11838 0
-6875 -11839 0
-6875 -11840 0
-11839 -11840 0
6875 11839 11840 0
-202 -11841 0
-202 -11842 0
-11841 -11842 0
202 11841 11842 0
-9031 -11490 0
-9031 -11843 0
-11490 -11843 0
9031 11490 11843 0
-7658 -11844 0
-7658 -11845 0
-11844 -11845 0
7658 11844 11845 0
-8280 -10352 0
-8280 -11846 0
-10352 -11846 0
8280 10352 11846 0
-11847 -11848 0
-11847 -11849 0
-11848 -11849 0
11847 11848 11849 0
-5080 -7557 0
-5080 -11689 0
-7557 -11689 0
5080 7557 11689 0
-7750 -11850 0
-7750 -11851 0
-11850 -11851 0
7750 11850 11851 0
-5147 -6818 0
-5147 -11852 0
-6818 -11852 0
5147 6818 11852 0
-8878 -11853 0
-8878 -11854 0
-11853 -11854 0
8878 11853 11854 0
-2087 -6312 0
-2087 -7368 0
-6312 -7368 0
2087 6312 7368 0
-6340 -9902 0
-6340 -11855 0
-9902 -11855 0
6340 9902 11855 0
-3245 -11022 0
-3245 -11523 0
-11022 -11523 0
3245 11022 11523 0
-6949 -7490 0
-6949 -11856 0
-7490 -11856 0
6949 7490 11856 0
-1735 -3629 0
-1735 -5691 0
-3629 -5691 0
1735 3629 5691 0
-2499 -11857 0
-2499 -11858 0
-11857 -11858 0
2499 11857 11858 0
-9705 -11859 0
-9705 -11860 0
-11859 -11860 0
9705 11859 11860 0
-119 -11861 0
-119 -11862 0
-11861 -11862 0
119 11861 11862 0
-4984 -11251 0
-4984 -11812 0
-11251 -11812 0
4984 11251 11812 0
-11863 -11864 0
-11863 -11865 0
-11864 -11865 0
11863 11864 11865 0
-1731 -6394 0
-1731 -11866 0
-6394 -11866 0
1731 6394 11866 0
-2169 -11867 0
-2169 -11868 0
-11867 -11868 0
2169 11867 11868 0
-9631 -11662 0
-9631 -11869 0
-11662 -11869 0
9631 11662 11869 0
-4400 -11870 0
-4400 -11871 0
-11870 -11871 0
4400 11870 11871 0
-6555 -11872 0
-6555 -11873 0
-11872 -11873 0
6555 11872 11873 0
-2014 -11874 0
-2014 -11875 0
-11874 -11875 0
2014 11874 11875 0
-2073 -3577 0
-2073 -11876 0
-3577 -11876 0
2073 3577 11876 0
-3776 -11877 0
-3776 -11878 0
-11877 -11878 0
3776 11877 11878 0
-7088 -7224 0
-7088 -11879 0
-7224 -11879 0
7088 7224 11879 0
-4727 -7228 0
-4727 -11880 0
-7228 -11880 0
4727 7228 11880 0
-11881 -11882 0
-11881 -11883 0
-11882 -11883 0
11881 11882 11883 0
-8410 -11884 0
-8410 -11885 0
-11884 -11885 0
8410 11884 11885 0
-3848 -7025 0
-3848 -9913 0
-7025 -9913 0
3848 7025 9913 0
-10965 -10973 0
-10965 -11886 0
-10973 -11886 0
10965 10973 11886 0
-1209 -11887 0
-1209 -11888 0
-11887 -11888 0
1209 11887 11888 0
-2131 -7933 0
-2131 -11889 0
-7933 -11889 0
2131 7933 11889 0
-9275 -11890 0
-9275 -11891 0
-11890 -11891 0
9275 11890 11891 0
-5031 -7619 0
-5031 -11892 0
-7619 -11892 0
5031 7619 11892 0
-6577 -11893 0
-6577 -11894 0
-11893 -11894 0
6577 11893 11894 0
-1386 -8344 0
-1386 -11895 0
-8344 -11895 0
1386 8344 11895 0
-4059 -11510 0
-4059 -11896 0
-11510 -11896 0
4059 11510 11896 0
-11897 -11898 0
-11897 -11899 0
-11898 -11899 0
11897 11898 11899 0
-10611 -11900 0
-10611 -11901 0
-11900 -11901 0
10611 11900 11901 0
-3372 -10580 0
-3372 -11902 0
-10580 -11902 0
3372 10580 11902 0
-11903 -11904 0
-11903 -11905 0
-11904 -11905 0
11903 11904 11905 0
-702 -7236 0
-702 -8757 0
-7236 -8757 0
702 7236 8757 0
-10774 -11906 0
-10774 -11907 0
-11906 -11907 0
10774 11906 11907 0
-10984 -11908 0
-10984 -11909 0
-11908 -11909 0
10984 11908 11909 0
-8963 -9677 0
-8963 -11342 0
-9677 -11342 0
8963 9677 11342 0
-11910 -11911 0
-11910 -11912 0
-11911 -11912 0
11910 11911 11912 0
-5214 -11732 0
-5214 -11913 0
-11732 -11913 0
5214 11732 11913 0
-4947 -7146 0
-4947 -8728 0
-7146 -8728 0
4947 7146 8728 0
-5701 -7049 0
-5701 -11914 0
-7049 -11914 0
5701 7049 11914 0
-7286 -11915 0
-7286 -11916 0
-11915 -11916 0
7286 11915 11916 0
-2852 -4862 0
-2852 -11917 0
-4862 -11917 0
2852 4862 11917 0
-6638 -9659 0
-6638 -11918 0
-9659 -11918 0
6638 9659 11918 0
-736 -1581 0
-736 -11919 0
-1581 -11919 0
736 1581 11919 0
-6440 -11920 0
-6440 -11921 0
-11920 -11921 0
6440 11920 11921 0
-5135 -11922 0
-5135 -11923 0
-11922 -11923 0
5135 11922 11923 0
-9519 -11924 0
-9519 -11925 0
-11924 -11925 0
9519 11924 11925 0
-9274 -9662 0
-9274 -11252 0
-9662 -11252 0
9274 9662 11252 0
-8310 -9444 0
-8310 -11926 0
-9444 -11926 0
8310 9444 11926 0
-11927 -11928 0
-11927 -11929 0
-11928 -11929 0
11927 11928 11929 0
-220 -6527 0
-220 -8942 0
-6527 -8942 0
220 6527 8942 0
-6342 -11028 0
-6342 -11930 0
-11028 -11930 0
6342 11028 11930 0
-6428 -7560 0
-6428 -11931 0
-7560 -11931 0
6428 7560 11931 0
-9314 -11272 0
-9314 -11932 0
-11272 -11932 0
9314 11272 11932 0
-4976 -7788 0
-4976 -11933 0
-7788 -11933 0
4976 7788 11933 0
-4062 -11934 0
-4062 -11935 0
-11934 -11935 0
4062 11934 11935 0
-123 -7680 0
-123 -11936 0
-7680 -11936 0
123 7680 11936 0
-10966 -11937 0
-10966 -11938 0
-11937 -11938 0
10966 11937 11938 0
-11939 -11940 0
-11939 -11941 0
-11940 -11941 0
11939 11940 11941 0
-10769 -11942 0
-10769 -11943 0
-11942 -11943 0
10769 11942 11943 0
-5038 -11944 0
-5038 -11945 0
-11944 -11945 0
5038 11944 11945 0
-11946 -11947 0
-11946 -11948 0
-11947 -11948 0
11946 11947 11948 0
-3537 -4942 0
-3537 -11949 0
-4942 -11949 0
3537 4942 11949 0
-11950 -11951 0
-11950 -11952 0
-11951 -11952 0
11950 11951 11952 0
-8890 -10067 0
-8890 -11953 0
-10067 -11953 0
8890 10067 11953 0
-5161 -11954 0
-5161 -11955 0
-11954 -11955 0
5161 11954 11955 0
-932 -2907 0
-932 -11956 0
-2907 -11956 0
932 2907 11956 0
-8134 -11957 0
-8134 -11958 0
-11957 -11958 0
8134 11957 11958 0
-1946 -10975 0
-1946 -11959 0
-10975 -11959 0
1946 10975 11959 0
-3877 -7775 0
-3877 -9993 0
-7775 -9993 0
3877 7775 9993 0
-8258 -11960 0
-8258 -11961 0
-11960 -11961 0
8258 11960 11961 0
-5710 -7852 0
-5710 -11962 0
-7852 -11962 0
5710 7852 11962 0
-5822 -7866 0
-5822 -11963 0
-7866 -11963 0
5822 7866 11963 0
-8453 -11964 0
-8453 -11965 0
-11964 -11965 0
8453 11964 11965 0
-10529 -11966 0
-10529 -11967 0
-11966 -11967 0
10529 11966 11967 0
-1633 -8607 0
-1633 -11968 0
-8607 -11968 0
1633 8607 11968 0
-11969 -11970 0
-11969 -11971 0
-11970 -11971 0
11969 11970 11971 0
-1707 -6041 0
-1707 -7058 0
-6041 -7058 0
1707 6041 7058 0
-11918 -11972 0
-11918 -11973 0
-11972 -11973 0
11918 11972 11973 0
-1294 -3467 0
-1294 -9768 0
-3467 -9768 0
1294 3467 9768 0
-11974 -11975 0
-11974 -11976 0
-11975 -11976 0
11974 11975 11976 0
-2310 -7630 0
-2310 -11977 0
-7630 -11977 0
2310 7630 11977 0
-2045 -11978 0
-2045 -11979 0
-11978 -11979 0
2045 11978 11979 0
-10192 -11980 0
-10192 -11981 0
-11980 -11981 0
10192 11980 11981 0
-6870 -11982 0
-6870 -11983 0
-11982 -11983 0
6870 11982 11983 0
-7660 -9482 0
-7660 -10236 0
-9482 -10236 0
7660 9482 10236 0
-10597 -11420 0
-10597 -11984 0
-11420 -11984 0
10597 11420 11984 0
-6885 -10318 0
-6885 -11985 0
-10318 -11985 0
6885 10318 11985 0
-4624 -9774 0
-4624 -10022 0
-9774 -10022 0
4624 9774 10022 0
-6970 -11986 0
-6970 -11987 0
-11986 -11987 0
6970 11986 11987 0
-7710 -11988 0
-7710 -11989 0
-11988 -11989 0
7710 11988 11989 0
-3951 -9477 0
-3951 -11990 0
-9477 -11990 0
3951 9477 11990 0
-6758 -11991 0
-6758 -11992 0
-11991 -11992 0
6758 11991 11992 0
-7932 -11993 0
-7932 -11994 0
-11993 -11994 0
7932 11993 11994 0
-11995 -11996 0
-11995 -11997 0
-11996 -11997 0
11995 11996 11997 0
-2935 -4674 0
-2935 -5956 0
-4674 -5956 0
2935 4674 5956 0
-6005 -11998 0
-6005 -11999 0
-11998 -11999 0
6005 11998 11999 0
-7856 -10166 0
-7856 -12000 0
-10166 -12000 0
7856 10166 12000 0
-1366 -12001 0
-1366 -12002 0
-12001 -12002 0
1366 12001 12002 0
-6026 -7323 0
-6026 -12003 0
-7323 -12003 0
6026 7323 12003 0
-9420 -12004 0
-9420 -12005 0
-12004 -12005 0
9420 12004 12005 0
-7702 -9069 0
-7702 -10164 0
-9069 -10164 0
7702 9069 10164 0
-1965 -2126 0
-1965 -6397 0
-2126 -6397 0
1965 2126 6397 0
-6023 -10041 0
-6023 -12006 0
-10041 -12006 0
6023 10041 12006 0
-7389 -12007 0
-7389 -12008 0
-12007 -12008 0
7389 12007 12008 0
-8230 -10908 0
-8230 -12009 0
-10908 -12009 0
8230 10908 12009 0
-5454 -11280 0
-5454 -12010 0
-11280 -12010 0
5454 11280 12010 0
-8915 -11717 0
-8915 -12011 0
-11717 -12011 0
8915 11717 12011 0
-7072 -11771 0
-7072 -12012 0
-11771 -12012 0
7072 11771 12012 0
-4743 -11105 0
-4743 -12013 0
-11105 -12013 0
4743 11105 12013 0
-8039 -12014 0
-8039 -12015 0
-12014 -12015 0
8039 12014 12015 0
-12016 -12017 0
-12016 -12018 0
-12017 -12018 0
12016 12017 12018 0
-1780 -3640 0
-1780 -3882 0
-3640 -3882 0
1780 3640 3882 0
-4639 -5407 0
-4639 -10404 0
-5407 -10404 0
4639 5407 10404 0
-5881 -6930 0
-5881 -9492 0
-6930 -9492 0
5881 6930 9492 0
-1560 -11012 0
-1560 -12019 0
-11012 -12019 0
1560 11012 12019 0
-6032 -6634 0
-6032 -12020 0
-6634 -12020 0
6032 6634 12020 0
-293 -9689 0
-293 -10572 0
-9689 -10572 0
293 9689 10572 0
-4767 -11872 0
-4767 -12021 0
-11872 -12021 0
4767 11872 12021 0
-7105 -12022 0
-7105 -12023 0
-12022 -12023 0
7105 12022 12023 0
-2189 -12024 0
-2189 -12025 0
-12024 -12025 0
2189 12024 12025 0
-43 -3921 0
-43 -12026 0
-3921 -12026 0
43 3921 12026 0
-10844 -11390 0
-10844 -12027 0
-11390 -12027 0
10844 11390 12027 0
-7510 -12028 0
-7510 -12029 0
-12028 -12029 0
7510 12028 12029 0
-6897 -9642 0
-6897 -11247 0
-9642 -11247 0
6897 9642 11247 0
-3541 -10001 0
-3541 -12030 0
-10001 -12030 0
3541 10001 12030 0
-1427 -9052 0
-1427 -12031 0
-9052 -12031 0
1427 9052 12031 0
-8765 -9917 0
-8765 -11769 0
-9917 -11769 0
8765 9917 11769 0
-11259 -11754 0
-11259 -12032 0
-11754 -12032 0
11259 11754 12032 0
-7096 -9516 0
-7096 -11427 0
-9516 -11427 0
7096 9516 11427 0
-3306 -3756 0
-3306 -12033 0
-3756 -12033 0
3306 3756 12033 0
-981 -8029 0
-981 -11934 0
-8029 -11934 0
981 8029 11934 0
-2890 -8386 0
-2890 -11597 0
-8386 -11597 0
2890 8386 11597 0
-1696 -2808 0
-1696 -12034 0
-2808 -12034 0
1696 2808 12034 0
-7184 -12035 0
-7184 -12036 0
-12035 -12036 0
7184 12035 12036 0
-6680 -12037 0
-6680 -12038 0
-12037 -12038 0
6680 12037 12038 0
-9530 -12039 0
-9530 -12040 0
-12039 -12040 0
9530 12039 12040 0
-9190 -12041 0
-9190 -12042 0
-12041 -12042 0
9190 12041 12042 0
-6551 -12043 0
-6551 -12044 0
-12043 -12044 0
6551 12043 12044 0
-6578 -9024 0
-6578 -12045 0
-9024 -12045 0
6578 9024 12045 0
-5497 -7038 0
-5497 -10662 0
-7038 -10662 0
5497 7038 10662 0
-5437 -6076 0
-5437 -12046 0
-6076 -12046 0
5437 6076 12046 0
-11192 -12047 0
-11192 -12048 0
-12047 -12048 0
11192 12047 12048 0
-1720 -7274 0
-1720 -12049 0
-7274 -12049 0
1720 7274 12049 0
-8690 -12050 0
-8690 -12051 0
-12050 -12051 0
8690 12050 12051 0
-5517 -10030 0
-5517 -12052 0
-10030 -12052 0
5517 10030 12052 0
-4600 -7734 0
-4600 -9847 0
-7734 -9847 0
4600 7734 9847 0
-9133 -12053 0
-9133 -12054 0
-12053 -12054 0
9133 12053 12054 0
-7913 -12055 0
-7913 -12056 0
-12055 -12056 0
7913 12055 12056 0
-6918 -10674 0
-6918 -12057 0
-10674 -12057 0
6918 10674 12057 0
-4467 -6904 0
-4467 -9836 0
-6904 -9836 0
4467 6904 9836 0
-3292 -12058 0
-3292 -12059 0
-12058 -12059 0
3292 12058 12059 0
-3702 -12060 0
-3702 -12061 0
-12060 -12061 0
3702 12060 12061 0
-9028 -10276 0
-9028 -12062 0
-10276 -12062 0
9028 10276 12062 0
-12063 -12064 0
-12063 -12065 0
-12064 -12065 0
12063 12064 12065 0
-1406 -1860 0
-1406 -12066 0
-1860 -12066 0
1406 1860 12066 0
-5315 -6109 0
-5315 -12067 0
-6109 -12067 0
5315 6109 12067 0
-9331 -12068 0
-9331 -12069 0
-12068 -12069 0
9331 12068 12069 0
-12070 -12071 0
-12070 -12072 0
-12071 -12072 0
12070 12071 12072 0
-12073 -12074 0
-12073 -12075 0
-12074 -12075 0
12073 12074 12075 0
-11645 -12076 0
-11645 -12077 0
-12076 -12077 0
11645 12076 12077 0
-2939 -9856 0
-2939 -11935 0
-9856 -11935 0
2939 9856 11935 0
-6234 -12078 0
-6234 -12079 0
-12078 -12079 0
6234 12078 12079 0
-8438 -11874 0
-8438 -12080 0
-11874 -12080 0
8438 11874 12080 0
-4186 -11658 0
-4186 -11684 0
-11658 -11684 0
4186 11658 11684 0
-7445 -12081 0
-7445 -12082 0
-12081 -12082 0
7445 12081 12082 0
-925 -6484 0
-925 -12083 0
-6484 -12083 0
925 6484 12083 0
-10327 -12084 0
-10327 -12085 0
-12084 -12085 0
10327 12084 12085 0
-9223 -12086 0
-9223 -12087 0
-12086 -12087 0
9223 12086 12087 0
-1145 -7293 0
-1145 -12088 0
-7293 -12088 0
1145 7293 12088 0
-3915 -4303 0
-3915 -12089 0
-4303 -12089 0
3915 4303 12089 0
-5996 -11165 0
-5996 -12090 0
-11165 -12090 0
5996 11165 12090 0
-10293 -11476 0
-10293 -12091 0
-11476 -12091 0
10293 11476 12091 0
-138 -11962 0
-138 -12092 0
-11962 -12092 0
138 11962 12092 0
-9741 -12093 0
-9741 -12094 0
-12093 -12094 0
9741 12093 12094 0
-12095 -12096 0
-12095 -12097 0
-12096 -12097 0
12095 12096 12097 0
-1247 -12098 0
-1247 -12099 0
-12098 -12099 0
1247 12098 12099 0
-2273 -12100 0
-2273 -12101 0
-12100 -12101 0
2273 12100 12101 0
-1287 -8638 0
-1287 -12102 0
-8638 -12102 0
1287 8638 12102 0
-9270 -9703 0
-9270 -12103 0
-9703 -12103 0
9270 9703 12103 0
-12104 -12105 0
-12104 -12106 0
-12105 -12106 0
12104 12105 12106 0
-6488 -9123 0
-6488 -9216 0
-9123 -9216 0
6488 9123 9216 0
-12107 -12108 0
-12107 -12109 0
-12108 -12109 0
12107 12108 12109 0
-2707 -6751 0
-2707 -12110 0
-6751 -12110 0
2707 6751 12110 0
-9923 -10644 0
-9923 -12111 0
-10644 -12111 0
9923 10644 12111 0
-8051 -12112 0
-8051 -12113 0
-12112 -12113 0
8051 12112 12113 0
-7827 -12114 0
-7827 -12115 0
-12114 -12115 0
7827 12114 12115 0
-8470 -12116 0
-8470 -12117 0
-12116 -12117 0
8470 12116 12117 0
-11473 -12118 0
-11473 -12119 0
-12118 -12119 0
11473 12118 12119 0
-12120 -12121 0
-12120 -12122 0
-12121 -12122 0
12120 12121 12122 0
-6071 -8696 0
-6071 -8978 0
-8696 -8978 0
6071 8696 8978 0
-7682 -7945 0
-7682 -12123 0
-7945 -12123 0
7682 7945 12123 0
-3224 -12124 0
-3224 -12125 0
-12124 -12125 0
3224 12124 12125 0
-2156 -12126 0
-2156 -12127 0
-12126 -12127 0
2156 12126 12127 0
-9125 -11493 0
-9125 -12128 0
-11493 -12128 0
9125 11493 12128 0
-5280 -10447 0
-5280 -12129 0
-10447 -12129 0
5280 10447 12129 0
-7550 -11146 0
-7550 -12130 0
-11146 -12130 0
7550 11146 12130 0
-12131 -12132 0
-12131 -12133 0
-12132 -12133 0
12131 12132 12133 0
-1457 -9040 0
-1457 -12134 0
-9040 -12134 0
1457 9040 12134 0
-8288 -10530 0
-8288 -12135 0
-10530 -12135 0
8288 10530 12135 0
-1111 -11249 0
-1111 -12136 0
-11249 -12136 0
1111 11249 12136 0
-7287 -8787 0
-7287 -10065 0
-8787 -10065 0
7287 8787 10065 0
-3118 -5328 0
-3118 -9894 0
-5328 -9894 0
3118 5328 9894 0
-2622 -12137 0
-2622 -12138 0
-12137 -12138 0
2622 12137 12138 0
-5672 -11685 0
-5672 -12139 0
-11685 -12139 0
5672 11685 12139 0
-5230 -6245 0
-5230 -10890 0
-6245 -10890 0
5230 6245 10890 0
-4239 -11276 0
-4239 -12140 0
-11276 -12140 0
4239 11276 12140 0
-4281 -11694 0
-4281 -12141 0
-11694 -12141 0
4281 11694 12141 0
-7103 -12142 0
-7103 -12143 0
-12142 -12143 0
7103 12142 12143 0
-11924 -12063 0
-11924 -12144 0
-12063 -12144 0
11924 12063 12144 0
-11025 -12145 0
-11025 -12146 0
-12145 -12146 0
11025 12145 12146 0
-319 -912 0
-319 -7568 0
-912 -7568 0
319 912 7568 0
-12147 -12148 0
-12147 -12149 0
-12148 -12149 0
12147 12148 12149 0
-2898 -3269 0
-2898 -12150 0
-3269 -12150 0
2898 3269 12150 0
-1829 -12016 0
-1829 -12151 0
-12016 -12151 0
1829 12016 12151 0
-12152 -12153 0
-12152 -12154 0
-12153 -12154 0
12152 12153 12154 0
-3147 -12155 0
-3147 -12156 0
-12155 -12156 0
3147 12155 12156 0
-10909 -12157 0
-10909 -12158 0
-12157 -12158 0
10909 12157 12158 0
-877 -8848 0
-877 -12159 0
-8848 -12159 0
877 8848 12159 0
-9489 -12160 0
-9489 -12161 0
-12160 -12161 0
9489 12160 12161 0
-3453 -11323 0
-3453 -12162 0
-11323 -12162 0
3453 11323 12162 0
-5940 -12163 0
-5940 -12164 0
-12163 -12164 0
5940 12163 12164 0
-4840 -4954 0
-4840 -5428 0
-4954 -5428 0
4840 4954 5428 0
-5227 -6175 0
-5227 -12165 0
-6175 -12165 0
5227 6175 12165 0
-1191 -2827 0
-1191 -11756 0
-2827 -11756 0
1191 2827 11756 0
-1871 -11166 0
-1871 -12166 0
-11166 -12166 0
1871 11166 12166 0
-3867 -7428 0
-3867 -9112 0
-7428 -9112 0
3867 7428 9112 0
-5415 -10429 0
-5415 -12167 0
-10429 -12167 0
5415 10429 12167 0
-12168 -12169 0
-12168 -12170 0
-12169 -12170 0
12168 12169 12170 0
-11364 -12171 0
-11364 -12172 0
-12171 -12172 0
11364 12171 12172 0
-4364 -6249 0
-4364 -6739 0
-6249 -6739 0
4364 6249 6739 0
-11760 -12173 0
-11760 -12174 0
-12173 -12174 0
11760 12173 12174 0
-2048 -11795 0
-2048 -12175 0
-11795 -12175 0
2048 11795 12175 0
-2212 -7556 0
-2212 -12176 0
-7556 -12176 0
2212 7556 12176 0
-11081 -12177 0
-11081 -12178 0
-12177 -12178 0
11081 12177 12178 0
-11183 -11783 0
-11183 -12179 0
-11783 -12179 0
11183 11783 12179 0
-2742 -8826 0
-2742 -11205 0
-8826 -11205 0
2742 8826 11205 0
-7712 -12180 0
-7712 -12181 0
-12180 -12181 0
7712 12180 12181 0
-3744 -8075 0
-3744 -12182 0
-8075 -12182 0
3744 8075 12182 0
-2908 -8548 0
-2908 -12183 0
-8548 -12183 0
2908 8548 12183 0
-4383 -4629 0
-4383 -12184 0
-4629 -12184 0
4383 4629 12184 0
-6624 -10282 0
-6624 -11646 0
-10282 -11646 0
6624 10282 11646 0
-8150 -12185 0
-8150 -12186 0
-12185 -12186 0
8150 12185 12186 0
-3883 -12137 0
-3883 -12187 0
-12137 -12187 0
3883 12137 12187 0
-3735 -11397 0
-3735 -12188 0
-11397 -12188 0
3735 11397 12188 0
-3152 -6037 0
-3152 -12189 0
-6037 -12189 0
3152 6037 12189 0
-591 -5910 0
-591 -8444 0
-5910 -8444 0
591 5910 8444 0
-12190 -12191 0
-12190 -12192 0
-12191 -12192 0
12190 12191 12192 0
-1082 -5047 0
-1082 -5195 0
-5047 -5195 0
1082 5047 5195 0
-2194 -12193 0
-2194 -12194 0
-12193 -12194 0
2194 12193 12194 0
-2972 -12195 0
-2972 -12196 0
-12195 -12196 0
2972 12195 12196 0
-610 -12197 0
-610 -12198 0
-12197 -12198 0
610 12197 12198 0
-3774 -8953 0
-3774 -12199 0
-8953 -12199 0
3774 8953 12199 0
-7302 -12120 0
-7302 -12200 0
-12120 -12200 0
7302 12120 12200 0
-2486 -9119 0
-2486 -12201 0
-9119 -12201 0
2486 9119 12201 0
-2776 -5145 0
-2776 -12202 0
-5145 -12202 0
2776 5145 12202 0
-8129 -12203 0
-8129 -12204 0
-12203 -12204 0
8129 12203 12204 0
-4848 -10738 0
-4848 -12205 0
-10738 -12205 0
4848 10738 12205 0
-703 -7987 0
-703 -12206 0
-7987 -12206 0
703 7987 12206 0
-12207 -12208 0
-12207 -12209 0
-12208 -12209 0
12207 12208 12209 0
-12107 -12210 0
-12107 -12211 0
-12210 -12211 0
12107 12210 12211 0
-12212 -12213 0
-12212 -12214 0
-12213 -12214 0
12212 12213 12214 0
-2389 -3797 0
-2389 -12081 0
-3797 -12081 0
2389 3797 12081 0
-2253 -7398 0
-2253 -12215 0
-7398 -12215 0
2253 7398 12215 0
-5126 -12216 0
-5126 -12217 0
-12216 -12217 0
5126 12216 12217 0
-7743 -11083 0
-7743 -12218 0
-11083 -12218 0
7743 11083 12218 0
-9242 -11565 0
-9242 -12219 0
-11565 -12219 0
9242 11565 12219 0
-7896 -12220 0
-7896 -12221 0
-12220 -12221 0
7896 12220 12221 0
-6539 -11477 0
-6539 -12222 0
-11477 -12222 0
6539 11477 12222 0
-10941 -12223 0
-10941 -12224 0
-12223 -12224 0
10941 12223 12224 0
-6933 -12225 0
-6933 -12226 0
-12225 -12226 0
6933 12225 12226 0
-8216 -11285 0
-8216 -12227 0
-11285 -12227 0
8216 11285 12227 0
-6831 -10823 0
-6831 -12228 0
-10823 -12228 0
6831 10823 12228 0
-566 -2170 0
-566 -5780 0
-2170 -5780 0
566 2170 5780 0
-3501 -7410 0
-3501 -11524 0
-7410 -11524 0
3501 7410 11524 0
-5702 -8779 0
-5702 -12229 0
-8779 -12229 0
5702 8779 12229 0
-8073 -8499 0
-8073 -12230 0
-8499 -12230 0
8073 8499 12230 0
-10467 -12231 0
-10467 -12232 0
-12231 -12232 0
10467 12231 12232 0
-4912 -12233 0
-4912 -12234 0
-12233 -12234 0
4912 12233 12234 0
-1556 -4508 0
-1556 -4680 0
-4508 -4680 0
1556 4508 4680 0
-3897 -7452 0
-3897 -10337 0
-7452 -10337 0
3897 7452 10337 0
-1830 -12017 0
-1830 -12235 0
-12017 -12235 0
1830 12017 12235 0
-3106 -10863 0
-3106 -12236 0
-10863 -12236 0
3106 10863 12236 0
-7497 -7943 0
-7497 -10265 0
-7943 -10265 0
7497 7943 10265 0
-453 -3131 0
-453 -12237 0
-3131 -12237 0
453 3131 12237 0
-2891 -9548 0
-2891 -12238 0
-9548 -12238 0
2891 9548 12238 0
-8099 -11621 0
-8099 -12239 0
-11621 -12239 0
8099 11621 12239 0
-4250 -9883 0
-4250 -12240 0
-9883 -12240 0
4250 9883 12240 0
-12241 -12242 0
-12241 -12243 0
-12242 -12243 0
12241 12242 12243 0
-5431 -10347 0
-5431 -12244 0
-10347 -12244 0
5431 10347 12244 0
-699 -3021 0
-699 -3057 0
-3021 -3057 0
699 3021 3057 0
-11978 -12245 0
-11978 -12246 0
-12245 -12246 0
11978 12245 12246 0
-11594 -12247 0
-11594 -12248 0
-12247 -12248 0
11594 12247 12248 0
-12249 -12250 0
-12249 -12251 0
-12250 -12251 0
12249 12250 12251 0
-7784 -8382 0
-7784 -12252 0
-8382 -12252 0
7784 8382 12252 0
-3336 -3414 0
-3336 -10054 0
-3414 -10054 0
3336 3414 10054 0
-4355 -8030 0
-4355 -12253 0
-8030 -12253 0
4355 8030 12253 0
-6444 -12254 0
-6444 -12255 0
-12254 -12255 0
6444 12254 12255 0
-5697 -10172 0
-5697 -12256 0
-10172 -12256 0
5697 10172 12256 0
-12257 -12258 0
-12257 -12259 0
-12258 -12259 0
12257 12258 12259 0
-8827 -12260 0
-8827 -12261 0
-12260 -12261 0
8827 12260 12261 0
-4878 -7728 0
-4878 -10018 0
-7728 -10018 0
4878 7728 10018 0
-992 -7372 0
-992 -12262 0
-7372 -12262 0
992 7372 12262 0
-1464 -7561 0
-1464 -7878 0
-7561 -7878 0
1464 7561 7878 0
-6682 -12011 0
-6682 -12263 0
-12011 -12263 0
6682 12011 12263 0
-4980 -10059 0
-4980 -11256 0
-10059 -11256 0
4980 10059 11256 0
-9021 -12264 0
-9021 -12265 0
-12264 -12265 0
9021 12264 12265 0
-697 -6305 0
-697 -8546 0
-6305 -8546 0
697 6305 8546 0
-2023 -11706 0
-2023 -12266 0
-11706 -12266 0
2023 11706 12266 0
-1295 -6908 0
-1295 -12267 0
-6908 -12267 0
1295 6908 12267 0
-3948 -12268 0
-3948 -12269 0
-12268 -12269 0
3948 12268 12269 0
-4587 -7034 0
-4587 -12270 0
-7034 -12270 0
4587 7034 12270 0
-4169 -10567 0
-4169 -12271 0
-10567 -12271 0
4169 10567 12271 0
-376 -12272 0
-376 -12273 0
-12272 -12273 0
376 12272 12273 0
-2292 -9095 0
-2292 -12274 0
-9095 -12274 0
2292 9095 12274 0
-8299 -9085 0
-8299 -12275 0
-9085 -12275 0
8299 9085 12275 0
-2333 -3242 0
-2333 -4231 0
-3242 -4231 0
2333 3242 4231 0
-10939 -11998 0
-10939 -12276 0
-11998 -12276 0
10939 11998 12276 0
-6728 -7404 0
-6728 -12277 0
-7404 -12277 0
6728 7404 12277 0
-5776 -10330 0
-5776 -12278 0
-10330 -12278 0
5776 10330 12278 0
-1234 -1335 0
-1234 -12279 0
-1335 -12279 0
1234 1335 12279 0
-5181 -12280 0
-5181 -12281 0
-12280 -12281 0
5181 12280 12281 0
-11310 -12282 0
-11310 -12283 0
-12282 -12283 0
11310 12282 12283 0
-4009 -12284 0
-4009 -12285 0
-12284 -12285 0
4009 12284 12285 0
-6044 -12286 0
-6044 -12287 0
-12286 -12287 0
6044 12286 12287 0
-2788 -9041 0
-2788 -12288 0
-9041 -12288 0
2788 9041 12288 0
-12289 -12290 0
-12289 -12291 0
-12290 -12291 0
12289 12290 12291 0
-7313 -8567 0
-7313 -12292 0
-8567 -12292 0
7313 8567 12292 0
-10473 -12293 0
-10473 -12294 0
-12293 -12294 0
10473 12293 12294 0
-3320 -7294 0
-3320 -12295 0
-7294 -12295 0
3320 7294 12295 0
-3376 -12296 0
-3376 -12297 0
-12296 -12297 0
3376 12296 12297 0
-10672 -12298 0
-10672 -12299 0
-12298 -12299 0
10672 12298 12299 0
-1697 -12300 0
-1697 -12301 0
-12300 -12301 0
1697 12300 12301 0
-133 -587 0
-133 -2046 0
-587 -2046 0
133 587 2046 0
-6391 -7211 0
-6391 -12302 0
-7211 -12302 0
6391 7211 12302 0
-4182 -12303 0
-4182 -12304 0
-12303 -12304 0
4182 12303 12304 0
-5102 -12305 0
-5102 -12306 0
-12305 -12306 0
5102 12305 12306 0
-6858 -10970 0
-6858 -12307 0
-10970 -12307 0
6858 10970 12307 0
-7209 -8568 0
-7209 -12308 0
-8568 -12308 0
7209 8568 12308 0
-5911 -12309 0
-5911 -12310 0
-12309 -12310 0
5911 12309 12310 0
-9329 -12311 0
-9329 -12312 0
-12311 -12312 0
9329 12311 12312 0
-11467 -12313 0
-11467 -12314 0
-12313 -12314 0
11467 12313 12314 0
-10781 -12315 0
-10781 -12316 0
-12315 -12316 0
10781 12315 12316 0
-7257 -8415 0
-7257 -12317 0
-8415 -12317 0
7257 8415 12317 0
-12318 -12319 0
-12318 -12320 0
-12319 -12320 0
12318 12319 12320 0
-1979 -9135 0
-1979 -12321 0
-9135 -12321 0
1979 9135 12321 0
-155 -6612 0
-155 -10673 0
-6612 -10673 0
155 6612 10673 0
-12322 -12323 0
-12322 -12324 0
-12323 -12324 0
12322 12323 12324 0
-5200 -9687 0
-5200 -12325 0
-9687 -12325 0
5200 9687 12325 0
-7462 -7493 0
-7462 -12326 0
-7493 -12326 0
7462 7493 12326 0
-5566 -12327 0
-5566 -12328 0
-12327 -12328 0
5566 12327 12328 0
-6416 -9260 0
-6416 -12329 0
-9260 -12329 0
6416 9260 12329 0
-2708 -9474 0
-2708 -12330 0
-9474 -12330 0
2708 9474 12330 0
-3925 -8578 0
-3925 -12331 0
-8578 -12331 0
3925 8578 12331 0
-3077 -10474 0
-3077 -12332 0
-10474 -12332 0
3077 10474 12332 0
-2792 -10881 0
-2792 -12333 0
-10881 -12333 0
2792 10881 12333 0
-8342 -9292 0
-8342 -9763 0
-9292 -9763 0
8342 9292 9763 0
-3622 -6746 0
-3622 -12334 0
-6746 -12334 0
3622 6746 12334 0
-9199 -12335 0
-9199 -12336 0
-12335 -12336 0
9199 12335 12336 0
-1665 -2419 0
-1665 -12337 0
-2419 -12337 0
1665 2419 12337 0
-7243 -12338 0
-7243 -12339 0
-12338 -12339 0
7243 12338 12339 0
-12340 -12341 0
-12340 -12342 0
-12341 -12342 0
12340 12341 12342 0
-11713 -12343 0
-11713 -12344 0
-12343 -12344 0
11713 12343 12344 0
-4522 -8801 0
-4522 -12345 0
-8801 -12345 0
4522 8801 12345 0
-4958 -12346 0
-4958 -12347 0
-12346 -12347 0
4958 12346 12347 0
-5374 -10830 0
-5374 -12166 0
-10830 -12166 0
5374 10830 12166 0
-1678 -2028 0
-1678 -12348 0
-2028 -12348 0
1678 2028 12348 0
-4951 -12349 0
-4951 -12350 0
-12349 -12350 0
4951 12349 12350 0
-1528 -12351 0
-1528 -12352 0
-12351 -12352 0
1528 12351 12352 0
-580 -11264 0
-580 -12353 0
-11264 -12353 0
580 11264 12353 0
-1212 -12354 0
-1212 -12355 0
-12354 -12355 0
1212 12354 12355 0
-2630 -3148 0
-2630 -12356 0
-3148 -12356 0
2630 3148 12356 0
-8518 -12357 0
-8518 -12358 0
-12357 -12358 0
8518 12357 12358 0
-5152 -12359 0
-5152 -12360 0
-12359 -12360 0
5152 12359 12360 0
-4273 -8620 0
-4273 -8970 0
-8620 -8970 0
4273 8620 8970 0
-5486 -12361 0
-5486 -12362 0
-12361 -12362 0
5486 12361 12362 0
-5488 -12289 0
-5488 -12363 0
-12289 -12363 0
5488 12289 12363 0
-4428 -5722 0
-4428 -10440 0
-5722 -10440 0
4428 5722 10440 0
-5464 -12364 0
-5464 -12365 0
-12364 -12365 0
5464 12364 12365 0
-2687 -12366 0
-2687 -12367 0
-12366 -12367 0
2687 12366 12367 0
-4876 -12368 0
-4876 -12369 0
-12368 -12369 0
4876 12368 12369 0
-9734 -11663 0
-9734 -12370 0
-11663 -12370 0
9734 11663 12370 0
-12371 -12372 0
-12371 -12373 0
-12372 -12373 0
12371 12372 12373 0
-7400 -8758 0
-7400 -10696 0
-8758 -10696 0
7400 8758 10696 0
-1383 -10745 0
-1383 -12237 0
-10745 -12237 0
1383 10745 12237 0
-3646 -4098 0
-3646 -10181 0
-4098 -10181 0
3646 4098 10181 0
-10573 -11611 0
-10573 -12374 0
-11611 -12374 0
10573 11611 12374 0
-8407 -9714 0
-8407 -12375 0
-9714 -12375 0
8407 9714 12375 0
-937 -5900 0
-937 -8314 0
-5900 -8314 0
937 5900 8314 0
-7731 -9931 0
-7731 -12376 0
-9931 -12376 0
7731 9931 12376 0
-403 -3922 0
-403 -12377 0
-3922 -12377 0
403 3922 12377 0
-1732 -1895 0
-1732 -8754 0
-1895 -8754 0
1732 1895 8754 0
-12241 -12378 0
-12241 -12379 0
-12378 -12379 0
12241 12378 12379 0
-3530 -11085 0
-3530 -12380 0
-11085 -12380 0
3530 11085 12380 0
-12381 -12382 0
-12381 -12383 0
-12382 -12383 0
12381 12382 12383 0
-21 -7106 0
-21 -12384 0
-7106 -12384 0
21 7106 12384 0
-4879 -7436 0
-4879 -12385 0
-7436 -12385 0
4879 7436 12385 0
-2543 -5907 0
-2543 -12386 0
-5907 -12386 0
2543 5907 12386 0
-10759 -12387 0
-10759 -12388 0
-12387 -12388 0
10759 12387 12388 0
-1163 -5616 0
-1163 -6218 0
-5616 -6218 0
1163 5616 6218 0
-8493 -12389 0
-8493 -12390 0
-12389 -12390 0
8493 12389 12390 0
-5461 -12391 0
-5461 -12392 0
-12391 -12392 0
5461 12391 12392 0
-159 -3289 0
-159 -12393 0
-3289 -12393 0
159 3289 12393 0
-7379 -12394 0
-7379 -12395 0
-12394 -12395 0
7379 12394 12395 0
-4015 -12396 0
-4015 -12397 0
-12396 -12397 0
4015 12396 12397 0
-4274 -8588 0
-4274 -8896 0
-8588 -8896 0
4274 8588 8896 0
-9585 -11269 0
-9585 -11423 0
-11269 -11423 0
9585 11269 11423 0
-1757 -5841 0
-1757 -12398 0
-5841 -12398 0
1757 5841 12398 0
-5528 -8738 0
-5528 -12399 0
-8738 -12399 0
5528 8738 12399 0
-6254 -12152 0
-6254 -12400 0
-12152 -12400 0
6254 12152 12400 0
-3983 -9228 0
-3983 -12401 0
-9228 -12401 0
3983 9228 12401 0
-294 -8630 0
-294 -12128 0
-8630 -12128 0
294 8630 12128 0
-2405 -12402 0
-2405 -12403 0
-12402 -12403 0
2405 12402 12403 0
-5953 -12404 0
-5953 -12405 0
-12404 -12405 0
5953 12404 12405 0
-4401 -6149 0
-4401 -12406 0
-6149 -12406 0
4401 6149 12406 0
-4384 -9166 0
-4384 -11488 0
-9166 -11488 0
4384 9166 11488 0
-3650 -5842 0
-3650 -6677 0
-5842 -6677 0
3650 5842 6677 0
-4177 -4568 0
-4177 -8564 0
-4568 -8564 0
4177 4568 8564 0
-1506 -2866 0
-1506 -12407 0
-2866 -12407 0
1506 2866 12407 0
-6161 -12408 0
-6161 -12409 0
-12408 -12409 0
6161 12408 12409 0
-1450 -9650 0
-1450 -12410 0
-9650 -12410 0
1450 9650 12410 0
-12411 -12412 0
-12411 -12413 0
-12412 -12413 0
12411 12412 12413 0
-3954 -12307 0
-3954 -12414 0
-12307 -12414 0
3954 12307 12414 0
-6986 -10197 0
-6986 -12415 0
-10197 -12415 0
6986 10197 12415 0
-11637 -12416 0
-11637 -12417 0
-12416 -12417 0
11637 12416 12417 0
-10011 -12039 0
-10011 -12418 0
-12039 -12418 0
10011 12039 12418 0
-4907 -6901 0
-4907 -12419 0
-6901 -12419 0
4907 6901 12419 0
-6536 -11438 0
-6536 -12420 0
-11438 -12420 0
6536 11438 12420 0
-7659 -12421 0
-7659 -12422 0
-12421 -12422 0
7659 12421 12422 0
-2838 -12423 0
-2838 -12424 0
-12423 -12424 0
2838 12423 12424 0
-2183 -3416 0
-2183 -11240 0
-3416 -11240 0
2183 3416 11240 0
-676 -8478 0
-676 -8558 0
-8478 -8558 0
676 8478 8558 0
-7405 -8852 0
-7405 -12425 0
-8852 -12425 0
7405 8852 12425 0
-1686 -12426 0
-1686 -12427 0
-12426 -12427 0
1686 12426 12427 0
-11176 -12428 0
-11176 -12429 0
-12428 -12429 0
11176 12428 12429 0
-4113 -8730 0
-4113 -12430 0
-8730 -12430 0
4113 8730 12430 0
-9852 -12431 0
-9852 -12432 0
-12431 -12432 0
9852 12431 12432 0
-5185 -5941 0
-5185 -12433 0
-5941 -12433 0
5185 5941 12433 0
-8331 -8490 0
-8331 -12434 0
-8490 -12434 0
8331 8490 12434 0
-12238 -12435 0
-12238 -12436 0
-12435 -12436 0
12238 12435 12436 0
-6328 -10412 0
-6328 -12437 0
-10412 -12437 0
6328 10412 12437 0
-12438 -12439 0
-12438 -12440 0
-12439 -12440 0
12438 12439 12440 0
-8566 -12351 0
-8566 -12441 0
-12351 -12441 0
8566 12351 12441 0
-7583 -12442 0
-7583 -12443 0
-12442 -12443 0
7583 12442 12443 0
-448 -3517 0
-448 -10267 0
-3517 -10267 0
448 3517 10267 0
-11735 -12444 0
-11735 -12445 0
-12444 -12445 0
11735 12444 12445 0
-10331 -12446 0
-10331 -12447 0
-12446 -12447 0
10331 12446 12447 0
-36 -1276 0
-36 -11305 0
-1276 -11305 0
36 1276 11305 0
-12448 -12449 0
-12448 -12450 0
-12449 -12450 0
12448 12449 12450 0
-209 -12451 0
-209 -12452 0
-12451 -12452 0
209 12451 12452 0
-5524 -11561 0
-5524 -12453 0
-11561 -12453 0
5524 11561 12453 0
-2180 -12454 0
-2180 -12455 0
-12454 -12455 0
2180 12454 12455 0
-3136 -7177 0
-3136 -9710 0
-7177 -9710 0
3136 7177 9710 0
-3205 -9445 0
-3205 -12456 0
-9445 -12456 0
3205 9445 12456 0
-9961 -10459 0
-9961 -12457 0
-10459 -12457 0
9961 10459 12457 0
-58 -6465 0
-58 -12458 0
-6465 -12458 0
58 6465 12458 0
-59 -12459 0
-59 -12460 0
-12459 -12460 0
59 12459 12460 0
-3835 -11515 0
-3835 -12461 0
-11515 -12461 0
3835 11515 12461 0
-5879 -9251 0
-5879 -12462 0
-9251 -12462 0
5879 9251 12462 0
-4770 -8270 0
-4770 -9348 0
-8270 -9348 0
4770 8270 9348 0
-11598 -12463 0
-11598 -12464 0
-12463 -12464 0
11598 12463 12464 0
-9160 -10174 0
-9160 -12465 0
-10174 -12465 0
9160 10174 12465 0
-2096 -10919 0
-2096 -12416 0
-10919 -12416 0
2096 10919 12416 0
-6759 -11915 0
-6759 -12466 0
-11915 -12466 0
6759 11915 12466 0
-996 -12467 0
-996 -12468 0
-12467 -12468 0
996 12467 12468 0
-4159 -12469 0
-4159 -12470 0
-12469 -12470 0
4159 12469 12470 0
-1930 -12471 0
-1930 -12472 0
-12471 -12472 0
1930 12471 12472 0
-6011 -12473 0
-6011 -12474 0
-12473 -12474 0
6011 12473 12474 0
-4601 -8434 0
-4601 -12475 0
-8434 -12475 0
4601 8434 12475 0
-7112 -12476 0
-7112 -12477 0
-12476 -12477 0
7112 12476 12477 0
-8161 -8527 0
-8161 -12478 0
-8527 -12478 0
8161 8527 12478 0
-12479 -12480 0
-12479 -12481 0
-12480 -12481 0
12479 12480 12481 0
-11836 -12167 0
-11836 -12482 0
-12167 -12482 0
11836 12167 12482 0
-3486 -8842 0
-3486 -12483 0
-8842 -12483 0
3486 8842 12483 0
-7418 -11413 0
-7418 -12484 0
-11413 -12484 0
7418 11413 12484 0
-12485 -12486 0
-12485 -12487 0
-12486 -12487 0
12485 12486 12487 0
-8166 -12488 0
-8166 -12489 0
-12488 -12489 0
8166 12488 12489 0
-9379 -12490 0
-9379 -12491 0
-12490 -12491 0
9379 12490 12491 0
-3284 -4298 0
-3284 -7178 0
-4298 -7178 0
3284 4298 7178 0
-749 -9955 0
-749 -11244 0
-9955 -11244 0
749 9955 11244 0
-5434 -12492 0
-5434 -12493 0
-12492 -12493 0
5434 12492 12493 0
-474 -1492 0
-474 -11416 0
-1492 -11416 0
474 1492 11416 0
-4527 -8789 0
-4527 -12494 0
-8789 -12494 0
4527 8789 12494 0
-1880 -11738 0
-1880 -12495 0
-11738 -12495 0
1880 11738 12495 0
-8845 -12496 0
-8845 -12497 0
-12496 -12497 0
8845 12496 12497 0
-5720 -9108 0
-5720 -12498 0
-9108 -12498 0
5720 9108 12498 0
-12499 -12500 0
-12499 -12501 0
-12500 -12501 0
12499 12500 12501 0
-351 -8132 0
-351 -12295 0
-8132 -12295 0
351 8132 12295 0
-9338 -10691 0
-9338 -12502 0
-10691 -12502 0
9338 10691 12502 0
-2522 -9695 0
-2522 -12503 0
-9695 -12503 0
2522 9695 12503 0
-41 -12160 0
-41 -12504 0
-12160 -12504 0
41 12160 12504 0
-9839 -10645 0
-9839 -11798 0
-10645 -11798 0
9839 10645 11798 0
-12505 -12506 0
-12505 -12507 0
-12506 -12507 0
12505 12506 12507 0
-10481 -12176 0
-10481 -12508 0
-12176 -12508 0
10481 12176 12508 0
-8199 -12509 0
-8199 -12510 0
-12509 -12510 0
8199 12509 12510 0
-256 -4668 0
-256 -4900 0
-4668 -4900 0
256 4668 4900 0
-3028 -5643 0
-3028 -12511 0
-5643 -12511 0
3028 5643 12511 0
-4367 -6263 0
-4367 -12512 0
-6263 -12512 0
4367 6263 12512 0
-12100 -12513 0
-12100 -12514 0
-12513 -12514 0
12100 12513 12514 0
-632 -9803 0
-632 -12515 0
-9803 -12515 0
632 9803 12515 0
-953 -5623 0
-953 -11788 0
-5623 -11788 0
953 5623 11788 0
-7229 -12516 0
-7229 -12517 0
-12516 -12517 0
7229 12516 12517 0
-2235 -6407 0
-2235 -12518 0
-6407 -12518 0
2235 6407 12518 0
-9271 -10394 0
-9271 -11841 0
-10394 -11841 0
9271 10394 11841 0
-8217 -10754 0
-8217 -12519 0
-10754 -12519 0
8217 10754 12519 0
-6128 -6424 0
-6128 -6769 0
-6424 -6769 0
6128 6424 6769 0
-10243 -12520 0
-10243 -12521 0
-12520 -12521 0
10243 12520 12521 0
-5077 -12522 0
-5077 -12523 0
-12522 -12523 0
5077 12522 12523 0
-4423 -12524 0
-4423 -12525 0
-12524 -12525 0
4423 12524 12525 0
-7187 -12526 0
-7187 -12527 0
-12526 -12527 0
7187 12526 12527 0
-11127 -12528 0
-11127 -12529 0
-12528 -12529 0
11127 12528 12529 0
-1266 -4597 0
-1266 -12303 0
-4597 -12303 0
1266 4597 12303 0
-4501 -5469 0
-4501 -12530 0
-5469 -12530 0
4501 5469 12530 0
-432 -12531 0
-432 -12532 0
-12531 -12532 0
432 12531 12532 0
-11049 -12533 0
-11049 -12534 0
-12533 -12534 0
11049 12533 12534 0
-10561 -12535 0
-10561 -12536 0
-12535 -12536 0
10561 12535 12536 0
-698 -11606 0
-698 -12537 0
-11606 -12537 0
698 11606 12537 0
-1306 -4485 0
-1306 -12538 0
-4485 -12538 0
1306 4485 12538 0
-3630 -10338 0
-3630 -12539 0
-10338 -12539 0
3630 10338 12539 0
-134 -7615 0
-134 -12540 0
-7615 -12540 0
134 7615 12540 0
-3 -4752 0
-3 -8219 0
-4752 -8219 0
3 4752 8219 0
-12114 -12541 0
-12114 -12542 0
-12541 -12542 0
12114 12541 12542 0
-12543 -12544 0
-12543 -12545 0
-12544 -12545 0
12543 12544 12545 0
-7683 -12546 0
-7683 -12547 0
-12546 -12547 0
7683 12546 12547 0
-6150 -11151 0
-6150 -12548 0
-11151 -12548 0
6150 11151 12548 0
-7748 -10451 0
-7748 -12546 0
-10451 -12546 0
7748 10451 12546 0
-12549 -12550 0
-12549 -12551 0
-12550 -12551 0
12549 12550 12551 0
-3308 -12552 0
-3308 -12553 0
-12552 -12553 0
3308 12552 12553 0
-5982 -12554 0
-5982 -12555 0
-12554 -12555 0
5982 12554 12555 0
-1498 -4868 0
-1498 -12286 0
-4868 -12286 0
1498 4868 12286 0
-12504 -12556 0
-12504 -12557 0
-12556 -12557 0
12504 12556 12557 0
-7837 -12558 0
-7837 -12559 0
-12558 -12559 0
7837 12558 12559 0
-7263 -12560 0
-7263 -12561 0
-12560 -12561 0
7263 12560 12561 0
-811 -12562 0
-811 -12563 0
-12562 -12563 0
811 12562 12563 0
-3638 -4017 0
-3638 -12564 0
-4017 -12564 0
3638 4017 12564 0
-3218 -4771 0
-3218 -12565 0
-4771 -12565 0
3218 4771 12565 0
-12566 -12567 0
-12566 -12568 0
-12567 -12568 0
12566 12567 12568 0
-5092 -12569 0
-5092 -12570 0
-12569 -12570 0
5092 12569 12570 0
-3275 -9172 0
-3275 -12571 0
-9172 -12571 0
3275 9172 12571 0
-4734 -8886 0
-4734 -10368 0
-8886 -10368 0
4734 8886 10368 0
-6106 -12572 0
-6106 -12573 0
-12572 -12573 0
6106 12572 12573 0
-2054 -7831 0
-2054 -10514 0
-7831 -10514 0
2054 7831 10514 0
-4939 -11016 0
-4939 -12574 0
-11016 -12574 0
4939 11016 12574 0
-4863 -6513 0
-4863 -7268 0
-6513 -7268 0
4863 6513 7268 0
-6324 -12575 0
-6324 -12576 0
-12575 -12576 0
6324 12575 12576 0
-907 -2932 0
-907 -10493 0
-2932 -10493 0
907 2932 10493 0
-12577 -12578 0
-12577 -12579 0
-12578 -12579 0
12577 12578 12579 0
-2940 -3264 0
-2940 -12171 0
-3264 -12171 0
2940 3264 12171 0
-2135 -9997 0
-2135 -12580 0
-9997 -12580 0
2135 9997 12580 0
-1813 -6003 0
-1813 -6516 0
-6003 -6516 0
1813 6003 6516 0
-180 -12581 0
-180 -12582 0
-12581 -12582 0
180 12581 12582 0
-4905 -11870 0
-4905 -12583 0
-11870 -12583 0
4905 11870 12583 0
-1692 -11327 0
-1692 -12584 0
-11327 -12584 0
1692 11327 12584 0
-1551 -6162 0
-1551 -12585 0
-6162 -12585 0
1551 6162 12585 0
-10416 -12586 0
-10416 -12587 0
-12586 -12587 0
10416 12586 12587 0
-7992 -12298 0
-7992 -12588 0
-12298 -12588 0
7992 12298 12588 0
-5173 -5440 0
-5173 -12459 0
-5440 -12459 0
5173 5440 12459 0
-10792 -12589 0
-10792 -12590 0
-12589 -12590 0
10792 12589 12590 0
-12591 -12592 0
-12591 -12593 0
-12592 -12593 0
12591 12592 12593 0
-3520 -3604 0
-3520 -12594 0
-3604 -12594 0
3520 3604 12594 0
-6796 -9440 0
-6796 -12205 0
-9440 -12205 0
6796 9440 12205 0
-296 -3342 0
-296 -12595 0
-3342 -12595 0
296 3342 12595 0
-7422 -8419 0
-7422 -12596 0
-8419 -12596 0
7422 8419 12596 0
-11174 -11824 0
-11174 -12597 0
-11824 -12597 0
11174 11824 12597 0
-77 -12598 0
-77 -12599 0
-12598 -12599 0
77 12598 12599 0
-7507 -8147 0
-7507 -12600 0
-8147 -12600 0
7507 8147 12600 0
-3203 -11615 0
-3203 -12601 0
-11615 -12601 0
3203 11615 12601 0
-1510 -6421 0
-1510 -12602 0
-6421 -12602 0
1510 6421 12602 0
-1725 -12603 0
-1725 -12604 0
-12603 -12604 0
1725 12603 12604 0
-1896 -2587 0
-1896 -9158 0
-2587 -9158 0
1896 2587 9158 0
-2765 -5325 0
-2765 -12605 0
-5325 -12605 0
2765 5325 12605 0
-1455 -12606 0
-1455 -12607 0
-12606 -12607 0
1455 12606 12607 0
-913 -11887 0
-913 -12608 0
-11887 -12608 0
913 11887 12608 0
-8584 -12609 0
-8584 -12610 0
-12609 -12610 0
8584 12609 12610 0
-1164 -3931 0
-1164 -11445 0
-3931 -11445 0
1164 3931 11445 0
-1645 -5511 0
-1645 -11160 0
-5511 -11160 0
1645 5511 11160 0
-3095 -12611 0
-3095 -12612 0
-12611 -12612 0
3095 12611 12612 0
-12613 -12614 0
-12613 -12615 0
-12614 -12615 0
12613 12614 12615 0
-8347 -8755 0
-8347 -12616 0
-8755 -12616 0
8347 8755 12616 0
-7553 -12212 0
-7553 -12438 0
-12212 -12438 0
7553 12212 12438 0
-6861 -12617 0
-6861 -12618 0
-12617 -12618 0
6861 12617 12618 0
-12619 -12620 0
-12619 -12621 0
-12620 -12621 0
12619 12620 12621 0
-4016 -12622 0
-4016 -12623 0
-12622 -12623 0
4016 12622 12623 0
-12624 -12625 0
-12624 -12626 0
-12625 -12626 0
12624 12625 12626 0
-8457 -12627 0
-8457 -12628 0
-12627 -12628 0
8457 12627 12628 0
-2633 -5659 0
-2633 -10824 0
-5659 -10824 0
2633 5659 10824 0
-571 -10007 0
-571 -12629 0
-10007 -12629 0
571 10007 12629 0
-5371 -8372 0
-5371 -9617 0
-8372 -9617 0
5371 8372 9617 0
-2716 -11069 0
-2716 -12630 0
-11069 -12630 0
2716 11069 12630 0
-141 -7530 0
-141 -12631 0
-7530 -12631 0
141 7530 12631 0
-5254 -12632 0
-5254 -12633 0
-12632 -12633 0
5254 12632 12633 0
-11725 -12634 0
-11725 -12635 0
-12634 -12635 0
11725 12634 12635 0
-2600 -2802 0
-2600 -12636 0
-2802 -12636 0
2600 2802 12636 0
-12637 -12638 0
-12637 -12639 0
-12638 -12639 0
12637 12638 12639 0
-6409 -11173 0
-6409 -12104 0
-11173 -12104 0
6409 11173 12104 0
-10617 -10693 0
-10617 -11857 0
-10693 -11857 0
10617 10693 11857 0
-10814 -10944 0
-10814 -12640 0
-10944 -12640 0
10814 10944 12640 0
-9869 -12641 0
-9869 -12642 0
-12641 -12642 0
9869 12641 12642 0
-12235 -12643 0
-12235 -12644 0
-12643 -12644 0
12235 12643 12644 0
-4024 -6981 0
-4024 -12645 0
-6981 -12645 0
4024 6981 12645 0
-11745 -12646 0
-11745 -12647 0
-12646 -12647 0
11745 12646 12647 0
-11265 -12648 0
-11265 -12649 0
-12648 -12649 0
11265 12648 12649 0
-2461 -12387 0
-2461 -12650 0
-12387 -12650 0
2461 12387 12650 0
-6939 -11602 0
-6939 -12651 0
-11602 -12651 0
6939 11602 12651 0
-2489 -2933 0
-2489 -12652 0
-2933 -12652 0
2489 2933 12652 0
-3705 -10450 0
-3705 -12272 0
-10450 -12272 0
3705 10450 12272 0
-8027 -12653 0
-8027 -12654 0
-12653 -12654 0
8027 12653 12654 0
-5875 -12202 0
-5875 -12655 0
-12202 -12655 0
5875 12202 12655 0
-2816 -12656 0
-2816 -12657 0
-12656 -12657 0
2816 12656 12657 0
-12233 -12658 0
-12233 -12659 0
-12658 -12659 0
12233 12658 12659 0
-9958 -12660 0
-9958 -12661 0
-12660 -12661 0
9958 12660 12661 0
-4294 -8902 0
-4294 -11245 0
-8902 -11245 0
4294 8902 11245 0
-6243 -8140 0
-6243 -8713 0
-8140 -8713 0
6243 8140 8713 0
-5657 -11863 0
-5657 -12662 0
-11863 -12662 0
5657 11863 12662 0
-2763 -9381 0
-2763 -10707 0
-9381 -10707 0
2763 9381 10707 0
-3153 -7726 0
-3153 -10589 0
-7726 -10589 0
3153 7726 10589 0
-6368 -12411 0
-6368 -12663 0
-12411 -12663 0
6368 12411 12663 0
-3232 -11582 0
-3232 -12664 0
-11582 -12664 0
3232 11582 12664 0
-974 -7598 0
-974 -12665 0
-7598 -12665 0
974 7598 12665 0
-3297 -10398 0
-3297 -12666 0
-10398 -12666 0
3297 10398 12666 0
-11656 -12130 0
-11656 -12667 0
-12130 -12667 0
11656 12130 12667 0
-9409 -12421 0
-9409 -12668 0
-12421 -12668 0
9409 12421 12668 0
-3647 -9678 0
-3647 -12669 0
-9678 -12669 0
3647 9678 12669 0
-5569 -10272 0
-5569 -12670 0
-10272 -12670 0
5569 10272 12670 0
-5402 -11154 0
-5402 -12431 0
-11154 -12431 0
5402 11154 12431 0
-12364 -12671 0
-12364 -12672 0
-12671 -12672 0
12364 12671 12672 0
-4078 -10082 0
-4078 -12673 0
-10082 -12673 0
4078 10082 12673 0
-4342 -12674 0
-4342 -12675 0
-12674 -12675 0
4342 12674 12675 0
-8879 -9552 0
-8879 -12676 0
-9552 -12676 0
8879 9552 12676 0
-12677 -12678 0
-12677 -12679 0
-12678 -12679 0
12677 12678 12679 0
-2598 -6982 0
-2598 -12371 0
-6982 -12371 0
2598 6982 12371 0
-803 -2328 0
-803 -12024 0
-2328 -12024 0
803 2328 12024 0
-4368 -6962 0
-4368 -12680 0
-6962 -12680 0
4368 6962 12680 0
-10782 -12681 0
-10782 -12682 0
-12681 -12682 0
10782 12681 12682 0
-11969 -12683 0
-11969 -12684 0
-12683 -12684 0
11969 12683 12684 0
-2954 -3995 0
-2954 -12685 0
-3995 -12685 0
2954 3995 12685 0
-1219 -4212 0
-1219 -12686 0
-4212 -12686 0
1219 4212 12686 0
-7010 -12687 0
-7010 -12688 0
-12687 -12688 0
7010 12687 12688 0
-223 -12227 0
-223 -12689 0
-12227 -12689 0
223 12227 12689 0
-1283 -11566 0
-1283 -12690 0
-11566 -12690 0
1283 11566 12690 0
-8431 -11497 0
-8431 -12691 0
-11497 -12691 0
8431 11497 12691 0
-853 -7634 0
-853 -12692 0
-7634 -12692 0
853 7634 12692 0
-1974 -9386 0
-1974 -12693 0
-9386 -12693 0
1974 9386 12693 0
-3108 -3175 0
-3108 -4240 0
-3175 -4240 0
3108 3175 4240 0
-5086 -9567 0
-5086 -12694 0
-9567 -12694 0
5086 9567 12694 0
-1243 -6157 0
-1243 -11988 0
-6157 -11988 0
1243 6157 11988 0
-3807 -5042 0
-3807 -12695 0
-5042 -12695 0
3807 5042 12695 0
-3382 -8743 0
-3382 -8997 0
-8743 -8997 0
3382 8743 8997 0
-6240 -9237 0
-6240 -12249 0
-9237 -12249 0
6240 9237 12249 0
-656 -1499 0
-656 -12696 0
-1499 -12696 0
656 1499 12696 0
-10396 -11517 0
-10396 -12697 0
-11517 -12697 0
10396 11517 12697 0
-12698 -12699 0
-12698 -12700 0
-12699 -12700 0
12698 12699 12700 0
-4323 -12558 0
-4323 -12701 0
-12558 -12701 0
4323 12558 12701 0
-4602 -7900 0
-4602 -11599 0
-7900 -11599 0
4602 7900 11599 0
-2593 -5612 0
-2593 -8399 0
-5612 -8399 0
2593 5612 8399 0
-11583 -12702 0
-11583 -12703 0
-12702 -12703 0
11583 12702 12703 0
-174 -2339 0
-174 -12121 0
-2339 -12121 0
174 2339 12121 0
-668 -2033 0
-668 -12704 0
-2033 -12704 0
668 2033 12704 0
-4576 -4631 0
-4576 -11000 0
-4631 -11000 0
4576 4631 11000 0
-6132 -12705 0
-6132 -12706 0
-12705 -12706 0
6132 12705 12706 0
-815 -4718 0
-815 -12707 0
-4718 -12707 0
815 4718 12707 0
-7596 -8354 0
-7596 -12708 0
-8354 -12708 0
7596 8354 12708 0
-241 -12709 0
-241 -12710 0
-12709 -12710 0
241 12709 12710 0
-10246 -12711 0
-10246 -12712 0
-12711 -12712 0
10246 12711 12712 0
-11960 -12399 0
-11960 -12713 0
-12399 -12713 0
11960 12399 12713 0
-5023 -12714 0
-5023 -12715 0
-12714 -12715 0
5023 12714 12715 0
-848 -12716 0
-848 -12717 0
-12716 -12717 0
848 12716 12717 0
-6750 -12055 0
-6750 -12718 0
-12055 -12718 0
6750 12055 12718 0
-8338 -12565 0
-8338 -12719 0
-12565 -12719 0
8338 12565 12719 0
-7485 -12720 0
-7485 -12721 0
-12720 -12721 0
7485 12720 12721 0
-7026 -7715 0
-7026 -12722 0
-7715 -12722 0
7026 7715 12722 0
-7959 -8426 0
-7959 -12723 0
-8426 -12723 0
7959 8426 12723 0
-12697 -12724 0
-12697 -12725 0
-12724 -12725 0
12697 12724 12725 0
-10470 -10807 0
-10470 -12726 0
-10807 -12726 0
10470 10807 12726 0
-3165 -12727 0
-3165 -12728 0
-12727 -12728 0
3165 12727 12728 0
-4669 -5851 0
-4669 -12220 0
-5851 -12220 0
4669 5851 12220 0
-5669 -9553 0
-5669 -10013 0
-9553 -10013 0
5669 9553 10013 0
-4776 -5165 0
-4776 -12729 0
-5165 -12729 0
4776 5165 12729 0
-9091 -12396 0
-9091 -12730 0
-12396 -12730 0
9091 12396 12730 0
-5998 -7468 0
-5998 -10770 0
-7468 -10770 0
5998 7468 10770 0
-4635 -12397 0
-4635 -12731 0
-12397 -12731 0
4635 12397 12731 0
-89 -120 0
-89 -472 0
-120 -472 0
89 120 472 0
-5598 -12279 0
-5598 -12732 0
-12279 -12732 0
5598 12279 12732 0
-300 -11324 0
-300 -12733 0
-11324 -12733 0
300 11324 12733 0
-4385 -12734 0
-4385 -12735 0
-12734 -12735 0
4385 12734 12735 0
-8412 -11315 0
-8412 -12736 0
-11315 -12736 0
8412 11315 12736 0
-3314 -12737 0
-3314 -12738 0
-12737 -12738 0
3314 12737 12738 0
-3119 -12030 0
-3119 -12739 0
-12030 -12739 0
3119 12030 12739 0
-8084 -11128 0
-8084 -12740 0
-11128 -12740 0
8084 11128 12740 0
-6098 -9603 0
-6098 -12741 0
-9603 -12741 0
6098 9603 12741 0
-9591 -12742 0
-9591 -12743 0
-12742 -12743 0
9591 12742 12743 0
-3946 -12744 0
-3946 -12745 0
-12744 -12745 0
3946 12744 12745 0
-8874 -12746 0
-8874 -12747 0
-12746 -12747 0
8874 12746 12747 0
-10500 -12349 0
-10500 -12748 0
-12349 -12748 0
10500 12349 12748 0
-337 -12749 0
-337 -12750 0
-12749 -12750 0
337 12749 12750 0
-1774 -10044 0
-1774 -12751 0
-10044 -12751 0
1774 10044 12751 0
-11604 -12752 0
-11604 -12753 0
-12752 -12753 0
11604 12752 12753 0
-11800 -12714 0
-11800 -12754 0
-12714 -12754 0
11800 12714 12754 0
-6842 -12377 0
-6842 -12755 0
-12377 -12755 0
6842 12377 12755 0
-1458 -11600 0
-1458 -12756 0
-11600 -12756 0
1458 11600 12756 0
-4965 -12225 0
-4965 -12757 0
-12225 -12757 0
4965 12225 12757 0
-417 -12758 0
-417 -12759 0
-12758 -12759 0
417 12758 12759 0
-7195 -7909 0
-7195 -11474 0
-7909 -11474 0
7195 7909 11474 0
-4242 -9371 0
-4242 -12760 0
-9371 -12760 0
4242 9371 12760 0
-1711 -2317 0
-1711 -3609 0
-2317 -3609 0
1711 2317 3609 0
-10366 -10989 0
-10366 -12761 0
-10989 -12761 0
10366 10989 12761 0
-11079 -12762 0
-11079 -12763 0
-12762 -12763 0
11079 12762 12763 0
-12764 -12765 0
-12764 -12766 0
-12765 -12766 0
12764 12765 12766 0
-2258 -7099 0
-2258 -12767 0
-7099 -12767 0
2258 7099 12767 0
-12768 -12769 0
-12768 -12770 0
-12769 -12770 0
12768 12769 12770 0
-2697 -12771 0
-2697 -12772 0
-12771 -12772 0
2697 12771 12772 0
-8555 -10980 0
-8555 -12773 0
-10980 -12773 0
8555 10980 12773 0
-4944 -7179 0
-4944 -12774 0
-7179 -12774 0
4944 7179 12774 0
-249 -12775 0
-249 -12776 0
-12775 -12776 0
249 12775 12776 0
-5723 -6323 0
-5723 -12777 0
-6323 -12777 0
5723 6323 12777 0
-5735 -10062 0
-5735 -11516 0
-10062 -11516 0
5735 10062 11516 0
-10777 -12778 0
-10777 -12779 0
-12778 -12779 0
10777 12778 12779 0
-12709 -12780 0
-12709 -12781 0
-12780 -12781 0
12709 12780 12781 0
-9655 -10491 0
-9655 -12386 0
-10491 -12386 0
9655 10491 12386 0
-10280 -12782 0
-10280 -12783 0
-12782 -12783 0
10280 12782 12783 0
-8523 -12784 0
-8523 -12785 0
-12784 -12785 0
8523 12784 12785 0
-1749 -1956 0
-1749 -12786 0
-1956 -12786 0
1749 1956 12786 0
-2058 -4691 0
-2058 -12787 0
-4691 -12787 0
2058 4691 12787 0
-879 -8068 0
-879 -12788 0
-8068 -12788 0
879 8068 12788 0
-859 -6458 0
-859 -12789 0
-6458 -12789 0
859 6458 12789 0
-12662 -12790 0
-12662 -12791 0
-12790 -12791 0
12662 12790 12791 0
-1853 -12792 0
-1853 -12793 0
-12792 -12793 0
1853 12792 12793 0
-5236 -11562 0
-5236 -12794 0
-11562 -12794 0
5236 11562 12794 0
-1534 -12795 0
-1534 -12796 0
-12795 -12796 0
1534 12795 12796 0
-10444 -12797 0
-10444 -12798 0
-12797 -12798 0
10444 12797 12798 0
-12799 -12800 0
-12799 -12801 0
-12800 -12801 0
12799 12800 12801 0
-6600 -10326 0
-6600 -12802 0
-10326 -12802 0
6600 10326 12802 0
-12803 -12804 0
-12803 -12805 0
-12804 -12805 0
12803 12804 12805 0
-6163 -8528 0
-6163 -9537 0
-8528 -9537 0
6163 8528 9537 0
-10379 -11986 0
-10379 -12806 0
-11986 -12806 0
10379 11986 12806 0
-11177 -12807 0
-11177 -12808 0
-12807 -12808 0
11177 12807 12808 0
-6432 -7514 0
-6432 -11036 0
-7514 -11036 0
6432 7514 11036 0
-3981 -11922 0
-3981 -12809 0
-11922 -12809 0
3981 11922 12809 0
-8190 -10827 0
-8190 -12810 0
-10827 -12810 0
8190 10827 12810 0
-10433 -12811 0
-10433 -12812 0
-12811 -12812 0
10433 12811 12812 0
-3845 -5220 0
-3845 -10477 0
-5220 -10477 0
3845 5220 10477 0
-6195 -12813 0
-6195 -12814 0
-12813 -12814 0
6195 12813 12814 0
-5670 -12815 0
-5670 -12816 0
-12815 -12816 0
5670 12815 12816 0
-4642 -12817 0
-4642 -12818 0
-12817 -12818 0
4642 12817 12818 0
-3884 -11080 0
-3884 -12819 0
-11080 -12819 0
3884 11080 12819 0
-12333 -12820 0
-12333 -12821 0
-12820 -12821 0
12333 12820 12821 0
-7539 -12723 0
-7539 -12822 0
-12723 -12822 0
7539 12723 12822 0
-793 -1046 0
-793 -12823 0
-1046 -12823 0
793 1046 12823 0
-10878 -11410 0
-10878 -12824 0
-11410 -12824 0
10878 11410 12824 0
-324 -9914 0
-324 -12825 0
-9914 -12825 0
324 9914 12825 0
-546 -8394 0
-546 -12826 0
-8394 -12826 0
546 8394 12826 0
-5582 -10633 0
-5582 -12827 0
-10633 -12827 0
5582 10633 12827 0
-1944 -3957 0
-1944 -11134 0
-3957 -11134 0
1944 3957 11134 0
-5694 -5794 0
-5694 -12828 0
-5794 -12828 0
5694 5794 12828 0
-12829 -12830 0
-12829 -12831 0
-12830 -12831 0
12829 12830 12831 0
-2577 -8644 0
-2577 -12832 0
-8644 -12832 0
2577 8644 12832 0
-4611 -12640 0
-4611 -12833 0
-12640 -12833 0
4611 12640 12833 0
-5375 -6280 0
-5375 -12834 0
-6280 -12834 0
5375 6280 12834 0
-2945 -12835 0
-2945 -12836 0
-12835 -12836 0
2945 12835 12836 0
-3708 -9256 0
-3708 -12837 0
-9256 -12837 0
3708 9256 12837 0
-8935 -12838 0
-8935 -12839 0
-12838 -12839 0
8935 12838 12839 0
-830 -3850 0
-830 -7795 0
-3850 -7795 0
830 3850 7795 0
-9590 -12229 0
-9590 -12840 0
-12229 -12840 0
9590 12229 12840 0
-1177 -12841 0
-1177 -12842 0
-12841 -12842 0
1177 12841 12842 0
-350 -11773 0
-350 -12843 0
-11773 -12843 0
350 11773 12843 0
-1926 -10055 0
-1926 -12844 0
-10055 -12844 0
1926 10055 12844 0
-10560 -12845 0
-10560 -12846 0
-12845 -12846 0
10560 12845 12846 0
-2650 -11383 0
-2650 -12847 0
-11383 -12847 0
2650 11383 12847 0
-12848 -12849 0
-12848 -12850 0
-12849 -12850 0
12848 12849 12850 0
-7373 -8793 0
-7373 -12851 0
-8793 -12851 0
7373 8793 12851 0
-11056 -12852 0
-11056 -12853 0
-12852 -12853 0
11056 12852 12853 0
-5959 -10384 0
-5959 -12854 0
-10384 -12854 0
5959 10384 12854 0
-5387 -11591 0
-5387 -12855 0
-11591 -12855 0
5387 11591 12855 0
-10296 -12856 0
-10296 -12857 0
-12856 -12857 0
10296 12856 12857 0
-282 -3364 0
-282 -8714 0
-3364 -8714 0
282 3364 8714 0
-11518 -11879 0
-11518 -12858 0
-11879 -12858 0
11518 11879 12858 0
-10198 -12859 0
-10198 -12860 0
-12859 -12860 0
10198 12859 12860 0
-1003 -3402 0
-1003 -11867 0
-3402 -11867 0
1003 3402 11867 0
-5131 -8570 0
-5131 -12861 0
-8570 -12861 0
5131 8570 12861 0
-400 -816 0
-400 -7874 0
-816 -7874 0
400 816 7874 0
-2387 -10593 0
-2387 -12862 0
-10593 -12862 0
2387 10593 12862 0
-9669 -9832 0
-9669 -12863 0
-9832 -12863 0
9669 9832 12863 0
-9421 -12864 0
-9421 -12865 0
-12864 -12865 0
9421 12864 12865 0
-4566 -9691 0
-4566 -12866 0
-9691 -12866 0
4566 9691 12866 0
-647 -10526 0
-647 -12047 0
-10526 -12047 0
647 10526 12047 0
-2641 -3709 0
-2641 -7962 0
-3709 -7962 0
2641 3709 7962 0
-9988 -10793 0
-9988 -12867 0
-10793 -12867 0
9988 10793 12867 0
-5983 -9394 0
-5983 -12868 0
-9394 -12868 0
5983 9394 12868 0
-6179 -12797 0
-6179 -12869 0
-12797 -12869 0
6179 12797 12869 0
-10051 -12870 0
-10051 -12871 0
-12870 -12871 0
10051 12870 12871 0
-8608 -12872 0
-8608 -12873 0
-12872 -12873 0
8608 12872 12873 0
-7545 -12874 0
-7545 -12875 0
-12874 -12875 0
7545 12874 12875 0
-1744 -10906 0
-1744 -12876 0
-10906 -12876 0
1744 10906 12876 0
-3009 -5878 0
-3009 -11751 0
-5878 -11751 0
3009 5878 11751 0
-1256 -6701 0
-1256 -11638 0
-6701 -11638 0
1256 6701 11638 0
-1125 -7174 0
-1125 -9808 0
-7174 -9808 0
1125 7174 9808 0
-6400 -7803 0
-6400 -12877 0
-7803 -12877 0
6400 7803 12877 0
-1396 -12878 0
-1396 -12879 0
-12878 -12879 0
1396 12878 12879 0
-8163 -12502 0
-8163 -12880 0
-12502 -12880 0
8163 12502 12880 0
-4436 -8614 0
-4436 -11913 0
-8614 -11913 0
4436 8614 11913 0
-5617 -9058 0
-5617 -11832 0
-9058 -11832 0
5617 9058 11832 0
-10550 -11937 0
-10550 -12881 0
-11937 -12881 0
10550 11937 12881 0
-5967 -10348 0
-5967 -12882 0
-10348 -12882 0
5967 10348 12882 0
-3096 -10334 0
-3096 -12883 0
-10334 -12883 0
3096 10334 12883 0
-4676 -8176 0
-4676 -12884 0
-8176 -12884 0
4676 8176 12884 0
-7324 -12885 0
-7324 -12886 0
-12885 -12886 0
7324 12885 12886 0
-9937 -12887 0
-9937 -12888 0
-12887 -12888 0
9937 12887 12888 0
-416 -10681 0
-416 -11673 0
-10681 -11673 0
416 10681 11673 0
-12889 -12890 0
-12889 -12891 0
-12890 -12891 0
12889 12890 12891 0
-12892 -12893 0
-12892 -12894 0
-12893 -12894 0
12892 12893 12894 0
-11129 -12895 0
-11129 -12896 0
-12895 -12896 0
11129 12895 12896 0
-5197 -12897 0
-5197 -12898 0
-12897 -12898 0
5197 12897 12898 0
-3940 -8485 0
-3940 -11156 0
-8485 -11156 0
3940 8485 11156 0
-9074 -12794 0
-9074 -12899 0
-12794 -12899 0
9074 12794 12899 0
-12900 -12901 0
-12900 -12902 0
-12901 -12902 0
12900 12901 12902 0
-5784 -11930 0
-5784 -12903 0
-11930 -12903 0
5784 11930 12903 0
-8010 -9120 0
-8010 -10411 0
-9120 -10411 0
8010 9120 10411 0
-9011 -11059 0
-9011 -12904 0
-11059 -12904 0
9011 11059 12904 0
-1848 -7699 0
-1848 -10286 0
-7699 -10286 0
1848 7699 10286 0
-10479 -12905 0
-10479 -12906 0
-12905 -12906 0
10479 12905 12906 0
-10377 -12907 0
-10377 -12908 0
-12907 -12908 0
10377 12907 12908 0
-5336 -5908 0
-5336 -12909 0
-5908 -12909 0
5336 5908 12909 0
-601 -762 0
-601 -12910 0
-762 -12910 0
601 762 12910 0
-2471 -5852 0
-2471 -12911 0
-5852 -12911 0
2471 5852 12911 0
-5698 -6588 0
-5698 -12912 0
-6588 -12912 0
5698 6588 12912 0
-153 -6018 0
-153 -11223 0
-6018 -11223 0
153 6018 11223 0
-12913 -12914 0
-12913 -12915 0
-12914 -12915 0
12913 12914 12915 0
-11273 -12746 0
-11273 -12916 0
-12746 -12916 0
11273 12746 12916 0
-2786 -7593 0
-2786 -12917 0
-7593 -12917 0
2786 7593 12917 0
-10310 -12605 0
-10310 -12918 0
-12605 -12918 0
10310 12605 12918 0
-584 -3247 0
-584 -5225 0
-3247 -5225 0
584 3247 5225 0
-7194 -11579 0
-7194 -12919 0
-11579 -12919 0
7194 11579 12919 0
-3093 -12414 0
-3093 -12920 0
-12414 -12920 0
3093 12414 12920 0
-2974 -9324 0
-2974 -12052 0
-9324 -12052 0
2974 9324 12052 0
-7078 -12597 0
-7078 -12921 0
-12597 -12921 0
7078 12597 12921 0
-10244 -10951 0
-10244 -12922 0
-10951 -12922 0
10244 10951 12922 0
-2848 -8272 0
-2848 -12923 0
-8272 -12923 0
2848 8272 12923 0
-7529 -12924 0
-7529 -12925 0
-12924 -12925 0
7529 12924 12925 0
-606 -1407 0
-606 -12926 0
-1407 -12926 0
606 1407 12926 0
-3457 -12273 0
-3457 -12927 0
-12273 -12927 0
3457 12273 12927 0
-8259 -11568 0
-8259 -12928 0
-11568 -12928 0
8259 11568 12928 0
-4406 -12698 0
-4406 -12929 0
-12698 -12929 0
4406 12698 12929 0
-1292 -12930 0
-1292 -12931 0
-12930 -12931 0
1292 12930 12931 0
-7165 -11222 0
-7165 -12932 0
-11222 -12932 0
7165 11222 12932 0
-12838 -12933 0
-12838 -12934 0
-12933 -12934 0
12838 12933 12934 0
-11274 -12935 0
-11274 -12936 0
-12935 -12936 0
11274 12935 12936 0
-3240 -5613 0
-3240 -6053 0
-5613 -6053 0
3240 5613 6053 0
-1885 -9508 0
-1885 -12937 0
-9508 -12937 0
1885 9508 12937 0
-1330 -12603 0
-1330 -12938 0
-12603 -12938 0
1330 12603 12938 0
-4433 -12939 0
-4433 -12940 0
-12939 -12940 0
4433 12939 12940 0
-9920 -10519 0
-9920 -12941 0
-10519 -12941 0
9920 10519 12941 0
-2149 -4811 0
-2149 -12942 0
-4811 -12942 0
2149 4811 12942 0
-6190 -10193 0
-6190 -12943 0
-10193 -12943 0
6190 10193 12943 0
-5724 -9580 0
-5724 -12944 0
-9580 -12944 0
5724 9580 12944 0
-10510 -12945 0
-10510 -12946 0
-12945 -12946 0
10510 12945 12946 0
-7929 -12947 0
-7929 -12948 0
-12947 -12948 0
7929 12947 12948 0
-7473 -7663 0
-7473 -12949 0
-7663 -12949 0
7473 7663 12949 0
-7453 -10247 0
-7453 -12950 0
-10247 -12950 0
7453 10247 12950 0
-289 -2546 0
-289 -12951 0
-2546 -12951 0
289 2546 12951 0
-1647 -6582 0
-1647 -12952 0
-6582 -12952 0
1647 6582 12952 0
-1378 -10870 0
-1378 -10994 0
-10870 -10994 0
1378 10870 10994 0
-4104 -6314 0
-4104 -12953 0
-6314 -12953 0
4104 6314 12953 0
-2859 -4149 0
-2859 -12084 0
-4149 -12084 0
2859 4149 12084 0
-1293 -2185 0
-1293 -12954 0
-2185 -12954 0
1293 2185 12954 0
-3578 -4031 0
-3578 -5915 0
-4031 -5915 0
3578 4031 5915 0
-6809 -12955 0
-6809 -12956 0
-12955 -12956 0
6809 12955 12956 0
-92 -556 0
-92 -7423 0
-556 -7423 0
92 556 7423 0
-67 -391 0
-67 -7270 0
-391 -7270 0
67 391 7270 0
-5429 -12957 0
-5429 -12958 0
-12957 -12958 0
5429 12957 12958 0
-2635 -12959 0
-2635 -12960 0
-12959 -12960 0
2635 12959 12960 0
-2060 -5645 0
-2060 -9660 0
-5645 -9660 0
2060 5645 9660 0
-9771 -10159 0
-9771 -12961 0
-10159 -12961 0
9771 10159 12961 0
-2964 -4721 0
-2964 -8955 0
-4721 -8955 0
2964 4721 8955 0
-5231 -10887 0
-5231 -12962 0
-10887 -12962 0
5231 10887 12962 0
-3046 -6988 0
-3046 -7153 0
-6988 -7153 0
3046 6988 7153 0
-6059 -11793 0
-6059 -12963 0
-11793 -12963 0
6059 11793 12963 0
-1064 -9500 0
-1064 -10250 0
-9500 -10250 0
1064 9500 10250 0
-12964 -12965 0
-12964 -12966 0
-12965 -12966 0
12964 12965 12966 0
-28 -3648 0
-28 -12967 0
-3648 -12967 0
28 3648 12967 0
-1809 -12650 0
-1809 -12778 0
-12650 -12778 0
1809 12650 12778 0
-8221 -8834 0
-8221 -12968 0
-8834 -12968 0
8221 8834 12968 0
-10977 -11686 0
-10977 -11780 0
-11686 -11780 0
10977 11686 11780 0
-5058 -12969 0
-5058 -12970 0
-12969 -12970 0
5058 12969 12970 0
-1034 -11757 0
-1034 -12971 0
-11757 -12971 0
1034 11757 12971 0
-2207 -4542 0
-2207 -12972 0
-4542 -12972 0
2207 4542 12972 0
-4473 -11807 0
-4473 -12973 0
-11807 -12973 0
4473 11807 12973 0
-6266 -9709 0
-6266 -12974 0
-9709 -12974 0
6266 9709 12974 0
-4632 -12975 0
-4632 -12976 0
-12975 -12976 0
4632 12975 12976 0
-3557 -7975 0
-3557 -12195 0
-7975 -12195 0
3557 7975 12195 0
-3450 -12977 0
-3450 -12978 0
-12977 -12978 0
3450 12977 12978 0
-7079 -12979 0
-7079 -12980 0
-12979 -12980 0
7079 12979 12980 0
-12981 -12982 0
-12981 -12983 0
-12982 -12983 0
12981 12982 12983 0
-7551 -10551 0
-7551 -12984 0
-10551 -12984 0
7551 10551 12984 0
-11145 -12985 0
-11145 -12986 0
-12985 -12986 0
11145 12985 12986 0
-9098 -12987 0
-9098 -12988 0
-12987 -12988 0
9098 12987 12988 0
-312 -12989 0
-312 -12990 0
-12989 -12990 0
312 12989 12990 0
-531 -12856 0
-531 -12991 0
-12856 -12991 0
531 12856 12991 0
-11529 -12992 0
-11529 -12993 0
-12992 -12993 0
11529 12992 12993 0
-4781 -8685 0
-4781 -9670 0
-8685 -9670 0
4781 8685 9670 0
-10052 -10091 0
-10052 -12994 0
-10091 -12994 0
10052 10091 12994 0
-12995 -12996 0
-12995 -12997 0
-12996 -12997 0
12995 12996 12997 0
-10260 -12359 0
-10260 -12998 0
-12359 -12998 0
10260 12359 12998 0
-10400 -12736 0
-10400 -12999 0
-12736 -12999 0
10400 12736 12999 0
-7198 -13000 0
-7198 -13001 0
-13000 -13001 0
7198 13000 13001 0
-1006 -13002 0
-1006 -13003 0
-13002 -13003 0
1006 13002 13003 0
-12575 -13004 0
-12575 -13005 0
-13004 -13005 0
12575 13004 13005 0
-5687 -5695 0
-5687 -7607 0
-5695 -7607 0
5687 5695 7607 0
-451 -3484 0
-451 -13006 0
-3484 -13006 0
451 3484 13006 0
-8877 -10658 0
-8877 -13007 0
-10658 -13007 0
8877 10658 13007 0
-6557 -12019 0
-6557 -13008 0
-12019 -13008 0
6557 12019 13008 0
-13009 -13010 0
-13009 -13011 0
-13010 -13011 0
13009 13010 13011 0
-4261 -7083 0
-4261 -13012 0
-7083 -13012 0
4261 7083 13012 0
-2533 -5586 0
-2533 -13013 0
-5586 -13013 0
2533 5586 13013 0
-12884 -13014 0
-12884 -13015 0
-13014 -13015 0
12884 13014 13015 0
-5755 -13016 0
-5755 -13017 0
-13016 -13017 0
5755 13016 13017 0
-4150 -10864 0
-4150 -11003 0
-10864 -11003 0
4150 10864 11003 0
-7265 -12751 0
-7265 -13018 0
-12751 -13018 0
7265 12751 13018 0
-4952 -13019 0
-4952 -13020 0
-13019 -13020 0
4952 13019 13020 0
-1578 -12724 0
-1578 -13021 0
-12724 -13021 0
1578 12724 13021 0
-7266 -13022 0
-7266 -13023 0
-13022 -13023 0
7266 13022 13023 0
-5707 -13024 0
-5707 -13025 0
-13024 -13025 0
5707 13024 13025 0
-2359 -13026 0
-2359 -13027 0
-13026 -13027 0
2359 13026 13027 0
-13028 -13029 0
-13028 -13030 0
-13029 -13030 0
13028 13029 13030 0
-8328 -12747 0
-8328 -13031 0
-12747 -13031 0
8328 12747 13031 0
-10072 -10202 0
-10072 -13032 0
-10202 -13032 0
10072 10202 13032 0
-2644 -5342 0
-2644 -8187 0
-5342 -8187 0
2644 5342 8187 0
-2004 -7810 0
-2004 -12049 0
-7810 -12049 0
2004 7810 12049 0
-9367 -13033 0
-9367 -13034 0
-13033 -13034 0
9367 13033 13034 0
-9817 -12823 0
-9817 -13035 0
-12823 -13035 0
9817 12823 13035 0
-11739 -12631 0
-11739 -13036 0
-12631 -13036 0
11739 12631 13036 0
-1957 -13037 0
-1957 -13038 0
-13037 -13038 0
1957 13037 13038 0
-1052 -1679 0
-1052 -12588 0
-1679 -12588 0
1052 1679 12588 0
-7833 -9076 0
-7833 -13039 0
-9076 -13039 0
7833 9076 13039 0
-5432 -13040 0
-5432 -13041 0
-13040 -13041 0
5432 13040 13041 0
-8091 -10492 0
-8091 -13042 0
-10492 -13042 0
8091 10492 13042 0
-12892 -13043 0
-12892 -13044 0
-13043 -13044 0
12892 13043 13044 0
-1088 -10744 0
-1088 -13045 0
-10744 -13045 0
1088 10744 13045 0
-8059 -11774 0
-8059 -13046 0
-11774 -13046 0
8059 11774 13046 0
-4441 -13047 0
-4441 -13048 0
-13047 -13048 0
4441 13047 13048 0
-7424 -9544 0
-7424 -13049 0
-9544 -13049 0
7424 9544 13049 0
-8107 -10581 0
-8107 -13050 0
-10581 -13050 0
8107 10581 13050 0
-3290 -11723 0
-3290 -13051 0
-11723 -13051 0
3290 11723 13051 0
-266 -4559 0
-266 -9602 0
-4559 -9602 0
266 4559 9602 0
-10997 -11942 0
-10997 -13052 0
-11942 -13052 0
10997 11942 13052 0
-10712 -11108 0
-10712 -11425 0
-11108 -11425 0
10712 11108 11425 0
-8677 -10397 0
-8677 -10728 0
-10397 -10728 0
8677 10397 10728 0
-475 -7437 0
-475 -10534 0
-7437 -10534 0
475 7437 10534 0
-9003 -11394 0
-9003 -13053 0
-11394 -13053 0
9003 11394 13053 0
-1991 -3054 0
-1991 -6281 0
-3054 -6281 0
1991 3054 6281 0
-6489 -8556 0
-6489 -9429 0
-8556 -9429 0
6489 8556 9429 0
-3236 -9956 0
-3236 -13054 0
-9956 -13054 0
3236 9956 13054 0
-4166 -7759 0
-4166 -13055 0
-7759 -13055 0
4166 7759 13055 0
-116 -3751 0
-116 -13056 0
-3751 -13056 0
116 3751 13056 0
-3832 -11674 0
-3832 -13057 0
-11674 -13057 0
3832 11674 13057 0
-6770 -10097 0
-6770 -13058 0
-10097 -13058 0
6770 10097 13058 0
-8943 -13059 0
-8943 -13060 0
-13059 -13060 0
8943 13059 13060 0
-246 -7167 0
-246 -12520 0
-7167 -12520 0
246 7167 12520 0
-13061 -13062 0
-13061 -13063 0
-13062 -13063 0
13061 13062 13063 0
-11625 -11957 0
-11625 -13064 0
-11957 -13064 0
11625 11957 13064 0
-3539 -7635 0
-3539 -13065 0
-7635 -13065 0
3539 7635 13065 0
-308 -13066 0
-308 -13067 0
-13066 -13067 0
308 13066 13067 0
-12646 -13051 0
-12646 -13068 0
-13051 -13068 0
12646 13051 13068 0
-1704 -11384 0
-1704 -13069 0
-11384 -13069 0
1704 11384 13069 0
-2325 -12521 0
-2325 -13070 0
-12521 -13070 0
2325 12521 13070 0
-5849 -13071 0
-5849 -13072 0
-13071 -13072 0
5849 13071 13072 0
-6046 -10990 0
-6046 -13073 0
-10990 -13073 0
6046 10990 13073 0
-5388 -9414 0
-5388 -13074 0
-9414 -13074 0
5388 9414 13074 0
-485 -1977 0
-485 -13075 0
-1977 -13075 0
485 1977 13075 0
-10784 -12162 0
-10784 -13076 0
-12162 -13076 0
10784 12162 13076 0
-13077 -13078 0
-13077 -13079 0
-13078 -13079 0
13077 13078 13079 0
-2268 -3237 0
-2268 -10178 0
-3237 -10178 0
2268 3237 10178 0
-13080 -13081 0
-13080 -13082 0
-13081 -13082 0
13080 13081 13082 0
-7653 -9550 0
-7653 -13083 0
-9550 -13083 0
7653 9550 13083 0
-6817 -8318 0
-6817 -13084 0
-8318 -13084 0
6817 8318 13084 0
-6142 -13085 0
-6142 -13086 0
-13085 -13086 0
6142 13085 13086 0
-2320 -9751 0
-2320 -13087 0
-9751 -13087 0
2320 9751 13087 0
-6402 -8572 0
-6402 -13088 0
-8572 -13088 0
6402 8572 13088 0
-8162 -12739 0
-8162 -13089 0
-12739 -13089 0
8162 12739 13089 0
-10471 -10894 0
-10471 -12444 0
-10894 -12444 0
10471 10894 12444 0
-2413 -6122 0
-2413 -13090 0
-6122 -13090 0
2413 6122 13090 0
-8173 -10114 0
-8173 -11248 0
-10114 -11248 0
8173 10114 11248 0
-6773 -12479 0
-6773 -13091 0
-12479 -13091 0
6773 12479 13091 0
-13092 -13093 0
-13092 -13094 0
-13093 -13094 0
13092 13093 13094 0
-481 -6966 0
-481 -13095 0
-6966 -13095 0
481 6966 13095 0
-6738 -10609 0
-6738 -13096 0
-10609 -13096 0
6738 10609 13096 0
-8939 -13097 0
-8939 -13098 0
-13097 -13098 0
8939 13097 13098 0
-7061 -7811 0
-7061 -13099 0
-7811 -13099 0
7061 7811 13099 0
-4295 -5010 0
-4295 -13100 0
-5010 -13100 0
4295 5010 13100 0
-10986 -13101 0
-10986 -13102 0
-13101 -13102 0
10986 13101 13102 0
-6230 -13103 0
-6230 -13104 0
-13103 -13104 0
6230 13103 13104 0
-1128 -4995 0
-1128 -13105 0
-4995 -13105 0
1128 4995 13105 0
-5677 -11175 0
-5677 -13106 0
-11175 -13106 0
5677 11175 13106 0
-7597 -7889 0
-7597 -13107 0
-7889 -13107 0
7597 7889 13107 0
-8018 -13108 0
-8018 -13109 0
-13108 -13109 0
8018 13108 13109 0
-3113 -12345 0
-3113 -13110 0
-12345 -13110 0
3113 12345 13110 0
-2178 -10888 0
-2178 -13111 0
-10888 -13111 0
2178 10888 13111 0
-13112 -13113 0
-13112 -13114 0
-13113 -13114 0
13112 13113 13114 0
-12417 -12768 0
-12417 -13115 0
-12768 -13115 0
12417 12768 13115 0
-2388 -4378 0
-2388 -8648 0
-4378 -8648 0
2388 4378 8648 0
-5768 -8998 0
-5768 -13116 0
-8998 -13116 0
5768 8998 13116 0
-10300 -13117 0
-10300 -13118 0
-13117 -13118 0
10300 13117 13118 0
-5639 -13119 0
-5639 -13120 0
-13119 -13120 0
5639 13119 13120 0
-7832 -12201 0
-7832 -13121 0
-12201 -13121 0
7832 12201 13121 0
-5716 -13122 0
-5716 -13123 0
-13122 -13123 0
5716 13122 13123 0
-11472 -13124 0
-11472 -13125 0
-13124 -13125 0
11472 13124 13125 0
-13126 -13127 0
-13126 -13128 0
-13127 -13128 0
13126 13127 13128 0
-6563 -7591 0
-6563 -11847 0
-7591 -11847 0
6563 7591 11847 0
-628 -12437 0
-628 -13129 0
-12437 -13129 0
628 12437 13129 0
-8151 -9427 0
-8151 -13130 0
-9427 -13130 0
8151 9427 13130 0
-7019 -13131 0
-7019 -13132 0
-13131 -13132 0
7019 13131 13132 0
-3250 -9638 0
-3250 -12758 0
-9638 -12758 0
3250 9638 12758 0
-10122 -13133 0
-10122 -13134 0
-13133 -13134 0
10122 13133 13134 0
-908 -2642 0
-908 -13135 0
-2642 -13135 0
908 2642 13135 0
-5494 -6604 0
-5494 -7135 0
-6604 -7135 0
5494 6604 7135 0
-998 -4318 0
-998 -13136 0
-4318 -13136 0
998 4318 13136 0
-7063 -13137 0
-7063 -13138 0
-13137 -13138 0
7063 13137 13138 0
-1682 -13139 0
-1682 -13140 0
-13139 -13140 0
1682 13139 13140 0
-5039 -11722 0
-5039 -13141 0
-11722 -13141 0
5039 11722 13141 0
-259 -1904 0
-259 -12924 0
-1904 -12924 0
259 1904 12924 0
-13142 -13143 0
-13142 -13144 0
-13143 -13144 0
13142 13143 13144 0
-10730 -11692 0
-10730 -13145 0
-11692 -13145 0
10730 11692 13145 0
-2683 -12412 0
-2683 -13146 0
-12412 -13146 0
2683 12412 13146 0
-4794 -5028 0
-4794 -7476 0
-5028 -7476 0
4794 5028 7476 0
-361 -2923 0
-361 -8315 0
-2923 -8315 0
361 2923 8315 0
-8383 -12594 0
-8383 -13147 0
-12594 -13147 0
8383 12594 13147 0
-9369 -10926 0
-9369 -13148 0
-10926 -13148 0
9369 10926 13148 0
-9188 -11446 0
-9188 -13149 0
-11446 -13149 0
9188 11446 13149 0
-7749 -10860 0
-7749 -12480 0
-10860 -12480 0
7749 10860 12480 0
-3992 -6285 0
-3992 -13150 0
-6285 -13150 0
3992 6285 13150 0
-1061 -2355 0
-1061 -2445 0
-2355 -2445 0
1061 2355 2445 0
-13151 -13152 0
-13151 -13153 0
-13152 -13153 0
13151 13152 13153 0
-2239 -6656 0
-2239 -10667 0
-6656 -10667 0
2239 6656 10667 0
-3984 -12589 0
-3984 -12872 0
-12589 -12872 0
3984 12589 12872 0
-12488 -13154 0
-12488 -13155 0
-13154 -13155 0
12488 13154 13155 0
-2692 -4070 0
-2692 -13156 0
-4070 -13156 0
2692 4070 13156 0
-5249 -9723 0
-5249 -13157 0
-9723 -13157 0
5249 9723 13157 0
-11537 -11811 0
-11537 -13158 0
-11811 -13158 0
11537 11811 13158 0
-6058 -8862 0
-6058 -13159 0
-8862 -13159 0
6058 8862 13159 0
-5558 -8404 0
-5558 -13160 0
-8404 -13160 0
5558 8404 13160 0
-5004 -12022 0
-5004 -13161 0
-12022 -13161 0
5004 12022 13161 0
-6193 -10211 0
-6193 -13162 0
-10211 -13162 0
6193 10211 13162 0
-828 -7013 0
-828 -13163 0
-7013 -13163 0
828 7013 13163 0
-3854 -13164 0
-3854 -13165 0
-13164 -13165 0
3854 13164 13165 0
-11343 -13166 0
-11343 -13167 0
-13166 -13167 0
11343 13166 13167 0
-10146 -10306 0
-10146 -13168 0
-10306 -13168 0
10146 10306 13168 0
-7776 -8439 0
-7776 -12028 0
-8439 -12028 0
7776 8439 12028 0
-11877 -13169 0
-11877 -13170 0
-13169 -13170 0
11877 13169 13170 0
-9731 -12859 0
-9731 -13171 0
-12859 -13171 0
9731 12859 13171 0
-3219 -4255 0
-3219 -13172 0
-4255 -13172 0
3219 4255 13172 0
-3770 -10388 0
-3770 -13173 0
-10388 -13173 0
3770 10388 13173 0
-13174 -13175 0
-13174 -13176 0
-13175 -13176 0
13174 13175 13176 0
-4215 -11392 0
-4215 -13177 0
-11392 -13177 0
4215 11392 13177 0
-38 -13178 0
-38 -13179 0
-13178 -13179 0
38 13178 13179 0
-1602 -9863 0
-1602 -13180 0
-9863 -13180 0
1602 9863 13180 0
-12406 -13181 0
-12406 -13182 0
-13181 -13182 0
12406 13181 13182 0
-10841 -13157 0
-10841 -13183 0
-13157 -13183 0
10841 13157 13183 0
-12581 -13184 0
-12581 -13185 0
-13184 -13185 0
12581 13184 13185 0
-13186 -13187 0
-13186 -13188 0
-13187 -13188 0
13186 13187 13188 0
-96 -12995 0
-96 -13189 0
-12995 -13189 0
96 12995 13189 0
-10380 -13190 0
-10380 -13191 0
-13190 -13191 0
10380 13190 13191 0
-3016 -8850 0
-3016 -12332 0
-8850 -12332 0
3016 8850 12332 0
-2009 -12078 0
-2009 -13192 0
-12078 -13192 0
2009 12078 13192 0
-12648 -13193 0
-12648 -13194 0
-13193 -13194 0
12648 13193 13194 0
-1252 -6494 0
-1252 -13195 0
-6494 -13195 0
1252 6494 13195 0
-13178 -13196 0
-13178 -13197 0
-13196 -13197 0
13178 13196 13197 0
-2874 -4560 0
-2874 -10093 0
-4560 -10093 0
2874 4560 10093 0
-10115 -13014 0
-10115 -13198 0
-13014 -13198 0
10115 13014 13198 0
-6330 -9432 0
-6330 -13199 0
-9432 -13199 0
6330 9432 13199 0
-6905 -12404 0
-6905 -13200 0
-12404 -13200 0
6905 12404 13200 0
-3439 -8987 0
-3439 -12792 0
-8987 -12792 0
3439 8987 12792 0
-11979 -13201 0
-11979 -13202 0
-13201 -13202 0
11979 13201 13202 0
-1562 -4344 0
-1562 -11500 0
-4344 -11500 0
1562 4344 11500 0
-6704 -12522 0
-6704 -13203 0
-12522 -13203 0
6704 12522 13203 0
-2393 -13204 0
-2393 -13205 0
-13204 -13205 0
2393 13204 13205 0
-9380 -10024 0
-9380 -12060 0
-10024 -12060 0
9380 10024 12060 0
-10147 -13206 0
-10147 -13207 0
-13206 -13207 0
10147 13206 13207 0
-6012 -10005 0
-6012 -13208 0
-10005 -13208 0
6012 10005 13208 0
-6792 -13195 0
-6792 -13209 0
-13195 -13209 0
6792 13195 13209 0
-6573 -13210 0
-6573 -13211 0
-13210 -13211 0
6573 13210 13211 0
-7901 -8861 0
-7901 -12810 0
-8861 -12810 0
7901 8861 12810 0
-1806 -8733 0
-1806 -13212 0
-8733 -13212 0
1806 8733 13212 0
-9425 -10820 0
-9425 -13213 0
-10820 -13213 0
9425 10820 13213 0
-4217 -11345 0
-4217 -12711 0
-11345 -12711 0
4217 11345 12711 0
-11601 -12405 0
-11601 -13214 0
-12405 -13214 0
11601 12405 13214 0
-5489 -10960 0
-5489 -13215 0
-10960 -13215 0
5489 10960 13215 0
-6517 -10385 0
-6517 -13216 0
-10385 -13216 0
6517 10385 13216 0
-13217 -13218 0
-13217 -13219 0
-13218 -13219 0
13217 13218 13219 0
-5520 -6009 0
-5520 -13220 0
-6009 -13220 0
5520 6009 13220 0
-4719 -13221 0
-4719 -13222 0
-13221 -13222 0
4719 13221 13222 0
-4726 -13223 0
-4726 -13224 0
-13223 -13224 0
4726 13223 13224 0
-78 -13225 0
-78 -13226 0
-13225 -13226 0
78 13225 13226 0
-975 -1728 0
-975 -13227 0
-1728 -13227 0
975 1728 13227 0
-1687 -2462 0
-1687 -9289 0
-2462 -9289 0
1687 2462 9289 0
-4812 -10304 0
-4812 -13228 0
-10304 -13228 0
4812 10304 13228 0
-9278 -10414 0
-9278 -12820 0
-10414 -12820 0
9278 10414 12820 0
-1850 -8712 0
-1850 -13229 0
-8712 -13229 0
1850 8712 13229 0
-8682 -13230 0
-8682 -13231 0
-13230 -13231 0
8682 13230 13231 0
-933 -5737 0
-933 -13232 0
-5737 -13232 0
933 5737 13232 0
-4247 -11613 0
-4247 -12357 0
-11613 -12357 0
4247 11613 12357 0
-844 -1599 0
-844 -8423 0
-1599 -8423 0
844 1599 8423 0
-7875 -8200 0
-7875 -13233 0
-8200 -13233 0
7875 8200 13233 0
-9581 -13234 0
-9581 -13235 0
-13234 -13235 0
9581 13234 13235 0
-74 -6255 0
-74 -6976 0
-6255 -6976 0
74 6255 6976 0
-4799 -13236 0
-4799 -13237 0
-13236 -13237 0
4799 13236 13237 0
-9117 -10289 0
-9117 -12346 0
-10289 -12346 0
9117 10289 12346 0
-6256 -10796 0
-6256 -13238 0
-10796 -13238 0
6256 10796 13238 0
-1755 -6325 0
-1755 -11486 0
-6325 -11486 0
1755 6325 11486 0
-11047 -13239 0
-11047 -13240 0
-13239 -13240 0
11047 13239 13240 0
-11298 -12651 0
-11298 -13241 0
-12651 -13241 0
11298 12651 13241 0
-7338 -10025 0
-7338 -13242 0
-10025 -13242 0
7338 10025 13242 0
-5916 -13243 0
-5916 -13244 0
-13243 -13244 0
5916 13243 13244 0
-13245 -13246 0
-13245 -13247 0
-13246 -13247 0
13245 13246 13247 0
-3196 -6851 0
-3196 -13248 0
-6851 -13248 0
3196 6851 13248 0
-13249 -13250 0
-13249 -13251 0
-13250 -13251 0
13249 13250 13251 0
-10229 -11469 0
-10229 -13252 0
-11469 -13252 0
10229 11469 13252 0
-6628 -6926 0
-6628 -13253 0
-6926 -13253 0
6628 6926 13253 0
-8164 -13254 0
-8164 -13255 0
-13254 -13255 0
8164 13254 13255 0
-5034 -5595 0
-5034 -5891 0
-5595 -5891 0
5034 5595 5891 0
-406 -638 0
-406 -11881 0
-638 -11881 0
406 638 11881 0
-8565 -9566 0
-8565 -10689 0
-9566 -10689 0
8565 9566 10689 0
-9321 -9696 0
-9321 -11639 0
-9696 -11639 0
9321 9696 11639 0
-10487 -12068 0
-10487 -13256 0
-12068 -13256 0
10487 12068 13256 0
-3851 -10978 0
-3851 -12762 0
-10978 -12762 0
3851 10978 12762 0
-3200 -8390 0
-3200 -13257 0
-8390 -13257 0
3200 8390 13257 0
-6006 -13061 0
-6006 -13217 0
-13061 -13217 0
6006 13061 13217 0
-3540 -11291 0
-3540 -13258 0
-11291 -13258 0
3540 11291 13258 0
-4582 -7000 0
-4582 -12469 0
-7000 -12469 0
4582 7000 12469 0
-12368 -13259 0
-12368 -13260 0
-13259 -13260 0
12368 13259 13260 0
-13261 -13262 0
-13261 -13263 0
-13262 -13263 0
13261 13262 13263 0
-10565 -13264 0
-10565 -13265 0
-13264 -13265 0
10565 13264 13265 0
-10702 -12046 0
-10702 -13266 0
-12046 -13266 0
10702 12046 13266 0
-8262 -10441 0
-8262 -13150 0
-10441 -13150 0
8262 10441 13150 0
-13267 -13268 0
-13267 -13269 0
-13268 -13269 0
13267 13268 13269 0
-4324 -13270 0
-4324 -13271 0
-13270 -13271 0
4324 13270 13271 0
-3607 -8679 0
-3607 -13272 0
-8679 -13272 0
3607 8679 13272 0
-8920 -13273 0
-8920 -13274 0
-13273 -13274 0
8920 13273 13274 0
-12586 -13275 0
-12586 -13276 0
-13275 -13276 0
12586 13275 13276 0
-167 -2422 0
-167 -10678 0
-2422 -10678 0
167 2422 10678 0
-4630 -12161 0
-4630 -12574 0
-12161 -12574 0
4630 12161 12574 0
-10194 -13277 0
-10194 -13278 0
-13277 -13278 0
10194 13277 13278 0
-6576 -11268 0
-6576 -12102 0
-11268 -12102 0
6576 11268 12102 0
-10208 -10604 0
-10208 -13279 0
-10604 -13279 0
10208 10604 13279 0
-6434 -10831 0
-6434 -13280 0
-10831 -13280 0
6434 10831 13280 0
-346 -3791 0
-346 -11595 0
-3791 -11595 0
346 3791 11595 0
-10419 -11358 0
-10419 -13281 0
-11358 -13281 0
10419 11358 13281 0
-5282 -9296 0
-5282 -13282 0
-9296 -13282 0
5282 9296 13282 0
-13087 -13283 0
-13087 -13284 0
-13283 -13284 0
13087 13283 13284 0
-7123 -13071 0
-7123 -13285 0
-13071 -13285 0
7123 13071 13285 0
-1304 -9087 0
-1304 -10427 0
-9087 -10427 0
1304 9087 10427 0
-9382 -10686 0
-9382 -12598 0
-10686 -12598 0
9382 10686 12598 0
-588 -9341 0
-588 -11980 0
-9341 -11980 0
588 9341 11980 0
-2080 -13286 0
-2080 -13287 0
-13286 -13287 0
2080 13286 13287 0
-10948 -13204 0
-10948 -13288 0
-13204 -13288 0
10948 13204 13288 0
-8337 -12006 0
-8337 -13289 0
-12006 -13289 0
8337 12006 13289 0
-3849 -7011 0
-3849 -13290 0
-7011 -13290 0
3849 7011 13290 0
-7995 -13291 0
-7995 -13292 0
-13291 -13292 0
7995 13291 13292 0
-11513 -12053 0
-11513 -13293 0
-12053 -13293 0
11513 12053 13293 0
-2789 -11117 0
-2789 -13294 0
-11117 -13294 0
2789 11117 13294 0
-6801 -10992 0
-6801 -12677 0
-10992 -12677 0
6801 10992 12677 0
-9842 -11593 0
-9842 -13295 0
-11593 -13295 0
9842 11593 13295 0
-1521 -8645 0
-1521 -13296 0
-8645 -13296 0
1521 8645 13296 0
-3802 -5359 0
-3802 -7650 0
-5359 -7650 0
3802 5359 7650 0
-8424 -13297 0
-8424 -13298 0
-13297 -13298 0
8424 13297 13298 0
-4353 -9140 0
-4353 -13299 0
-9140 -13299 0
4353 9140 13299 0
-4996 -10254 0
-4996 -13300 0
-10254 -13300 0
4996 10254 13300 0
-4108 -11360 0
-4108 -12239 0
-11360 -12239 0
4108 11360 12239 0
-10248 -13301 0
-10248 -13302 0
-13301 -13302 0
10248 13301 13302 0
-9609 -11099 0
-9609 -13303 0
-11099 -13303 0
9609 11099 13303 0
-1012 -7935 0
-1012 -13304 0
-7935 -13304 0
1012 7935 13304 0
-9265 -13305 0
-9265 -13306 0
-13305 -13306 0
9265 13305 13306 0
-4148 -13139 0
-4148 -13307 0
-13139 -13307 0
4148 13139 13307 0
-285 -12116 0
-285 -13308 0
-12116 -13308 0
285 12116 13308 0
-3440 -13309 0
-3440 -13310 0
-13309 -13310 0
3440 13309 13310 0
-4088 -9327 0
-4088 -13311 0
-9327 -13311 0
4088 9327 13311 0
-1272 -9053 0
-1272 -13312 0
-9053 -13312 0
1272 9053 13312 0
-3825 -6113 0
-3825 -12932 0
-6113 -12932 0
3825 6113 12932 0
-3730 -9946 0
-3730 -13313 0
-9946 -13313 0
3730 9946 13313 0
-13314 -13315 0
-13314 -13316 0
-13315 -13316 0
13314 13315 13316 0
-9026 -13317 0
-9026 -13318 0
-13317 -13318 0
9026 13317 13318 0
-730 -12829 0
-730 -13319 0
-12829 -13319 0
730 12829 13319 0
-3383 -4442 0
-3383 -11958 0
-4442 -11958 0
3383 4442 11958 0
-1065 -8236 0
-1065 -8389 0
-8236 -8389 0
1065 8236 8389 0
-4594 -11526 0
-4594 -13320 0
-11526 -13320 0
4594 11526 13320 0
-263 -7567 0
-263 -13321 0
-7567 -13321 0
263 7567 13321 0
-13322 -13323 0
-13322 -13324 0
-13323 -13324 0
13322 13323 13324 0
-9757 -13325 0
-9757 -13326 0
-13325 -13326 0
9757 13325 13326 0
-10455 -11628 0
-10455 -13327 0
-11628 -13327 0
10455 11628 13327 0
-10204 -13328 0
-10204 -13329 0
-13328 -13329 0
10204 13328 13329 0
-9383 -12656 0
-9383 -13330 0
-12656 -13330 0
9383 12656 13330 0
-2347 -12048 0
-2347 -13331 0
-12048 -13331 0
2347 12048 13331 0
-13332 -13333 0
-13332 -13334 0
-13333 -13334 0
13332 13333 13334 0
-947 -9219 0
-947 -13335 0
-9219 -13335 0
947 9219 13335 0
-854 -9407 0
-854 -13336 0
-9407 -13336 0
854 9407 13336 0
-1857 -13337 0
-1857 -13338 0
-13337 -13338 0
1857 13337 13338 0
-3524 -8723 0
-3524 -13012 0
-8723 -13012 0
3524 8723 13012 0
-8500 -9848 0
-8500 -13339 0
-9848 -13339 0
8500 9848 13339 0
-4053 -11882 0
-4053 -13340 0
-11882 -13340 0
4053 11882 13340 0
-10031 -13341 0
-10031 -13342 0
-13341 -13342 0
10031 13341 13342 0
-13343 -13344 0
-13343 -13345 0
-13344 -13345 0
13343 13344 13345 0
-6971 -12678 0
-6971 -13346 0
-12678 -13346 0
6971 12678 13346 0
-6666 -11605 0
-6666 -13347 0
-11605 -13347 0
6666 11605 13347 0
-9411 -13348 0
-9411 -13349 0
-13348 -13349 0
9411 13348 13349 0
-8538 -13350 0
-8538 -13351 0
-13350 -13351 0
8538 13350 13351 0
-2150 -6648 0
-2150 -12280 0
-6648 -12280 0
2150 6648 12280 0
-1387 -11356 0
-1387 -12322 0
-11356 -12322 0
1387 11356 12322 0
-9871 -13352 0
-9871 -13353 0
-13352 -13353 0
9871 13352 13353 0
-10626 -13291 0
-10626 -13354 0
-13291 -13354 0
10626 13291 13354 0
-4396 -13355 0
-4396 -13356 0
-13355 -13356 0
4396 13355 13356 0
-235 -6763 0
-235 -13357 0
-6763 -13357 0
235 6763 13357 0
-4311 -8350 0
-4311 -13358 0
-8350 -13358 0
4311 8350 13358 0
-335 -2244 0
-335 -12247 0
-2244 -12247 0
335 2244 12247 0
-12705 -13359 0
-12705 -13360 0
-13359 -13360 0
12705 13359 13360 0
-1167 -8323 0
-1167 -13245 0
-8323 -13245 0
1167 8323 13245 0
-4536 -11061 0
-4536 -12799 0
-11061 -12799 0
4536 11061 12799 0
-206 -958 0
-206 -12858 0
-958 -12858 0
206 958 12858 0
-8480 -12967 0
-8480 -13361 0
-12967 -13361 0
8480 12967 13361 0
-8218 -13362 0
-8218 -13363 0
-13362 -13363 0
8218 13362 13363 0
-8680 -13364 0
-8680 -13365 0
-13364 -13365 0
8680 13364 13365 0
-5172 -13366 0
-5172 -13367 0
-13366 -13367 0
5172 13366 13367 0
-3889 -4000 0
-3889 -13368 0
-4000 -13368 0
3889 4000 13368 0
-7799 -10173 0
-7799 -12304 0
-10173 -12304 0
7799 10173 12304 0
-9916 -13369 0
-9916 -13370 0
-13369 -13370 0
9916 13369 13370 0
-7132 -9162 0
-7132 -11106 0
-9162 -11106 0
7132 9162 11106 0
-6503 -8461 0
-6503 -10307 0
-8461 -10307 0
6503 8461 10307 0
-8917 -12893 0
-8917 -13371 0
-12893 -13371 0
8917 12893 13371 0
-1962 -3659 0
-1962 -11938 0
-3659 -11938 0
1962 3659 11938 0
-7318 -9472 0
-7318 -13372 0
-9472 -13372 0
7318 9472 13372 0
-7113 -9560 0
-7113 -11784 0
-9560 -11784 0
7113 9560 11784 0
-4662 -4745 0
-4662 -7580 0
-4745 -7580 0
4662 4745 7580 0
-2797 -13373 0
-2797 -13374 0
-13373 -13374 0
2797 13373 13374 0
-6209 -8687 0
-6209 -13375 0
-8687 -13375 0
6209 8687 13375 0
-6979 -13359 0
-6979 -13376 0
-13359 -13376 0
6979 13359 13376 0
-12725 -13377 0
-12725 -13378 0
-13377 -13378 0
12725 13377 13378 0
-8111 -9467 0
-8111 -13311 0
-9467 -13311 0
8111 9467 13311 0
-1099 -2527 0
-1099 -13379 0
-2527 -13379 0
1099 2527 13379 0
-6341 -11720 0
-6341 -13380 0
-11720 -13380 0
6341 11720 13380 0
-6840 -7648 0
-6840 -13381 0
-7648 -13381 0
6840 7648 13381 0
-3920 -7377 0
-3920 -12234 0
-7377 -12234 0
3920 7377 12234 0
-4890 -13382 0
-4890 -13383 0
-13382 -13383 0
4890 13382 13383 0
-659 -8622 0
-659 -12370 0
-8622 -12370 0
659 8622 12370 0
-10548 -12600 0
-10548 -13384 0
-12600 -13384 0
10548 12600 13384 0
-8 -4444 0
-8 -13227 0
-4444 -13227 0
8 4444 13227 0
-3674 -7677 0
-3674 -13385 0
-7677 -13385 0
3674 7677 13385 0
-2506 -13386 0
-2506 -13387 0
-13386 -13387 0
2506 13386 13387 0
-6789 -12378 0
-6789 -13388 0
-12378 -13388 0
6789 12378 13388 0
-10460 -11398 0
-10460 -13389 0
-11398 -13389 0
10460 11398 13389 0
-3473 -8569 0
-3473 -13390 0
-8569 -13390 0
3473 8569 13390 0
-13391 -13392 0
-13391 -13393 0
-13392 -13393 0
13391 13392 13393 0
-5024 -10750 0
-5024 -13394 0
-10750 -13394 0
5024 10750 13394 0
-3918 -12223 0
-3918 -12869 0
-12223 -12869 0
3918 12223 12869 0
-12975 -13395 0
-12975 -13396 0
-13395 -13396 0
12975 13395 13396 0
-486 -10033 0
-486 -13397 0
-10033 -13397 0
486 10033 13397 0
-5795 -11853 0
-5795 -12604 0
-11853 -12604 0
5795 11853 12604 0
-4538 -8531 0
-4538 -13398 0
-8531 -13398 0
4538 8531 13398 0
-885 -12843 0
-885 -13399 0
-12843 -13399 0
885 12843 13399 0
-6185 -10775 0
-6185 -13400 0
-10775 -13400 0
6185 10775 13400 0
-7911 -8054 0
-7911 -13166 0
-8054 -13166 0
7911 8054 13166 0
-5619 -10421 0
-5619 -13401 0
-10421 -13401 0
5619 10421 13401 0
-5321 -7780 0
-5321 -13402 0
-7780 -13402 0
5321 7780 13402 0
-3649 -8574 0
-3649 -11660 0
-8574 -11660 0
3649 8574 11660 0
-13403 -13404 0
-13403 -13405 0
-13404 -13405 0
13403 13404 13405 0
-328 -12315 0
-328 -13406 0
-12315 -13406 0
328 12315 13406 0
-9282 -9390 0
-9282 -13407 0
-9390 -13407 0
9282 9390 13407 0
-3365 -11982 0
-3365 -13408 0
-11982 -13408 0
3365 11982 13408 0
-2732 -6829 0
-2732 -13409 0
-6829 -13409 0
2732 6829 13409 0
-1225 -8897 0
-1225 -13410 0
-8897 -13410 0
1225 8897 13410 0
-1168 -7129 0
-1168 -13411 0
-7129 -13411 0
1168 7129 13411 0
-3641 -5583 0
-3641 -7950 0
-5583 -7950 0
3641 5583 7950 0
-4365 -7585 0
-4365 -13412 0
-7585 -13412 0
4365 7585 13412 0
-2331 -9849 0
-2331 -13413 0
-9849 -13413 0
2331 9849 13413 0
-9648 -13414 0
-9648 -13415 0
-13414 -13415 0
9648 13414 13415 0
-5326 -9786 0
-5326 -13416 0
-9786 -13416 0
5326 9786 13416 0
-3184 -10842 0
-3184 -13417 0
-10842 -13417 0
3184 10842 13417 0
-13418 -13419 0
-13418 -13420 0
-13419 -13420 0
13418 13419 13420 0
-7765 -13000 0
-7765 -13421 0
-13000 -13421 0
7765 13000 13421 0
-2805 -3592 0
-2805 -10358 0
-3592 -10358 0
2805 3592 10358 0
-2800 -13112 0
-2800 -13422 0
-13112 -13422 0
2800 13112 13422 0
-13423 -13424 0
-13423 -13425 0
-13424 -13425 0
13423 13424 13425 0
-10391 -13426 0
-10391 -13427 0
-13426 -13427 0
10391 13426 13427 0
-2936 -11856 0
-2936 -13428 0
-11856 -13428 0
2936 11856 13428 0
-560 -13429 0
-560 -13430 0
-13429 -13430 0
560 13429 13430 0
-9017 -9794 0
-9017 -13431 0
-9794 -13431 0
9017 9794 13431 0
-8898 -10504 0
-8898 -13432 0
-10504 -13432 0
8898 10504 13432 0
-3706 -11626 0
-3706 -13433 0
-11626 -13433 0
3706 11626 13433 0
-6845 -11810 0
-6845 -13434 0
-11810 -13434 0
6845 11810 13434 0
-6984 -12473 0
-6984 -12907 0
-12473 -12907 0
6984 12473 12907 0
-7777 -10607 0
-7777 -13435 0
-10607 -13435 0
7777 10607 13435 0
-6764 -13058 0
-6764 -13436 0
-13058 -13436 0
6764 13058 13436 0
-4655 -7491 0
-4655 -13437 0
-7491 -13437 0
4655 7491 13437 0
-7337 -13438 0
-7337 -13439 0
-13438 -13439 0
7337 13438 13439 0
-1362 -11916 0
-1362 -13440 0
-11916 -13440 0
1362 11916 13440 0
-2605 -9875 0
-2605 -13441 0
-9875 -13441 0
2605 9875 13441 0
-5128 -7140 0
-5128 -11266 0
-7140 -11266 0
5128 7140 11266 0
-5093 -5392 0
-5093 -9517 0
-5392 -9517 0
5093 5392 9517 0
-3836 -12182 0
-3836 -13442 0
-12182 -13442 0
3836 12182 13442 0
-11880 -13443 0
-11880 -13444 0
-13443 -13444 0
11880 13443 13444 0
-7924 -8413 0
-7924 -11819 0
-8413 -11819 0
7924 8413 11819 0
-6204 -13445 0
-6204 -13446 0
-13445 -13446 0
6204 13445 13446 0
-11295 -13447 0
-11295 -13448 0
-13447 -13448 0
11295 13447 13448 0
-5264 -12658 0
-5264 -13449 0
-12658 -13449 0
5264 12658 13449 0
-4160 -9684 0
-4160 -13450 0
-9684 -13450 0
4160 9684 13450 0
-1945 -3475 0
-1945 -11704 0
-3475 -11704 0
1945 3475 11704 0
-9204 -13451 0
-9204 -13452 0
-13451 -13452 0
9204 13451 13452 0
-8092 -13453 0
-8092 -13454 0
-13453 -13454 0
8092 13453 13454 0
-3337 -13173 0
-3337 -13455 0
-13173 -13455 0
3337 13173 13455 0
-175 -5483 0
-175 -7612 0
-5483 -7612 0
175 5483 7612 0
-13162 -13456 0
-13162 -13457 0
-13456 -13457 0
13162 13456 13457 0
-5393 -13458 0
-5393 -13459 0
-13458 -13459 0
5393 13458 13459 0
-9456 -12293 0
-9456 -13460 0
-12293 -13460 0
9456 12293 13460 0
-9222 -13461 0
-9222 -13462 0
-13461 -13462 0
9222 13461 13462 0
-2360 -8445 0
-2360 -13463 0
-8445 -13463 0
2360 8445 13463 0
-13464 -13465 0
-13464 -13466 0
-13465 -13466 0
13464 13465 13466 0
-4377 -8542 0
-4377 -13467 0
-8542 -13467 0
4377 8542 13467 0
-13206 -13468 0
-13206 -13469 0
-13468 -13469 0
13206 13468 13469 0
-2653 -12266 0
-2653 -13470 0
-12266 -13470 0
2653 12266 13470 0
-6459 -9572 0
-6459 -13471 0
-9572 -13471 0
6459 9572 13471 0
-13080 -13472 0
-13080 -13473 0
-13472 -13473 0
13080 13472 13473 0
-9891 -13474 0
-9891 -13475 0
-13474 -13475 0
9891 13474 13475 0
-12299 -13476 0
-12299 -13477 0
-13476 -13477 0
12299 13476 13477 0
-3942 -12652 0
-3942 -13478 0
-12652 -13478 0
3942 12652 13478 0
-7328 -13479 0
-7328 -13480 0
-13479 -13480 0
7328 13479 13480 0
-2075 -13481 0
-2075 -13482 0
-13481 -13482 0
2075 13481 13482 0
-3899 -6691 0
-3899 -13483 0
-6691 -13483 0
3899 6691 13483 0
-6273 -6422 0
-6273 -13484 0
-6422 -13484 0
6273 6422 13484 0
-9055 -13174 0
-9055 -13485 0
-13174 -13485 0
9055 13174 13485 0
-9666 -13486 0
-9666 -13487 0
-13486 -13487 0
9666 13486 13487 0
-6079 -6603 0
-6079 -13488 0
-6603 -13488 0
6079 6603 13488 0
-8619 -13399 0
-8619 -13489 0
-13399 -13489 0
8619 13399 13489 0
-1277 -13490 0
-1277 -13491 0
-13490 -13491 0
1277 13490 13491 0
-2477 -13492 0
-2477 -13493 0
-13492 -13493 0
2477 13492 13493 0
-13494 -13495 0
-13494 -13496 0
-13495 -13496 0
13494 13495 13496 0
-677 -6718 0
-677 -13497 0
-6718 -13497 0
677 6718 13497 0
-528 -6900 0
-528 -11536 0
-6900 -11536 0
528 6900 11536 0
-2362 -12606 0
-2362 -13498 0
-12606 -13498 0
2362 12606 13498 0
-934 -5169 0
-934 -10133 0
-5169 -10133 0
934 5169 10133 0
-4923 -10923 0
-4923 -13499 0
-10923 -13499 0
4923 10923 13499 0
-2345 -2549 0
-2345 -13500 0
-2549 -13500 0
2345 2549 13500 0
-13501 -13502 0
-13501 -13503 0
-13502 -13503 0
13501 13502 13503 0
-8297 -11850 0
-8297 -12686 0
-11850 -12686 0
8297 11850 12686 0
-7411 -13394 0
-7411 -13504 0
-13394 -13504 0
7411 13394 13504 0
-706 -1985 0
-706 -12996 0
-1985 -12996 0
706 1985 12996 0
-11492 -12636 0
-11492 -13505 0
-12636 -13505 0
11492 12636 13505 0
-8750 -12617 0
-8750 -13506 0
-12617 -13506 0
8750 12617 13506 0
-196 -7128 0
-196 -10357 0
-7128 -10357 0
196 7128 10357 0
-8278 -9611 0
-8278 -12337 0
-9611 -12337 0
8278 9611 12337 0
-9538 -9545 0
-9538 -11538 0
-9545 -11538 0
9538 9545 11538 0
-5673 -9019 0
-5673 -13507 0
-9019 -13507 0
5673 9019 13507 0
-7531 -13057 0
-7531 -13508 0
-13057 -13508 0
7531 13057 13508 0
-286 -564 0
-286 -9693 0
-564 -9693 0
286 564 9693 0
-4338 -7860 0
-4338 -8774 0
-7860 -8774 0
4338 7860 8774 0
-9573 -12627 0
-9573 -13509 0
-12627 -13509 0
9573 12627 13509 0
-13510 -13511 0
-13510 -13512 0
-13511 -13512 0
13510 13511 13512 0
-2374 -12803 0
-2374 -13513 0
-12803 -13513 0
2374 12803 13513 0
-11842 -13218 0
-11842 -13514 0
-13218 -13514 0
11842 13218 13514 0
-12804 -13515 0
-12804 -13516 0
-13515 -13516 0
12804 13515 13516 0
-5757 -13517 0
-5757 -13518 0
-13517 -13518 0
5757 13517 13518 0
-4897 -13519 0
-4897 -13520 0
-13519 -13520 0
4897 13519 13520 0
-12795 -13521 0
-12795 -13522 0
-13521 -13522 0
12795 13521 13522 0
-7579 -13523 0
-7579 -13524 0
-13523 -13524 0
7579 13523 13524 0
-2552 -8179 0
-2552 -11091 0
-8179 -11091 0
2552 8179 11091 0
-418 -3211 0
-418 -13126 0
-3211 -13126 0
418 3211 13126 0
-7713 -11701 0
-7713 -13525 0
-11701 -13525 0
7713 11701 13525 0
-12203 -13526 0
-12203 -13527 0
-13526 -13527 0
12203 13526 13527 0
-6876 -13517 0
-6876 -13528 0
-13517 -13528 0
6876 13517 13528 0
-1200 -2041 0
-1200 -4647 0
-2041 -4647 0
1200 2041 4647 0
-3996 -4640 0
-3996 -13529 0
-4640 -13529 0
3996 4640 13529 0
-9595 -10998 0
-9595 -13530 0
-10998 -13530 0
9595 10998 13530 0
-4936 -4993 0
-4936 -11479 0
-4993 -11479 0
4936 4993 11479 0
-6095 -13531 0
-6095 -13532 0
-13531 -13532 0
6095 13531 13532 0
-8019 -10401 0
-8019 -13533 0
-10401 -13533 0
8019 10401 13533 0
-6497 -12079 0
-6497 -13534 0
-12079 -13534 0
6497 12079 13534 0
-8797 -9146 0
-8797 -9493 0
-9146 -9493 0
8797 9146 9493 0
-100 -10853 0
-100 -12020 0
-10853 -12020 0
100 10853 12020 0
-9732 -13535 0
-9732 -13536 0
-13535 -13536 0
9732 13535 13536 0
-5971 -11375 0
-5971 -12628 0
-11375 -12628 0
5971 11375 12628 0
-7552 -13101 0
-7552 -13537 0
-13101 -13537 0
7552 13101 13537 0
-11808 -13428 0
-11808 -13538 0
-13428 -13538 0
11808 13428 13538 0
-8691 -12763 0
-8691 -13539 0
-12763 -13539 0
8691 12763 13539 0
-12622 -13540 0
-12622 -13541 0
-13540 -13541 0
12622 13540 13541 0
-9179 -13542 0
-9179 -13543 0
-13542 -13543 0
9179 13542 13543 0
-602 -11224 0
-602 -13544 0
-11224 -13544 0
602 11224 13544 0
-9690 -10350 0
-9690 -11140 0
-10350 -11140 0
9690 10350 11140 0
-1215 -3109 0
-1215 -7828 0
-3109 -7828 0
1215 3109 7828 0
-9395 -12224 0
-9395 -13545 0
-12224 -13545 0
9395 12224 13545 0
-9297 -13546 0
-9297 -13547 0
-13546 -13547 0
9297 13546 13547 0
-9361 -13548 0
-9361 -13549 0
-13548 -13549 0
9361 13548 13549 0
-2595 -9941 0
-2595 -13550 0
-9941 -13550 0
2595 9941 13550 0
-3643 -5923 0
-3643 -7641 0
-5923 -7641 0
3643 5923 7641 0
-1618 -5573 0
-1618 -9624 0
-5573 -9624 0
1618 5573 9624 0
-9575 -9963 0
-9575 -13551 0
-9963 -13551 0
9575 9963 13551 0
-2601 -7894 0
-2601 -8759 0
-7894 -8759 0
2601 7894 8759 0
-10594 -11339 0
-10594 -13552 0
-11339 -13552 0
10594 11339 13552 0
-7704 -13553 0
-7704 -13554 0
-13553 -13554 0
7704 13553 13554 0
-5801 -13555 0
-5801 -13556 0
-13555 -13556 0
5801 13555 13556 0
-13557 -13558 0
-13557 -13559 0
-13558 -13559 0
13557 13558 13559 0
-4191 -6635 0
-4191 -13560 0
-6635 -13560 0
4191 6635 13560 0
-2015 -8515 0
-2015 -8819 0
-8515 -8819 0
2015 8515 8819 0
-1160 -4914 0
-1160 -11109 0
-4914 -11109 0
1160 4914 11109 0
-6961 -10016 0
-6961 -12585 0
-10016 -12585 0
6961 10016 12585 0
-7232 -9840 0
-7232 -13561 0
-9840 -13561 0
7232 9840 13561 0
-6310 -11196 0
-6310 -13562 0
-11196 -13562 0
6310 11196 13562 0
-2153 -8753 0
-2153 -13563 0
-8753 -13563 0
2153 8753 13563 0
-6423 -13564 0
-6423 -13565 0
-13564 -13565 0
6423 13564 13565 0
-6855 -7222 0
-6855 -8631 0
-7222 -8631 0
6855 7222 8631 0
-13566 -13567 0
-13566 -13568 0
-13567 -13568 0
13566 13567 13568 0
-2563 -8023 0
-2563 -13569 0
-8023 -13569 0
2563 8023 13569 0
-4896 -13570 0
-4896 -13571 0
-13570 -13571 0
4896 13570 13571 0
-653 -13572 0
-653 -13573 0
-13572 -13573 0
653 13572 13573 0
-2113 -8373 0
-2113 -8476 0
-8373 -8476 0
2113 8373 8476 0
-8937 -11147 0
-8937 -11553 0
-11147 -11553 0
8937 11147 11553 0
-12230 -13574 0
-12230 -13575 0
-13574 -13575 0
12230 13574 13575 0
-6674 -11906 0
-6674 -13576 0
-11906 -13576 0
6674 11906 13576 0
-1605 -1892 0
-1605 -10772 0
-1892 -10772 0
1605 1892 10772 0
-13577 -13578 0
-13577 -13579 0
-13578 -13579 0
13577 13578 13579 0
-2127 -13264 0
-2127 -13580 0
-13264 -13580 0
2127 13264 13580 0
-5234 -6650 0
-5234 -13581 0
-6650 -13581 0
5234 6650 13581 0
-2490 -12090 0
-2490 -12244 0
-12090 -12244 0
2490 12090 12244 0
-9887 -10761 0
-9887 -13582 0
-10761 -13582 0
9887 10761 13582 0
-2118 -7642 0
-2118 -11380 0
-7642 -11380 0
2118 7642 11380 0
-13583 -13584 0
-13583 -13585 0
-13584 -13585 0
13583 13584 13585 0
-6347 -12543 0
-6347 -13586 0
-12543 -13586 0
6347 12543 13586 0
-10105 -13587 0
-10105 -13588 0
-13587 -13588 0
10105 13587 13588 0
-6067 -12228 0
-6067 -13589 0
-12228 -13589 0
6067 12228 13589 0
-4116 -8327 0
-4116 -13590 0
-8327 -13590 0
4116 8327 13590 0
-341 -7466 0
-341 -9116 0
-7466 -9116 0
341 7466 9116 0
-272 -10125 0
-272 -11679 0
-10125 -11679 0
272 10125 11679 0
-13037 -13591 0
-13037 -13592 0
-13591 -13592 0
13037 13591 13592 0
-2555 -5758 0
-2555 -10353 0
-5758 -10353 0
2555 5758 10353 0
-5490 -13593 0
-5490 -13594 0
-13593 -13594 0
5490 13593 13594 0
-1060 -11633 0
-1060 -13595 0
-11633 -13595 0
1060 11633 13595 0
-6461 -9779 0
-6461 -13596 0
-9779 -13596 0
6461 9779 13596 0
-4259 -4654 0
-4259 -7760 0
-4654 -7760 0
4259 4654 7760 0
-2005 -12366 0
-2005 -13348 0
-12366 -13348 0
2005 12366 13348 0
-1478 -4225 0
-1478 -9745 0
-4225 -9745 0
1478 4225 9745 0
-9804 -13539 0
-9804 -13597 0
-13539 -13597 0
9804 13539 13597 0
-7535 -9097 0
-7535 -13598 0
-9097 -13598 0
7535 9097 13598 0
-8028 -10885 0
-8028 -13599 0
-10885 -13599 0
8028 10885 13599 0
-823 -10848 0
-823 -13600 0
-10848 -13600 0
823 10848 13600 0
-5913 -6284 0
-5913 -13601 0
-6284 -13601 0
5913 6284 13601 0
-203 -3270 0
-203 -13602 0
-3270 -13602 0
203 3270 13602 0
-221 -3258 0
-221 -13603 0
-3258 -13603 0
221 3258 13603 0
-691 -5563 0
-691 -13604 0
-5563 -13604 0
691 5563 13604 0
-3700 -8994 0
-3700 -13605 0
-8994 -13605 0
3700 8994 13605 0
-11288 -12526 0
-11288 -13606 0
-12526 -13606 0
11288 12526 13606 0
-620 -11680 0
-620 -12634 0
-11680 -12634 0
620 11680 12634 0
-1845 -5055 0
-1845 -13607 0
-5055 -13607 0
1845 5055 13607 0
-2171 -8384 0
-2171 -10369 0
-8384 -10369 0
2171 8384 10369 0
-2508 -13593 0
-2508 -13608 0
-13593 -13608 0
2508 13593 13608 0
-1100 -5929 0
-1100 -8420 0
-5929 -8420 0
1100 5929 8420 0
-11321 -13609 0
-11321 -13610 0
-13609 -13610 0
11321 13609 13610 0
-7996 -13577 0
-7996 -13611 0
-13577 -13611 0
7996 13577 13611 0
-13296 -13612 0
-13296 -13613 0
-13612 -13613 0
13296 13612 13613 0
-1154 -13614 0
-1154 -13615 0
-13614 -13615 0
1154 13614 13615 0
-9113 -12338 0
-9113 -12528 0
-12338 -12528 0
9113 12338 12528 0
-5809 -11213 0
-5809 -12335 0
-11213 -12335 0
5809 11213 12335 0
-9110 -13616 0
-9110 -13617 0
-13616 -13617 0
9110 13616 13617 0
-519 -7511 0
-519 -8089 0
-7511 -8089 0
519 7511 8089 0
-9986 -12064 0
-9986 -13461 0
-12064 -13461 0
9986 12064 13461 0
-5518 -9401 0
-5518 -10341 0
-9401 -10341 0
5518 9401 10341 0
-3170 -13066 0
-3170 -13618 0
-13066 -13618 0
3170 13066 13618 0
-6431 -13619 0
-6431 -13620 0
-13619 -13620 0
6431 13619 13620 0
-3542 -13621 0
-3542 -13622 0
-13621 -13622 0
3542 13621 13622 0
-2464 -6090 0
-2464 -13623 0
-6090 -13623 0
2464 6090 13623 0
-1092 -11772 0
-1092 -13624 0
-11772 -13624 0
1092 11772 13624 0
-2285 -13625 0
-2285 -13626 0
-13625 -13626 0
2285 13625 13626 0
-1770 -5523 0
-1770 -13627 0
-5523 -13627 0
1770 5523 13627 0
-13261 -13628 0
-13261 -13629 0
-13628 -13629 0
13261 13628 13629 0
-740 -13542 0
-740 -13630 0
-13542 -13630 0
740 13542 13630 0
-2871 -9881 0
-2871 -13631 0
-9881 -13631 0
2871 9881 13631 0
-11949 -13632 0
-11949 -13633 0
-13632 -13633 0
11949 13632 13633 0
-4955 -11015 0
-4955 -13634 0
-11015 -13634 0
4955 11015 13634 0
-11815 -13635 0
-11815 -13636 0
-13635 -13636 0
11815 13635 13636 0
-7769 -10076 0
-7769 -12533 0
-10076 -12533 0
7769 10076 12533 0
-7862 -13637 0
-7862 -13638 0
-13637 -13638 0
7862 13637 13638 0
-3518 -8185 0
-3518 -11366 0
-8185 -11366 0
3518 8185 11366 0
-7571 -10382 0
-7571 -13639 0
-10382 -13639 0
7571 10382 13639 0
-10979 -11691 0
-10979 -13640 0
-11691 -13640 0
10979 11691 13640 0
-5446 -13641 0
-5446 -13642 0
-13641 -13642 0
5446 13641 13642 0
-10089 -11447 0
-10089 -12173 0
-11447 -12173 0
10089 11447 12173 0
-299 -10045 0
-299 -12989 0
-10045 -12989 0
299 10045 12989 0
-9675 -13561 0
-9675 -13643 0
-13561 -13643 0
9675 13561 13643 0
-963 -12607 0
-963 -13644 0
-12607 -13644 0
963 12607 13644 0
-497 -11225 0
-497 -12800 0
-11225 -12800 0
497 11225 12800 0
-2233 -11956 0
-2233 -13645 0
-11956 -13645 0
2233 11956 13645 0
-5029 -9767 0
-5029 -13646 0
-9767 -13646 0
5029 9767 13646 0
-2314 -7767 0
-2314 -13375 0
-7767 -13375 0
2314 7767 13375 0
-2376 -6985 0
-2376 -13647 0
-6985 -13647 0
2376 6985 13647 0
-8494 -9343 0
-8494 -13648 0
-9343 -13648 0
8494 9343 13648 0
-13201 -13649 0
-13201 -13650 0
-13649 -13650 0
13201 13649 13650 0
-1982 -2363 0
-1982 -12954 0
-2363 -12954 0
1982 2363 12954 0
-10281 -11765 0
-10281 -13651 0
-11765 -13651 0
10281 11765 13651 0
-358 -12210 0
-358 -13652 0
-12210 -13652 0
358 12210 13652 0
-3901 -13038 0
-3901 -13653 0
-13038 -13653 0
3901 13038 13653 0
-4188 -6692 0
-4188 -7225 0
-6692 -7225 0
4188 6692 7225 0
-5829 -12391 0
-5829 -13654 0
-12391 -13654 0
5829 12391 13654 0
-6485 -11782 0
-6485 -12894 0
-11782 -12894 0
6485 11782 12894 0
-252 -4595 0
-252 -13655 0
-4595 -13655 0
252 4595 13655 0
-1007 -1819 0
-1007 -12832 0
-1819 -12832 0
1007 1819 12832 0
-9257 -10946 0
-9257 -13656 0
-10946 -13656 0
9257 10946 13656 0
-10862 -13285 0
-10862 -13657 0
-13285 -13657 0
10862 13285 13657 0
-2835 -8995 0
-2835 -13658 0
-8995 -13658 0
2835 8995 13658 0
-3317 -11676 0
-3317 -11705 0
-11676 -11705 0
3317 11676 11705 0
-2951 -10212 0
-2951 -10865 0
-10212 -10865 0
2951 10212 10865 0
-150 -4873 0
-150 -9990 0
-4873 -9990 0
150 4873 9990 0
-3551 -6629 0
-3551 -13659 0
-6629 -13659 0
3551 6629 13659 0
-4051 -10199 0
-4051 -11993 0
-10199 -11993 0
4051 10199 11993 0
-1914 -5812 0
-1914 -12895 0
-5812 -12895 0
1914 5812 12895 0
-672 -6816 0
-672 -12566 0
-6816 -12566 0
672 6816 12566 0
-1372 -13660 0
-1372 -13661 0
-13660 -13661 0
1372 13660 13661 0
-11075 -12503 0
-11075 -13662 0
-12503 -13662 0
11075 12503 13662 0
-3761 -8799 0
-3761 -13391 0
-8799 -13391 0
3761 8799 13391 0
-4419 -4891 0
-4419 -13013 0
-4891 -13013 0
4419 4891 13013 0
-13606 -13663 0
-13606 -13664 0
-13663 -13664 0
13606 13663 13664 0
-11580 -13665 0
-11580 -13666 0
-13665 -13666 0
11580 13665 13666 0
-5292 -10154 0
-5292 -13095 0
-10154 -13095 0
5292 10154 13095 0
-2993 -11790 0
-2993 -13667 0
-11790 -13667 0
2993 11790 13667 0
-2733 -12434 0
-2733 -13668 0
-12434 -13668 0
2733 12434 13668 0
-13669 -13670 0
-13669 -13671 0
-13670 -13671 0
13669 13670 13671 0
-12350 -12805 0
-12350 -13672 0
-12805 -13672 0
12350 12805 13672 0
-1490 -10708 0
-1490 -11087 0
-10708 -11087 0
1490 10708 11087 0
-5083 -6813 0
-5083 -8360 0
-6813 -8360 0
5083 6813 8360 0
-8330 -10035 0
-8330 -13673 0
-10035 -13673 0
8330 10035 13673 0
-9789 -12442 0
-9789 -13674 0
-12442 -13674 0
9789 12442 13674 0
-6029 -10323 0
-6029 -12992 0
-10323 -12992 0
6029 10323 12992 0
-1249 -3375 0
-1249 -13675 0
-3375 -13675 0
1249 3375 13675 0
-6784 -13676 0
-6784 -13677 0
-13676 -13677 0
6784 13676 13677 0
-585 -13678 0
-585 -13679 0
-13678 -13679 0
585 13678 13679 0
-7487 -11944 0
-7487 -12548 0
-11944 -12548 0
7487 11944 12548 0
-10210 -11190 0
-10210 -13680 0
-11190 -13680 0
10210 11190 13680 0
-394 -6519 0
-394 -7806 0
-6519 -7806 0
394 6519 7806 0
-488 -13212 0
-488 -13681 0
-13212 -13681 0
488 13212 13681 0
-8781 -13682 0
-8781 -13683 0
-13682 -13683 0
8781 13682 13683 0
-8772 -13340 0
-8772 -13684 0
-13340 -13684 0
8772 13340 13684 0
-3502 -13685 0
-3502 -13686 0
-13685 -13686 0
3502 13685 13686 0
-2849 -11462 0
-2849 -13687 0
-11462 -13687 0
2849 11462 13687 0
-8828 -9578 0
-8828 -11097 0
-9578 -11097 0
8828 9578 11097 0
-9558 -12881 0
-9558 -13688 0
-12881 -13688 0
9558 12881 13688 0
-5154 -13689 0
-5154 -13690 0
-13689 -13690 0
5154 13689 13690 0
-8911 -12200 0
-8911 -12482 0
-12200 -12482 0
8911 12200 12482 0
-4528 -13691 0
-4528 -13692 0
-13691 -13692 0
4528 13691 13692 0
-1918 -6820 0
-1918 -12761 0
-6820 -12761 0
1918 6820 12761 0
-8508 -13693 0
-8508 -13694 0
-13693 -13694 0
8508 13693 13694 0
-11498 -13695 0
-11498 -13696 0
-13695 -13696 0
11498 13695 13696 0
-7028 -13697 0
-7028 -13698 0
-13697 -13698 0
7028 13697 13698 0
-4198 -13699 0
-4198 -13700 0
-13699 -13700 0
4198 13699 13700 0
-1522 -4157 0
-1522 -13362 0
-4157 -13362 0
1522 4157 13362 0
-12670 -13701 0
-12670 -13702 0
-13701 -13702 0
12670 13701 13702 0
-8768 -10955 0
-8768 -13703 0
-10955 -13703 0
8768 10955 13703 0
-1398 -7516 0
-1398 -13186 0
-7516 -13186 0
1398 7516 13186 0
-10907 -11655 0
-10907 -12602 0
-11655 -12602 0
10907 11655 12602 0
-769 -6343 0
-769 -13704 0
-6343 -13704 0
769 6343 13704 0
-6121 -11218 0
-6121 -13705 0
-11218 -13705 0
6121 11218 13705 0
-9332 -12180 0
-9332 -12394 0
-12180 -12394 0
9332 12180 12394 0
-2931 -13706 0
-2931 -13707 0
-13706 -13707 0
2931 13706 13707 0
-3315 -5594 0
-3315 -13708 0
-5594 -13708 0
3315 5594 13708 0
-13327 -13442 0
-13327 -13709 0
-13442 -13709 0
13327 13442 13709 0
-902 -5868 0
-902 -13352 0
-5868 -13352 0
902 5868 13352 0
-13654 -13710 0
-13654 -13711 0
-13710 -13711 0
13654 13710 13711 0
-6594 -7494 0
-6594 -13712 0
-7494 -13712 0
6594 7494 13712 0
-9507 -13602 0
-9507 -13713 0
-13602 -13713 0
9507 13602 13713 0
-275 -13714 0
-275 -13715 0
-13714 -13715 0
275 13714 13715 0
-6925 -7233 0
-6925 -10053 0
-7233 -10053 0
6925 7233 10053 0
-7238 -12531 0
-7238 -13716 0
-12531 -13716 0
7238 12531 13716 0
-3624 -10749 0
-3624 -13717 0
-10749 -13717 0
3624 10749 13717 0
-8881 -9905 0
-8881 -13718 0
-9905 -13718 0
8881 9905 13718 0
-9174 -11559 0
-9174 -12317 0
-11559 -12317 0
9174 11559 12317 0
-11023 -12204 0
-11023 -13719 0
-12204 -13719 0
11023 12204 13719 0
-2604 -8724 0
-2604 -13720 0
-8724 -13720 0
2604 8724 13720 0
-6301 -13721 0
-6301 -13722 0
-13721 -13722 0
6301 13721 13722 0
-4663 -9694 0
-4663 -13723 0
-9694 -13723 0
4663 9694 13723 0
-9141 -13724 0
-9141 -13725 0
-13724 -13725 0
9141 13724 13725 0
-1750 -5788 0
-1750 -6453 0
-5788 -6453 0
1750 5788 6453 0
-6766 -13373 0
-6766 -13726 0
-13373 -13726 0
6766 13373 13726 0
-5872 -9762 0
-5872 -13727 0
-9762 -13727 0
5872 9762 13727 0
-2861 -12296 0
-2861 -13728 0
-12296 -13728 0
2861 12296 13728 0
-5174 -11616 0
-5174 -13729 0
-11616 -13729 0
5174 11616 13729 0
-6541 -13730 0
-6541 -13731 0
-13730 -13731 0
6541 13730 13731 0
-5554 -7599 0
-5554 -13732 0
-7599 -13732 0
5554 7599 13732 0
-5263 -11964 0
-5263 -13733 0
-11964 -13733 0
5263 11964 13733 0
-11297 -12848 0
-11297 -13734 0
-12848 -13734 0
11297 12848 13734 0
-4359 -7868 0
-4359 -13735 0
-7868 -13735 0
4359 7868 13735 0
-5786 -9939 0
-5786 -13736 0
-9939 -13736 0
5786 9939 13736 0
-7004 -10616 0
-7004 -13737 0
-10616 -13737 0
7004 10616 13737 0
-5646 -9397 0
-5646 -12163 0
-9397 -12163 0
5646 9397 12163 0
-4738 -6998 0
-4738 -11897 0
-6998 -11897 0
4738 6998 11897 0
-13449 -13572 0
-13449 -13738 0
-13572 -13738 0
13449 13572 13738 0
-824 -13019 0
-824 -13164 0
-13019 -13164 0
824 13019 13164 0
-4869 -8623 0
-4869 -12556 0
-8623 -12556 0
4869 8623 12556 0
-8463 -12361 0
-8463 -13238 0
-12361 -13238 0
8463 12361 13238 0
-3710 -6953 0
-3710 -13739 0
-6953 -13739 0
3710 6953 13739 0
-3681 -13740 0
-3681 -13741 0
-13740 -13741 0
3681 13740 13741 0
-4515 -7546 0
-4515 -11017 0
-7546 -11017 0
4515 7546 11017 0
-9791 -10140 0
-9791 -13429 0
-10140 -13429 0
9791 10140 13429 0
-3082 -3703 0
-3082 -13361 0
-3703 -13361 0
3082 3703 13361 0
-10123 -11289 0
-10123 -13742 0
-11289 -13742 0
10123 11289 13742 0
-3881 -10624 0
-3881 -13743 0
-10624 -13743 0
3881 10624 13743 0
-3010 -13381 0
-3010 -13744 0
-13381 -13744 0
3010 13381 13744 0
-6369 -12363 0
-6369 -13649 0
-12363 -13649 0
6369 12363 13649 0
-227 -2487 0
-227 -13745 0
-2487 -13745 0
227 2487 13745 0
-6990 -7380 0
-6990 -13746 0
-7380 -13746 0
6990 7380 13746 0
-2238 -5487 0
-2238 -13747 0
-5487 -13747 0
2238 5487 13747 0
-4122 -5502 0
-4122 -6871 0
-5502 -6871 0
4122 5502 6871 0
-1479 -10614 0
-1479 -10778 0
-10614 -10778 0
1479 10614 10778 0
-9165 -12185 0
-9165 -13748 0
-12185 -13748 0
9165 12185 13748 0
-3301 -6268 0
-3301 -8496 0
-6268 -8496 0
3301 6268 8496 0
-1348 -5752 0
-1348 -11429 0
-5752 -11429 0
1348 5752 11429 0
-1907 -10787 0
-1907 -11322 0
-10787 -11322 0
1907 10787 11322 0
-243 -2678 0
-243 -10832 0
-2678 -10832 0
243 2678 10832 0
-12257 -13749 0
-12257 -13750 0
-13749 -13750 0
12257 13749 13750 0
-13623 -13751 0
-13623 -13752 0
-13751 -13752 0
13623 13751 13752 0
-7790 -9921 0
-7790 -13753 0
-9921 -13753 0
7790 9921 13753 0
-9824 -13754 0
-9824 -13755 0
-13754 -13755 0
9824 13754 13755 0
-8967 -12410 0
-8967 -13756 0
-12410 -13756 0
8967 12410 13756 0
-5692 -5961 0
-5692 -10520 0
-5961 -10520 0
5692 5961 10520 0
-10627 -13145 0
-10627 -13757 0
-13145 -13757 0
10627 13145 13757 0
-7821 -13758 0
-7821 -13759 0
-13758 -13759 0
7821 13758 13759 0
-9129 -10800 0
-9129 -13760 0
-10800 -13760 0
9129 10800 13760 0
-8112 -13668 0
-8112 -13716 0
-13668 -13716 0
8112 13668 13716 0
-13006 -13747 0
-13006 -13761 0
-13747 -13761 0
13006 13747 13761 0
-13762 -13763 0
-13762 -13764 0
-13763 -13764 0
13762 13763 13764 0
-10663 -13103 0
-10663 -13413 0
-13103 -13413 0
10663 13103 13413 0
-8509 -11424 0
-8509 -13765 0
-11424 -13765 0
8509 11424 13765 0
-5515 -11950 0
-5515 -13766 0
-11950 -13766 0
5515 11950 13766 0
-915 -13767 0
-915 -13768 0
-13767 -13768 0
915 13767 13768 0
-11347 -13769 0
-11347 -13770 0
-13769 -13770 0
11347 13769 13770 0
-3637 -4042 0
-3637 -7062 0
-4042 -7062 0
3637 4042 7062 0
-10073 -10682 0
-10073 -10915 0
-10682 -10915 0
10073 10682 10915 0
-9892 -12534 0
-9892 -13771 0
-12534 -13771 0
9892 12534 13771 0
-13772 -13773 0
-13772 -13774 0
-13773 -13774 0
13772 13773 13774 0
-1134 -7879 0
-1134 -11098 0
-7879 -11098 0
1134 7879 11098 0
-1745 -12679 0
-1745 -13775 0
-12679 -13775 0
1745 12679 13775 0
-3351 -10515 0
-3351 -12313 0
-10515 -12313 0
3351 10515 12313 0
-3808 -12393 0
-3808 -13776 0
-12393 -13776 0
3808 12393 13776 0
-2026 -10545 0
-2026 -13777 0
-10545 -13777 0
2026 10545 13777 0
-7714 -10843 0
-7714 -12067 0
-10843 -12067 0
7714 10843 12067 0
-8450 -11442 0
-8450 -12271 0
-11442 -12271 0
8450 11442 12271 0
-7370 -13778 0
-7370 -13779 0
-13778 -13779 0
7370 13778 13779 0
-4746 -13780 0
-4746 -13781 0
-13780 -13781 0
4746 13780 13781 0
-7089 -11319 0
-7089 -13782 0
-11319 -13782 0
7089 11319 13782 0
-5859 -12742 0
-5859 -13735 0
-12742 -13735 0
5859 12742 13735 0
-5333 -13749 0
-5333 -13783 0
-13749 -13783 0
5333 13749 13783 0
-1716 -5379 0
-1716 -12513 0
-5379 -12513 0
1716 5379 12513 0
-3893 -9047 0
-3893 -13563 0
-9047 -13563 0
3893 9047 13563 0
-6934 -13784 0
-6934 -13785 0
-13784 -13785 0
6934 13784 13785 0
-9246 -9815 0
-9246 -13786 0
-9815 -13786 0
9246 9815 13786 0
-10586 -11387 0
-10586 -13787 0
-11387 -13787 0
10586 11387 13787 0
-7031 -8613 0
-7031 -13788 0
-8613 -13788 0
7031 8613 13788 0
-3667 -13789 0
-3667 -13790 0
-13789 -13790 0
3667 13789 13790 0
-4491 -10795 0
-4491 -13108 0
-10795 -13108 0
4491 10795 13108 0
-2448 -10766 0
-2448 -13791 0
-10766 -13791 0
2448 10766 13791 0
-13628 -13792 0
-13628 -13793 0
-13792 -13793 0
13628 13792 13793 0
-1886 -8891 0
-1886 -13794 0
-8891 -13794 0
1886 8891 13794 0
-3039 -5296 0
-3039 -8213 0
-5296 -8213 0
3039 5296 8213 0
-7727 -11411 0
-7727 -13544 0
-11411 -13544 0
7727 11411 13544 0
-9841 -13795 0
-9841 -13796 0
-13795 -13796 0
9841 13795 13796 0
-99 -4563 0
-99 -8491 0
-4563 -8491 0
99 4563 8491 0
-6887 -13797 0
-6887 -13798 0
-13797 -13798 0
6887 13797 13798 0
-5785 -10517 0
-5785 -13200 0
-10517 -13200 0
5785 10517 13200 0
-2018 -10549 0
-2018 -11647 0
-10549 -11647 0
2018 10549 11647 0
-4814 -6017 0
-4814 -12987 0
-6017 -12987 0
4814 6017 12987 0
-5013 -8035 0
-5013 -11072 0
-8035 -11072 0
5013 8035 11072 0
-9163 -13799 0
-9163 -13800 0
-13799 -13800 0
9163 13799 13800 0
-2459 -12729 0
-2459 -13801 0
-12729 -13801 0
2459 12729 13801 0
-3871 -13802 0
-3871 -13803 0
-13802 -13803 0
3871 13802 13803 0
-468 -10524 0
-468 -13804 0
-10524 -13804 0
468 10524 13804 0
-13805 -13806 0
-13805 -13807 0
-13806 -13807 0
13805 13806 13807 0
-12254 -13308 0
-12254 -13808 0
-13308 -13808 0
12254 13308 13808 0
-6495 -12187 0
-6495 -13809 0
-12187 -13809 0
6495 12187 13809 0
-10087 -10184 0
-10087 -13810 0
-10184 -13810 0
10087 10184 13810 0
-6442 -9765 0
-6442 -13811 0
-9765 -13811 0
6442 9765 13811 0
-4533 -11238 0
-4533 -13812 0
-11238 -13812 0
4533 11238 13812 0
-3664 -4283 0
-3664 -12177 0
-4283 -12177 0
3664 4283 12177 0
-1597 -10480 0
-1597 -11070 0
-10480 -11070 0
1597 10480 11070 0
-3510 -10884 0
-3510 -13813 0
-10884 -13813 0
3510 10884 13813 0
-2161 -10063 0
-2161 -13814 0
-10063 -13814 0
2161 10063 13814 0
-4180 -12754 0
-4180 -13815 0
-12754 -13815 0
4180 12754 13815 0
-5447 -10237 0
-5447 -13816 0
-10237 -13816 0
5447 10237 13816 0
-5433 -9318 0
-5433 -13817 0
-9318 -13817 0
5433 9318 13817 0
-5749 -12942 0
-5749 -13818 0
-12942 -13818 0
5749 12942 13818 0
-5110 -10148 0
-5110 -12937 0
-10148 -12937 0
5110 10148 12937 0
-8928 -13546 0
-8928 -13819 0
-13546 -13819 0
8928 13546 13819 0
-4682 -10601 0
-4682 -12151 0
-10601 -12151 0
4682 10601 12151 0
-1584 -9873 0
-1584 -10315 0
-9873 -10315 0
1584 9873 10315 0
-6994 -8260 0
-6994 -8968 0
-8260 -8968 0
6994 8260 8968 0
-4010 -10373 0
-4010 -12577 0
-10373 -12577 0
4010 10373 12577 0
-7339 -13797 0
-7339 -13820 0
-13797 -13820 0
7339 13797 13820 0
-9980 -13474 0
-9980 -13821 0
-13474 -13821 0
9980 13474 13821 0
-114 -13822 0
-114 -13823 0
-13822 -13823 0
114 13822 13823 0
-8699 -12318 0
-8699 -13824 0
-12318 -13824 0
8699 12318 13824 0
-3410 -8829 0
-3410 -13825 0
-8829 -13825 0
3410 8829 13825 0
-1136 -13826 0
-1136 -13827 0
-13826 -13827 0
1136 13826 13827 0
-11450 -13828 0
-11450 -13829 0
-13828 -13829 0
11450 13828 13829 0
-8604 -10721 0
-8604 -13830 0
-10721 -13830 0
8604 10721 13830 0
-4049 -6810 0
-4049 -8540 0
-6810 -8540 0
4049 6810 8540 0
-12647 -13831 0
-12647 -13832 0
-13831 -13832 0
12647 13831 13832 0
-13833 -13834 0
-13833 -13835 0
-13834 -13835 0
13833 13834 13835 0
-5847 -13836 0
-5847 -13837 0
-13836 -13837 0
5847 13836 13837 0
-7374 -9276 0
-7374 -13838 0
-9276 -13838 0
7374 9276 13838 0
-4915 -11125 0
-4915 -13780 0
-11125 -13780 0
4915 11125 13780 0
-10028 -13092 0
-10028 -13839 0
-13092 -13839 0
10028 13092 13839 0
-2289 -7138 0
-2289 -8591 0
-7138 -8591 0
2289 7138 8591 0
-4505 -10575 0
-4505 -13151 0
-10575 -13151 0
4505 10575 13151 0
-11635 -11767 0
-11635 -13840 0
-11767 -13840 0
11635 11767 13840 0
-12041 -13841 0
-12041 -13842 0
-13841 -13842 0
12041 13841 13842 0
-11299 -13843 0
-11299 -13844 0
-13843 -13844 0
11299 13843 13844 0
-5352 -12448 0
-5352 -13845 0
-12448 -13845 0
5352 12448 13845 0
-2410 -13846 0
-2410 -13847 0
-13846 -13847 0
2410 13846 13847 0
-3353 -13848 0
-3353 -13849 0
-13848 -13849 0
3353 13848 13849 0
-1688 -9365 0
-1688 -13093 0
-9365 -13093 0
1688 9365 13093 0
-3515 -12095 0
-3515 -13850 0
-12095 -13850 0
3515 12095 13850 0
-4558 -9247 0
-4558 -13851 0
-9247 -13851 0
4558 9247 13851 0
-9344 -13852 0
-9344 -13853 0
-13852 -13853 0
9344 13852 13853 0
-211 -12699 0
-211 -13854 0
-12699 -13854 0
211 12699 13854 0
-4480 -10402 0
-4480 -12054 0
-10402 -12054 0
4480 10402 12054 0
-7718 -13855 0
-7718 -13856 0
-13855 -13856 0
7718 13855 13856 0
-12465 -12849 0
-12465 -13857 0
-12849 -13857 0
12465 12849 13857 0
-5132 -5283 0
-5132 -13167 0
-5283 -13167 0
5132 5283 13167 0
-188 -8038 0
-188 -13858 0
-8038 -13858 0
188 8038 13858 0
-4181 -12780 0
-4181 -13859 0
-12780 -13859 0
4181 12780 13859 0
-3842 -11954 0
-3842 -12206 0
-11954 -12206 0
3842 11954 12206 0
-2748 -13860 0
-2748 -13861 0
-13860 -13861 0
2748 13860 13861 0
-5818 -11923 0
-5818 -13862 0
-11923 -13862 0
5818 11923 13862 0
-1804 -2236 0
-1804 -13863 0
-2236 -13863 0
1804 2236 13863 0
-10798 -12433 0
-10798 -13864 0
-12433 -13864 0
10798 12433 13864 0
-3117 -7390 0
-3117 -13865 0
-7390 -13865 0
3117 7390 13865 0
-3693 -5845 0
-3693 -12300 0
-5845 -12300 0
3693 5845 12300 0
-8458 -13866 0
-8458 -13867 0
-13866 -13867 0
8458 13866 13867 0
-13816 -13868 0
-13816 -13869 0
-13868 -13869 0
13816 13868 13869 0
-1699 -10924 0
-1699 -13870 0
-10924 -13870 0
1699 10924 13870 0
-359 -3617 0
-359 -12740 0
-3617 -12740 0
359 3617 12740 0
-4792 -7706 0
-4792 -13871 0
-7706 -13871 0
4792 7706 13871 0
-750 -4374 0
-750 -13872 0
-4374 -13872 0
750 4374 13872 0
-438 -13873 0
-438 -13874 0
-13873 -13874 0
438 13873 13874 0
-4773 -13778 0
-4773 -13875 0
-13778 -13875 0
4773 13778 13875 0
-4974 -7991 0
-4974 -10141 0
-7991 -10141 0
4974 7991 10141 0
-1093 -13673 0
-1093 -13876 0
-13673 -13876 0
1093 13673 13876 0
-11859 -12524 0
-11859 -13877 0
-12524 -13877 0
11859 12524 13877 0
-8459 -13566 0
-8459 -13878 0
-13566 -13878 0
8459 13566 13878 0
-2385 -12749 0
-2385 -12787 0
-12749 -12787 0
2385 12749 12787 0
-7812 -12903 0
-7812 -13879 0
-12903 -13879 0
7812 12903 13879 0
-3614 -5620 0
-3614 -13880 0
-5620 -13880 0
3614 5620 13880 0
-13851 -13881 0
-13851 -13882 0
-13881 -13882 0
13851 13881 13882 0
-1690 -13583 0
-1690 -13883 0
-13583 -13883 0
1690 13583 13883 0
-2638 -13884 0
-2638 -13885 0
-13884 -13885 0
2638 13884 13885 0
-8697 -13886 0
-8697 -13887 0
-13886 -13887 0
8697 13886 13887 0
-8479 -11045 0
-8479 -13888 0
-11045 -13888 0
8479 11045 13888 0
-5364 -9967 0
-5364 -13889 0
-9967 -13889 0
5364 9967 13889 0
-9998 -10505 0
-9998 -13890 0
-10505 -13890 0
9998 10505 13890 0
-1432 -2098 0
-1432 -4362 0
-2098 -4362 0
1432 2098 4362 0
-3895 -8486 0
-3895 -13891 0
-8486 -13891 0
3895 8486 13891 0
-2066 -7239 0
-2066 -13892 0
-7239 -13892 0
2066 7239 13892 0
-181 -13208 0
-181 -13893 0
-13208 -13893 0
181 13208 13893 0
-7667 -11076 0
-7667 -13894 0
-11076 -13894 0
7667 11076 13894 0
-4310 -12490 0
-4310 -13758 0
-12490 -13758 0
4310 12490 13758 0
-10152 -13895 0
-10152 -13896 0
-13895 -13896 0
10152 13895 13896 0
-13897 -13898 0
-13897 -13899 0
-13898 -13899 0
13897 13898 13899 0
-2803 -4334 0
-2803 -11433 0
-4334 -11433 0
2803 4334 11433 0
-6879 -7801 0
-6879 -13846 0
-7801 -13846 0
6879 7801 13846 0
-6262 -13739 0
-6262 -13900 0
-13739 -13900 0
6262 13739 13900 0
-5345 -10634 0
-5345 -12959 0
-10634 -12959 0
5345 10634 12959 0
-7360 -13901 0
-7360 -13902 0
-13901 -13902 0
7360 13901 13902 0
-6246 -8249 0
-6246 -13903 0
-8249 -13903 0
6246 8249 13903 0
-13904 -13905 0
-13904 -13906 0
-13905 -13906 0
13904 13905 13906 0
-11817 -13907 0
-11817 -13908 0
-13907 -13908 0
11817 13907 13908 0
-4483 -13909 0
-4483 -13910 0
-13909 -13910 0
4483 13909 13910 0
-8633 -11695 0
-8633 -13911 0
-11695 -13911 0
8633 11695 13911 0
-5574 -13912 0
-5574 -13913 0
-13912 -13913 0
5574 13912 13913 0
-7700 -13914 0
-7700 -13915 0
-13914 -13915 0
7700 13914 13915 0
-663 -1159 0
-663 -2200 0
-1159 -2200 0
663 1159 2200 0
-10967 -13916 0
-10967 -13917 0
-13916 -13917 0
10967 13916 13917 0
-3227 -10982 0
-3227 -13918 0
-10982 -13918 0
3227 10982 13918 0
-3377 -13919 0
-3377 -13920 0
-13919 -13920 0
3377 13919 13920 0
-10399 -12671 0
-10399 -13921 0
-12671 -13921 0
10399 12671 13921 0
-13922 -13923 0
-13922 -13924 0
-13923 -13924 0
13922 13923 13924 0
-8668 -11736 0
-8668 -13925 0
-11736 -13925 0
8668 11736 13925 0
-4802 -5211 0
-4802 -9241 0
-5211 -9241 0
4802 5211 9241 0
-6326 -13926 0
-6326 -13927 0
-13926 -13927 0
6326 13926 13927 0
-2269 -13928 0
-2269 -13929 0
-13928 -13929 0
2269 13928 13929 0
-4570 -8734 0
-4570 -12878 0
-8734 -12878 0
4570 8734 12878 0
-4569 -7794 0
-4569 -11556 0
-7794 -11556 0
4569 7794 11556 0
-8984 -11966 0
-8984 -13930 0
-11966 -13930 0
8984 11966 13930 0
-13421 -13794 0
-13421 -13931 0
-13794 -13931 0
13421 13794 13931 0
-13932 -13933 0
-13932 -13934 0
-13933 -13934 0
13932 13933 13934 0
-8838 -9082 0
-8838 -13140 0
-9082 -13140 0
8838 9082 13140 0
-11320 -11554 0
-11320 -13564 0
-11554 -13564 0
11320 11554 13564 0
-29 -9416 0
-29 -13403 0
-9416 -13403 0
29 9416 13403 0
-1237 -13935 0
-1237 -13936 0
-13935 -13936 0
1237 13935 13936 0
-3063 -4129 0
-3063 -13937 0
-4129 -13937 0
3063 4129 13937 0
-1268 -9184 0
-1268 -11505 0
-9184 -11505 0
1268 9184 11505 0
-3468 -12216 0
-3468 -13239 0
-12216 -13239 0
3468 12216 13239 0
-5380 -13873 0
-5380 -13938 0
-13873 -13938 0
5380 13873 13938 0
-1667 -12240 0
-1667 -13939 0
-12240 -13939 0
1667 12240 13939 0
-9454 -13940 0
-9454 -13941 0
-13940 -13941 0
9454 13940 13941 0
-11844 -13942 0
-11844 -13943 0
-13942 -13943 0
11844 13942 13943 0
-2769 -10344 0
-2769 -13944 0
-10344 -13944 0
2769 10344 13944 0
-1310 -8416 0
-1310 -9290 0
-8416 -9290 0
1310 8416 9290 0
-5473 -13945 0
-5473 -13946 0
-13945 -13946 0
5473 13945 13946 0
-5309 -13117 0
-5309 -13947 0
-13117 -13947 0
5309 13117 13947 0
-9649 -11406 0
-9649 -13948 0
-11406 -13948 0
9649 11406 13948 0
-244 -6695 0
-244 -13949 0
-6695 -13949 0
244 6695 13949 0
-4082 -13950 0
-4082 -13951 0
-13950 -13951 0
4082 13950 13951 0
-8609 -12702 0
-8609 -13952 0
-12702 -13952 0
8609 12702 13952 0
-12707 -13953 0
-12707 -13954 0
-13953 -13954 0
12707 13953 13954 0
-2420 -6632 0
-2420 -13440 0
-6632 -13440 0
2420 6632 13440 0
-422 -10779 0
-422 -13955 0
-10779 -13955 0
422 10779 13955 0
-7976 -9663 0
-7976 -13956 0
-9663 -13956 0
7976 9663 13956 0
-2304 -6853 0
-2304 -9441 0
-6853 -9441 0
2304 6853 9441 0
-4819 -12777 0
-4819 -13957 0
-12777 -13957 0
4819 12777 13957 0
-12276 -13531 0
-12276 -13958 0
-13531 -13958 0
12276 13531 13958 0
-11900 -12860 0
-11900 -13959 0
-12860 -13959 0
11900 12860 13959 0
-11677 -12683 0
-11677 -13462 0
-12683 -13462 0
11677 12683 13462 0
-6096 -11443 0
-6096 -12822 0
-11443 -12822 0
6096 11443 12822 0
-10801 -13193 0
-10801 -13960 0
-13193 -13960 0
10801 13193 13960 0
-2455 -6202 0
-2455 -13961 0
-6202 -13961 0
2455 6202 13961 0
-766 -13962 0
-766 -13963 0
-13962 -13963 0
766 13962 13963 0
-6819 -13085 0
-6819 -13964 0
-13085 -13964 0
6819 13085 13964 0
-1116 -11549 0
-1116 -13965 0
-11549 -13965 0
1116 11549 13965 0
-2174 -5025 0
-2174 -5831 0
-5025 -5831 0
2174 5025 5831 0
-12784 -13966 0
-12784 -13967 0
-13966 -13967 0
12784 13966 13967 0
-6729 -9086 0
-6729 -13968 0
-9086 -13968 0
6729 9086 13968 0
-6123 -7341 0
-6123 -13969 0
-7341 -13969 0
6123 7341 13969 0
-5399 -5534 0
-5399 -13970 0
-5534 -13970 0
5399 5534 13970 0
-5525 -13119 0
-5525 -13971 0
-13119 -13971 0
5525 13119 13971 0
-9933 -13972 0
-9933 -13973 0
-13972 -13973 0
9933 13972 13973 0
-2703 -7480 0
-2703 -10930 0
-7480 -10930 0
2703 7480 10930 0
-8122 -10124 0
-8122 -13974 0
-10124 -13974 0
8122 10124 13974 0
-8681 -12190 0
-8681 -13437 0
-12190 -13437 0
8681 12190 13437 0
-3741 -6306 0
-3741 -13975 0
-6306 -13975 0
3741 6306 13975 0
-2380 -4492 0
-2380 -5570 0
-4492 -5570 0
2380 4492 5570 0
-4018 -4768 0
-4018 -13976 0
-4768 -13976 0
4018 4768 13976 0
-682 -9755 0
-682 -12845 0
-9755 -12845 0
682 9755 12845 0
-7751 -9009 0
-7751 -13977 0
-9009 -13977 0
7751 9009 13977 0
-781 -7499 0
-781 -13978 0
-7499 -13978 0
781 7499 13978 0
-4076 -8261 0
-4076 -9528 0
-8261 -9528 0
4076 8261 9528 0
-1231 -12485 0
-1231 -13631 0
-12485 -13631 0
1231 12485 13631 0
-3548 -8788 0
-3548 -13490 0
-8788 -13490 0
3548 8788 13490 0
-13979 -13980 0
-13979 -13981 0
-13980 -13981 0
13979 13980 13981 0
-5449 -13328 0
-5449 -13982 0
-13328 -13982 0
5449 13328 13982 0
-11820 -13855 0
-11820 -13983 0
-13855 -13983 0
11820 13855 13983 0
-1369 -13984 0
-1369 -13985 0
-13984 -13985 0
1369 13984 13985 0
-5096 -11110 0
-5096 -13986 0
-11110 -13986 0
5096 11110 13986 0
-3593 -12270 0
-3593 -13987 0
-12270 -13987 0
3593 12270 13987 0
-1321 -4596 0
-1321 -6827 0
-4596 -6827 0
1321 4596 6827 0
-347 -4470 0
-347 -7254 0
-4470 -7254 0
347 4470 7254 0
-10496 -11550 0
-10496 -13988 0
-11550 -13988 0
10496 11550 13988 0
-13989 -13990 0
-13989 -13991 0
-13990 -13991 0
13989 13990 13991 0
-1459 -13669 0
-1459 -13992 0
-13669 -13992 0
1459 13669 13992 0
-4696 -13015 0
-4696 -13993 0
-13015 -13993 0
4696 13015 13993 0
-5860 -6455 0
-5860 -13994 0
-6455 -13994 0
5860 6455 13994 0
-1452 -10574 0
-1452 -13995 0
-10574 -13995 0
1452 10574 13995 0
-1410 -7895 0
-1410 -9592 0
-7895 -9592 0
1410 7895 9592 0
-3154 -13022 0
-3154 -13996 0
-13022 -13996 0
3154 13022 13996 0
-4209 -13997 0
-4209 -13998 0
-13997 -13998 0
4209 13997 13998 0
-6909 -8803 0
-6909 -13999 0
-8803 -13999 0
6909 8803 13999 0
-5587 -14000 0
-5587 -14001 0
-14000 -14001 0
5587 14000 14001 0
-1201 -12710 0
-1201 -14002 0
-12710 -14002 0
1201 12710 14002 0
-489 -8357 0
-489 -14003 0
-8357 -14003 0
489 8357 14003 0
-547 -6752 0
-547 -14004 0
-6752 -14004 0
547 6752 14004 0
-6921 -9798 0
-6921 -14005 0
-9798 -14005 0
6921 9798 14005 0
-6618 -14006 0
-6618 -14007 0
-14006 -14007 0
6618 14006 14007 0
-6264 -8784 0
-6264 -14008 0
-8784 -14008 0
6264 8784 14008 0
-2919 -13033 0
-2919 -13712 0
-13033 -13712 0
2919 13033 13712 0
-7190 -8971 0
-7190 -14009 0
-8971 -14009 0
7190 8971 14009 0
-1827 -6093 0
-1827 -14010 0
-6093 -14010 0
1827 6093 14010 0
-1401 -7217 0
-1401 -14011 0
-7217 -14011 0
1401 7217 14011 0
-1433 -9949 0
-1433 -10805 0
-9949 -10805 0
1433 9949 10805 0
-4321 -13594 0
-4321 -13986 0
-13594 -13986 0
4321 13594 13986 0
-1854 -12840 0
-1854 -14012 0
-12840 -14012 0
1854 12840 14012 0
-10103 -14013 0
-10103 -14014 0
-14013 -14014 0
10103 14013 14014 0
-8807 -14015 0
-8807 -14016 0
-14015 -14016 0
8807 14015 14016 0
-1155 -13297 0
-1155 -14017 0
-13297 -14017 0
1155 13297 14017 0
-3068 -4502 0
-3068 -14018 0
-4502 -14018 0
3068 4502 14018 0
-5973 -13680 0
-5973 -14019 0
-13680 -14019 0
5973 13680 14019 0
-6640 -10713 0
-6640 -12976 0
-10713 -12976 0
6640 10713 12976 0
-8206 -13997 0
-8206 -14020 0
-13997 -14020 0
8206 13997 14020 0
-5175 -5385 0
-5175 -14021 0
-5385 -14021 0
5175 5385 14021 0
-9037 -9564 0
-9037 -14022 0
-9564 -14022 0
9037 9564 14022 0
-1301 -10482 0
-1301 -14023 0
-10482 -14023 0
1301 10482 14023 0
-2287 -4945 0
-2287 -12308 0
-4945 -12308 0
2287 4945 12308 0
-13777 -13964 0
-13777 -14024 0
-13964 -14024 0
13777 13964 14024 0
-3254 -11048 0
-3254 -14025 0
-11048 -14025 0
3254 11048 14025 0
-6945 -11709 0
-6945 -12168 0
-11709 -12168 0
6945 11709 12168 0
-11082 -12367 0
-11082 -13860 0
-12367 -13860 0
11082 12367 13860 0
-4933 -13714 0
-4933 -14026 0
-13714 -14026 0
4933 13714 14026 0
-9191 -9802 0
-9191 -13219 0
-9802 -13219 0
9191 9802 13219 0
-6850 -14027 0
-6850 -14028 0
-14027 -14028 0
6850 14027 14028 0
-10653 -11860 0
-10653 -14029 0
-11860 -14029 0
10653 11860 14029 0
-7219 -9088 0
-7219 -13865 0
-9088 -13865 0
7219 9088 13865 0
-987 -11977 0
-987 -14030 0
-11977 -14030 0
987 11977 14030 0
-2070 -6613 0
-2070 -13826 0
-6613 -13826 0
2070 6613 13826 0
-12734 -12801 0
-12734 -14031 0
-12801 -14031 0
12734 12801 14031 0
-1721 -10264 0
-1721 -11178 0
-10264 -11178 0
1721 10264 11178 0
-1349 -6720 0
-1349 -14032 0
-6720 -14032 0
1349 6720 14032 0
-4039 -9535 0
-4039 -11884 0
-9535 -11884 0
4039 9535 11884 0
-2607 -13875 0
-2607 -14033 0
-13875 -14033 0
2607 13875 14033 0
-11729 -12023 0
-11729 -14034 0
-12023 -14034 0
11729 12023 14034 0
-2456 -7622 0
-2456 -13859 0
-7622 -13859 0
2456 7622 13859 0
-2279 -10175 0
-2279 -14035 0
-10175 -14035 0
2279 10175 14035 0
-3474 -13632 0
-3474 -14036 0
-13632 -14036 0
3474 13632 14036 0
-9236 -12694 0
-9236 -14037 0
-12694 -14037 0
9236 12694 14037 0
-9134 -13467 0
-9134 -14038 0
-13467 -14038 0
9134 13467 14038 0
-8992 -13484 0
-8992 -14039 0
-13484 -14039 0
8992 13484 14039 0
-4822 -9469 0
-4822 -14040 0
-9469 -14040 0
4822 9469 14040 0
-12896 -14041 0
-12896 -14042 0
-14041 -14042 0
12896 14041 14042 0
-10596 -13494 0
-10596 -13523 0
-13494 -13523 0
10596 13494 13523 0
-3651 -5693 0
-3651 -13852 0
-5693 -13852 0
3651 5693 13852 0
-2674 -11540 0
-2674 -14043 0
-11540 -14043 0
2674 11540 14043 0
-4245 -8573 0
-4245 -13876 0
-8573 -13876 0
4245 8573 13876 0
-3974 -7574 0
-3974 -7946 0
-7574 -7946 0
3974 7574 7946 0
-10468 -14044 0
-10468 -14045 0
-14044 -14045 0
10468 14044 14045 0
-3166 -6837 0
-3166 -14046 0
-6837 -14046 0
3166 6837 14046 0
-2081 -12775 0
-2081 -14047 0
-12775 -14047 0
2081 12775 14047 0
-9473 -10902 0
-9473 -14048 0
-10902 -14048 0
9473 10902 14048 0
-872 -8076 0
-872 -10040 0
-8076 -10040 0
872 8076 10040 0
-7534 -8615 0
-7534 -14049 0
-8615 -14049 0
7534 8615 14049 0
-3745 -5008 0
-3745 -14034 0
-5008 -14034 0
3745 5008 14034 0
-5386 -9656 0
-5386 -14050 0
-9656 -14050 0
5386 9656 14050 0
-14051 -14052 0
-14051 -14053 0
-14052 -14053 0
14051 14052 14053 0
-12135 -14054 0
-12135 -14055 0
-14054 -14055 0
12135 14054 14055 0
-2606 -7029 0
-2606 -13962 0
-7029 -13962 0
2606 7029 13962 0
-5850 -6449 0
-5850 -14056 0
-6449 -14056 0
5850 6449 14056 0
-1726 -5041 0
-1726 -14057 0
-5041 -14057 0
1726 5041 14057 0
-5155 -13156 0
-5155 -13880 0
-13156 -13880 0
5155 13156 13880 0
-1606 -3695 0
-1606 -12138 0
-3695 -12138 0
1606 3695 12138 0
-13470 -14058 0
-13470 -14059 0
-14058 -14059 0
13470 14058 14059 0
-11093 -11963 0
-11093 -12560 0
-11963 -12560 0
11093 11963 12560 0
-9974 -11229 0
-9974 -13843 0
-11229 -13843 0
9974 11229 13843 0
-3978 -6349 0
-3978 -14060 0
-6349 -14060 0
3978 6349 14060 0
-1705 -11232 0
-1705 -12817 0
-11232 -12817 0
1705 11232 12817 0
-6547 -10622 0
-6547 -11325 0
-10622 -11325 0
6547 10622 11325 0
-261 -6198 0
-261 -12505 0
-6198 -12505 0
261 6198 12505 0
-9205 -13608 0
-9205 -14061 0
-13608 -14061 0
9205 13608 14061 0
-9446 -10023 0
-9446 -13950 0
-10023 -13950 0
9446 10023 13950 0
-11834 -14062 0
-11834 -14063 0
-14062 -14063 0
11834 14062 14063 0
-2261 -14064 0
-2261 -14065 0
-14064 -14065 0
2261 14064 14065 0
-9224 -12495 0
-9224 -14066 0
-12495 -14066 0
9224 12495 14066 0
-2386 -13637 0
-2386 -14067 0
-13637 -14067 0
2386 13637 14067 0
-12260 -13395 0
-12260 -14068 0
-13395 -14068 0
12260 13395 14068 0
-2443 -2518 0
-2443 -10703 0
-2518 -10703 0
2443 2518 10703 0
-6456 -14069 0
-6456 -14070 0
-14069 -14070 0
6456 14069 14070 0
-1798 -7690 0
-1798 -14071 0
-7690 -14071 0
1798 7690 14071 0
-4766 -13812 0
-4766 -14072 0
-13812 -14072 0
4766 13812 14072 0
-13298 -13695 0
-13298 -14073 0
-13695 -14073 0
13298 13695 14073 0
-4019 -7444 0
-4019 -14074 0
-7444 -14074 0
4019 7444 14074 0
-8008 -12340 0
-8008 -14075 0
-12340 -14075 0
8008 12340 14075 0
-1275 -2142 0
-1275 -9391 0
-2142 -9391 0
1275 2142 9391 0
-6099 -14076 0
-6099 -14077 0
-14076 -14077 0
6099 14076 14077 0
-888 -7684 0
-888 -13009 0
-7684 -13009 0
888 7684 13009 0
-774 -14078 0
-774 -14079 0
-14078 -14079 0
774 14078 14079 0
-2467 -5094 0
-2467 -6049 0
-5094 -6049 0
2467 5094 6049 0
-13214 -13354 0
-13214 -14080 0
-13354 -14080 0
13214 13354 14080 0
-715 -12029 0
-715 -12050 0
-12029 -12050 0
715 12029 12050 0
-6935 -7136 0
-6935 -10746 0
-7136 -10746 0
6935 7136 10746 0
-10446 -11489 0
-10446 -12035 0
-11489 -12035 0
10446 11489 12035 0
-7074 -9850 0
-7074 -14081 0
-9850 -14081 0
7074 9850 14081 0
-6525 -6558 0
-6525 -9924 0
-6558 -9924 0
6525 6558 9924 0
-2034 -3506 0
-2034 -7382 0
-3506 -7382 0
2034 3506 7382 0
-7565 -13596 0
-7565 -14082 0
-13596 -14082 0
7565 13596 14082 0
-5963 -10484 0
-5963 -14083 0
-10484 -14083 0
5963 10484 14083 0
-10568 -12290 0
-10568 -14084 0
-12290 -14084 0
10568 12290 14084 0
-754 -10239 0
-754 -14085 0
-10239 -14085 0
754 10239 14085 0
-5942 -13242 0
-5942 -13501 0
-13242 -13501 0
5942 13242 13501 0
-2778 -11226 0
-2778 -12928 0
-11226 -12928 0
2778 11226 12928 0
-11535 -13897 0
-11535 -14086 0
-13897 -14086 0
11535 13897 14086 0
-7897 -10127 0
-7897 -14087 0
-10127 -14087 0
7897 10127 14087 0
-865 -10423 0
-865 -13116 0
-10423 -13116 0
865 10423 13116 0
-1280 -14088 0
-1280 -14089 0
-14088 -14089 0
1280 14088 14089 0
-14090 -14091 0
-14090 -14092 0
-14091 -14092 0
14090 14091 14092 0
-3696 -4123 0
-3696 -14093 0
-4123 -14093 0
3696 4123 14093 0
-4193 -9753 0
-4193 -14094 0
-9753 -14094 0
4193 9753 14094 0
-3055 -11587 0
-3055 -14095 0
-11587 -14095 0
3055 11587 14095 0
-8929 -12660 0
-8929 -14096 0
-12660 -14096 0
8929 12660 14096 0
-3455 -11778 0
-3455 -14097 0
-11778 -14097 0
3455 11778 14097 0
-5255 -8639 0
-5255 -9347 0
-8639 -9347 0
5255 8639 9347 0
-8944 -13322 0
-8944 -13742 0
-13322 -13742 0
8944 13322 13742 0
-4593 -7362 0
-4593 -7796 0
-7362 -7796 0
4593 7362 7796 0
-9667 -13221 0
-9667 -14098 0
-13221 -14098 0
9667 13221 14098 0
-2902 -5035 0
-2902 -6636 0
-5035 -6636 0
2902 5035 6636 0
-5832 -11214 0
-5832 -13868 0
-11214 -13868 0
5832 11214 13868 0
-2370 -4889 0
-2370 -14099 0
-4889 -14099 0
2370 4889 14099 0
-26 -14100 0
-26 -14101 0
-14100 -14101 0
26 14100 14101 0
-7701 -14069 0
-7701 -14102 0
-14069 -14102 0
7701 14069 14102 0
-4534 -14103 0
-4534 -14104 0
-14103 -14104 0
4534 14103 14104 0
-4728 -13688 0
-4728 -14105 0
-13688 -14105 0
4728 13688 14105 0
-11283 -13243 0
-11283 -13273 0
-13243 -13273 0
11283 13243 13273 0
-5127 -13183 0
-5127 -13587 0
-13183 -13587 0
5127 13183 13587 0
-9304 -13435 0
-9304 -14106 0
-13435 -14106 0
9304 13435 14106 0
-8086 -11861 0
-8086 -12828 0
-11861 -12828 0
8086 11861 12828 0
-6742 -14026 0
-6742 -14107 0
-14026 -14107 0
6742 14026 14107 0
-948 -5806 0
-948 -14108 0
-5806 -14108 0
948 5806 14108 0
-7540 -14109 0
-7540 -14110 0
-14109 -14110 0
7540 14109 14110 0
-1004 -2340 0
-1004 -14111 0
-2340 -14111 0
1004 2340 14111 0
-509 -807 0
-509 -9579 0
-807 -9579 0
509 807 9579 0
-3040 -12864 0
-3040 -13438 0
-12864 -13438 0
3040 12864 13438 0
-6605 -12599 0
-6605 -13841 0
-12599 -13841 0
6605 12599 13841 0
-11830 -13100 0
-11830 -14112 0
-13100 -14112 0
11830 13100 14112 0
-9423 -10036 0
-9423 -14113 0
-10036 -14113 0
9423 10036 14113 0
-557 -1663 0
-557 -2403 0
-1663 -2403 0
557 1663 2403 0
-7763 -13309 0
-7763 -14114 0
-13309 -14114 0
7763 13309 14114 0
-4426 -10957 0
-4426 -14115 0
-10957 -14115 0
4426 10957 14115 0
-9795 -11903 0
-9795 -13828 0
-11903 -13828 0
9795 11903 13828 0
-763 -12569 0
-763 -14051 0
-12569 -14051 0
763 12569 14051 0
-14116 -14117 0
-14116 -14118 0
-14117 -14118 0
14116 14117 14118 0
-10952 -13366 0
-10952 -14119 0
-13366 -14119 0
10952 13366 14119 0
-7918 -8171 0
-7918 -14049 0
-8171 -14049 0
7918 8171 14049 0
-3631 -13028 0
-3631 -14120 0
-13028 -14120 0
3631 13028 14120 0
-798 -8055 0
-798 -13056 0
-8055 -13056 0
798 8055 13056 0
-7130 -11828 0
-7130 -13710 0
-11828 -13710 0
7130 11828 13710 0
-323 -14121 0
-323 -14122 0
-14121 -14122 0
323 14121 14122 0
-9930 -14123 0
-9930 -14124 0
-14123 -14124 0
9930 14123 14124 0
-5350 -7719 0
-5350 -14125 0
-7719 -14125 0
5350 7719 14125 0
-11428 -14126 0
-11428 -14127 0
-14126 -14127 0
11428 14126 14127 0
-2568 -4443 0
-2568 -14128 0
-4443 -14128 0
2568 4443 14128 0
-13343 -14129 0
-13343 -14130 0
-14129 -14130 0
13343 14129 14130 0
-2175 -6333 0
-2175 -12374 0
-6333 -12374 0
2175 6333 12374 0
-12043 -14035 0
-12043 -14131 0
-14035 -14131 0
12043 14035 14131 0
-4810 -9827 0
-4810 -11946 0
-9827 -11946 0
4810 9827 11946 0
-8032 -11206 0
-8032 -11617 0
-11206 -11617 0
8032 11206 11617 0
-10591 -12044 0
-10591 -14132 0
-12044 -14132 0
10591 12044 14132 0
-4105 -11189 0
-4105 -14133 0
-11189 -14133 0
4105 11189 14133 0
-502 -3639 0
-502 -6564 0
-3639 -6564 0
502 3639 6564 0
-9651 -12596 0
-9651 -13262 0
-12596 -13262 0
9651 12596 13262 0
-2811 -5933 0
-2811 -8957 0
-5933 -8957 0
2811 5933 8957 0
-10332 -12664 0
-10332 -13410 0
-12664 -13410 0
10332 12664 13410 0
-12262 -13502 0
-12262 -14134 0
-13502 -14134 0
12262 13502 14134 0
-11648 -13840 0
-11648 -14135 0
-13840 -14135 0
11648 13840 14135 0
-3919 -6780 0
-3919 -13283 0
-6780 -13283 0
3919 6780 13283 0
-13798 -14136 0
-13798 -14137 0
-14136 -14137 0
13798 14136 14137 0
-4106 -13562 0
-4106 -13738 0
-13562 -13738 0
4106 13562 13738 0
-10592 -14138 0
-10592 -14139 0
-14138 -14139 0
10592 14138 14139 0
-2801 -10935 0
-2801 -13667 0
-10935 -13667 0
2801 10935 13667 0
-1542 -11470 0
-1542 -14140 0
-11470 -14140 0
1542 11470 14140 0
-9345 -12572 0
-9345 -13659 0
-12572 -13659 0
9345 12572 13659 0
-4084 -6176 0
-4084 -14141 0
-6176 -14141 0
4084 6176 14141 0
-13210 -14142 0
-13210 -14143 0
-14142 -14143 0
13210 14142 14143 0
-1351 -13805 0
-1351 -14144 0
-13805 -14144 0
1351 13805 14144 0
-3661 -6129 0
-3661 -7779 0
-6129 -7779 0
3661 6129 7779 0
-14145 -14146 0
-14145 -14147 0
-14146 -14147 0
14145 14146 14147 0
-3078 -14148 0
-3078 -14149 0
-14148 -14149 0
3078 14148 14149 0
-12031 -14150 0
-12031 -14151 0
-14150 -14151 0
12031 14150 14151 0
-12174 -14152 0
-12174 -14153 0
-14152 -14153 0
12174 14152 14153 0
-3482 -13960 0
-3482 -14154 0
-13960 -14154 0
3482 13960 14154 0
-5421 -7912 0
-5421 -9574 0
-7912 -9574 0
5421 7912 9574 0
-595 -5947 0
-595 -6683 0
-5947 -6683 0
595 5947 6683 0
-1507 -11123 0
-1507 -13230 0
-11123 -13230 0
1507 11123 13230 0
-9680 -13916 0
-9680 -14155 0
-13916 -14155 0
9680 13916 14155 0
-6721 -10911 0
-6721 -14156 0
-10911 -14156 0
6721 10911 14156 0
-2544 -5531 0
-2544 -12879 0
-5531 -12879 0
2544 5531 12879 0
-6811 -11708 0
-6811 -14157 0
-11708 -14157 0
6811 11708 14157 0
-4898 -12964 0
-4898 -13526 0
-12964 -13526 0
4898 12964 13526 0
-860 -5813 0
-860 -14158 0
-5813 -14158 0
860 5813 14158 0
-4452 -10714 0
-4452 -14159 0
-10714 -14159 0
4452 10714 14159 0
-541 -8534 0
-541 -9362 0
-8534 -9362 0
541 8534 9362 0
-11084 -14160 0
-11084 -14161 0
-14160 -14161 0
11084 14160 14161 0
-9194 -12207 0
-9194 -13921 0
-12207 -13921 0
9194 12207 13921 0
-4096 -7705 0
-4096 -13806 0
-7705 -13806 0
4096 7705 13806 0
-12701 -12713 0
-12701 -13771 0
-12713 -13771 0
12701 12713 13771 0
-1841 -12108 0
-1841 -13733 0
-12108 -13733 0
1841 12108 13733 0
-10223 -13320 0
-10223 -14162 0
-13320 -14162 0
10223 13320 14162 0
-13181 -14108 0
-13181 -14163 0
-14108 -14163 0
13181 14108 14163 0
-12250 -14164 0
-12250 -14165 0
-14164 -14165 0
12250 14164 14165 0
-4266 -13959 0
-4266 -14166 0
-13959 -14166 0
4266 13959 14166 0
-2346 -10009 0
-2346 -13111 0
-10009 -13111 0
2346 10009 13111 0
-2093 -5056 0
-2093 -13121 0
-5056 -13121 0
2093 5056 13121 0
-2195 -6466 0
-2195 -14167 0
-6466 -14167 0
2195 6466 14167 0
-1566 -11491 0
-1566 -14168 0
-11491 -14168 0
1566 11491 14168 0
-5889 -13154 0
-5889 -14169 0
-13154 -14169 0
5889 13154 14169 0
-10613 -11714 0
-10613 -12580 0
-11714 -12580 0
10613 11714 12580 0
-737 -11284 0
-737 -14170 0
-11284 -14170 0
737 11284 14170 0
-1476 -2482 0
-1476 -11885 0
-2482 -11885 0
1476 2482 11885 0
-2892 -8976 0
-2892 -8985 0
-8976 -8985 0
2892 8976 8985 0
-1435 -13609 0
-1435 -14171 0
-13609 -14171 0
1435 13609 14171 0
-536 -1786 0
-536 -5365 0
-1786 -5365 0
536 1786 5365 0
-4484 -13236 0
-4484 -14172 0
-13236 -14172 0
4484 13236 14172 0
-10577 -11643 0
-10577 -14173 0
-11643 -14173 0
10577 11643 14173 0
-510 -11890 0
-510 -14174 0
-11890 -14174 0
510 11890 14174 0
-3586 -14175 0
-3586 -14176 0
-14175 -14176 0
3586 14175 14176 0
-6715 -11702 0
-6715 -14177 0
-11702 -14177 0
6715 11702 14177 0
-3739 -5969 0
-3739 -13681 0
-5969 -13681 0
3739 5969 13681 0
-8244 -12519 0
-8244 -13815 0
-12519 -13815 0
8244 12519 13815 0
-954 -4275 0
-954 -14037 0
-4275 -14037 0
954 4275 14037 0
-1958 -3446 0
-1958 -13660 0
-3446 -13660 0
1958 3446 13660 0
-86 -5746 0
-86 -8501 0
-5746 -8501 0
86 5746 8501 0
-13641 -14178 0
-13641 -14179 0
-14178 -14179 0
13641 14178 14179 0
-4634 -7161 0
-4634 -14180 0
-7161 -14180 0
4634 7161 14180 0
-14181 -14182 0
-14181 -14183 0
-14182 -14183 0
14181 14182 14183 0
-8666 -12637 0
-8666 -12811 0
-12637 -12811 0
8666 12637 12811 0
-2995 -7210 0
-2995 -9142 0
-7210 -9142 0
2995 7210 9142 0
-812 -6507 0
-812 -11581 0
-6507 -11581 0
812 6507 11581 0
-4991 -6895 0
-4991 -13825 0
-6895 -13825 0
4991 6895 13825 0
-11848 -14184 0
-11848 -14185 0
-14184 -14185 0
11848 14184 14185 0
-4970 -10664 0
-4970 -12672 0
-10664 -12672 0
4970 10664 12672 0
-7073 -8775 0
-7073 -12253 0
-8775 -12253 0
7073 8775 12253 0
-7412 -7854 0
-7412 -13233 0
-7854 -13233 0
7412 7854 13233 0
-8610 -12007 0
-8610 -14186 0
-12007 -14186 0
8610 12007 14186 0
-3599 -4028 0
-3599 -13135 0
-4028 -13135 0
3599 4028 13135 0
-984 -10641 0
-984 -12056 0
-10641 -12056 0
984 10641 12056 0
-1429 -14187 0
-1429 -14188 0
-14187 -14188 0
1429 14187 14188 0
-1146 -4089 0
-1146 -9464 0
-4089 -9464 0
1146 4089 9464 0
-7694 -12319 0
-7694 -13443 0
-12319 -13443 0
7694 12319 13443 0
-3496 -13259 0
-3496 -14189 0
-13259 -14189 0
3496 13259 14189 0
-4497 -7426 0
-4497 -11932 0
-7426 -11932 0
4497 7426 11932 0
-9211 -14190 0
-9211 -14191 0
-14190 -14191 0
9211 14190 14191 0
-13842 -14192 0
-13842 -14193 0
-14192 -14193 0
13842 14192 14193 0
-245 -9903 0
-245 -13464 0
-9903 -13464 0
245 9903 13464 0
-12638 -12900 0
-12638 -14194 0
-12900 -14194 0
12638 12900 14194 0
-10230 -12082 0
-10230 -14195 0
-12082 -14195 0
10230 12082 14195 0
-3447 -3731 0
-3447 -13211 0
-3731 -13211 0
3447 3731 13211 0
-4256 -9070 0
-4256 -12430 0
-9070 -12430 0
4256 9070 12430 0
-5976 -13978 0
-5976 -14196 0
-13978 -14196 0
5976 13978 14196 0
-4213 -14197 0
-4213 -14198 0
-14197 -14198 0
4213 14197 14198 0
-135 -2915 0
-135 -3310 0
-2915 -3310 0
135 2915 3310 0
-7156 -10006 0
-7156 -12395 0
-10006 -12395 0
7156 10006 12395 0
-8737 -11120 0
-8737 -14199 0
-11120 -14199 0
8737 11120 14199 0
-12719 -14200 0
-12719 -14201 0
-14200 -14201 0
12719 14200 14201 0
-9323 -10815 0
-9323 -14029 0
-10815 -14029 0
9323 10815 14029 0
-4620 -14202 0
-4620 -14203 0
-14202 -14203 0
4620 14202 14203 0
-2051 -11829 0
-2051 -14204 0
-11829 -14204 0
2051 11829 14204 0
-4823 -7989 0
-4823 -10253 0
-7989 -10253 0
4823 7989 10253 0
-2957 -6352 0
-2957 -8601 0
-6352 -8601 0
2957 6352 8601 0
-6977 -10188 0
-6977 -13697 0
-10188 -13697 0
6977 10188 13697 0
-2585 -14205 0
-2585 -14206 0
-14205 -14206 0
2585 14205 14206 0
-11454 -13883 0
-11454 -14207 0
-13883 -14207 0
11454 13883 14207 0
-8725 -12331 0
-8725 -13665 0
-12331 -13665 0
8725 12331 13665 0
-7075 -8142 0
-7075 -9504 0
-8142 -9504 0
7075 8142 9504 0
-8492 -14208 0
-8492 -14209 0
-14208 -14209 0
8492 14208 14209 0
-12326 -14013 0
-12326 -14210 0
-14013 -14210 0
12326 14013 14210 0
-6205 -8275 0
-6205 -14211 0
-8275 -14211 0
6205 8275 14211 0
-10582 -10993 0
-10582 -12687 0
-10993 -12687 0
10582 10993 12687 0
-521 -10976 0
-521 -14212 0
-10976 -14212 0
521 10976 14212 0
-3569 -8255 0
-3569 -12093 0
-8255 -12093 0
3569 8255 12093 0
-90 -101 0
-90 -1013 0
-101 -1013 0
90 101 1013 0
-10101 -14213 0
-10101 -14214 0
-14213 -14214 0
10101 14213 14214 0
-23 -7495 0
-23 -12624 0
-7495 -12624 0
23 7495 12624 0
-5937 -6110 0
-5937 -9525 0
-6110 -9525 0
5937 6110 9525 0
-8683 -10434 0
-8683 -14215 0
-10434 -14215 0
8683 10434 14215 0
-14216 -14217 0
-14216 -14218 0
-14217 -14218 0
14216 14217 14218 0
-2397 -10602 0
-2397 -14219 0
-10602 -14219 0
2397 10602 14219 0
-2353 -14220 0
-2353 -14221 0
-14220 -14221 0
2353 14220 14221 0
-5618 -6493 0
-5618 -14222 0
-6493 -14222 0
5618 6493 14222 0
-11071 -12933 0
-11071 -14223 0
-12933 -14223 0
11071 12933 14223 0
-10904 -13222 0
-10904 -14224 0
-13222 -14224 0
10904 13222 14224 0
-2067 -2996 0
-2067 -14225 0
-2996 -14225 0
2067 2996 14225 0
-2411 -8304 0
-2411 -12070 0
-8304 -12070 0
2411 8304 12070 0
-4241 -14226 0
-4241 -14227 0
-14226 -14227 0
4241 14226 14227 0
-8770 -11572 0
-8770 -14228 0
-11572 -14228 0
8770 11572 14228 0
-224 -12208 0
-224 -14229 0
-12208 -14229 0
224 12208 14229 0
-3238 -12955 0
-3238 -14230 0
-12955 -14230 0
3238 12955 14230 0
-8925 -14231 0
-8925 -14232 0
-14231 -14232 0
8925 14231 14232 0
-1511 -12123 0
-1511 -12965 0
-12123 -12965 0
1511 12123 12965 0
-3932 -9612 0
-3932 -11826 0
-9612 -11826 0
3932 9612 11826 0
-8905 -11994 0
-8905 -14233 0
-11994 -14233 0
8905 11994 14233 0
-4319 -10927 0
-4319 -14234 0
-10927 -14234 0
4319 10927 14234 0
-1151 -10855 0
-1151 -14235 0
-10855 -14235 0
1151 10855 14235 0
-8626 -13465 0
-8626 -14236 0
-13465 -14236 0
8626 13465 14236 0
-3822 -11542 0
-3822 -14237 0
-11542 -14237 0
3822 11542 14237 0
-3074 -11965 0
-3074 -12544 0
-11965 -12544 0
3074 11965 12544 0
-4722 -5011 0
-4722 -14238 0
-5011 -14238 0
4722 5011 14238 0
-4047 -6601 0
-4047 -13995 0
-6601 -13995 0
4047 6601 13995 0
-9653 -13760 0
-9653 -14239 0
-13760 -14239 0
9653 13760 14239 0
-9127 -12467 0
-9127 -14240 0
-12467 -14240 0
9127 12467 14240 0
-12935 -13751 0
-12935 -14241 0
-13751 -14241 0
12935 13751 14241 0
-2116 -3171 0
-2116 -4079 0
-3171 -4079 0
2116 3171 4079 0
-1807 -6598 0
-1807 -9144 0
-6598 -9144 0
1807 6598 9144 0
-5137 -6200 0
-5137 -14242 0
-6200 -14242 0
5137 6200 14242 0
-845 -1656 0
-845 -5351 0
-1656 -5351 0
845 1656 5351 0
-4913 -11307 0
-4913 -11672 0
-11307 -11672 0
4913 11307 11672 0
-8956 -13216 0
-8956 -13676 0
-13216 -13676 0
8956 13216 13676 0
-1238 -1799 0
-1238 -9430 0
-1799 -9430 0
1238 1799 9430 0
-8888 -13503 0
-8888 -14243 0
-13503 -14243 0
8888 13503 14243 0
-10266 -12764 0
-10266 -13792 0
-12764 -13792 0
10266 12764 13792 0
-12155 -12880 0
-12155 -14244 0
-12880 -14244 0
12155 12880 14244 0
-13932 -14015 0
-13932 -14245 0
-14015 -14245 0
13932 14015 14245 0
-2578 -12922 0
-2578 -13740 0
-12922 -13740 0
2578 12922 13740 0
-14181 -14246 0
-14181 -14247 0
-14246 -14247 0
14181 14246 14247 0
-3209 -14248 0
-3209 -14249 0
-14248 -14249 0
3209 14248 14249 0
-8308 -12564 0
-8308 -14250 0
-12564 -14250 0
8308 12564 14250 0
-12101 -14251 0
-12101 -14252 0
-14251 -14252 0
12101 14251 14252 0
-9704 -9818 0
-9704 -14253 0
-9818 -14253 0
9704 9818 14253 0
-3818 -7214 0
-3818 -13137 0
-7214 -13137 0
3818 7214 13137 0
-2608 -4720 0
-2608 -4842 0
-4720 -4842 0
2608 4720 4842 0
-6247 -14254 0
-6247 -14255 0
-14254 -14255 0
6247 14254 14255 0
-9746 -13346 0
-9746 -14256 0
-13346 -14256 0
9746 13346 14256 0
-3906 -11458 0
-3906 -14257 0
-11458 -14257 0
3906 11458 14257 0
-1600 -9718 0
-1600 -14258 0
-9718 -14258 0
1600 9718 14258 0
-8245 -12951 0
-8245 -13412 0
-12951 -13412 0
8245 12951 13412 0
-5048 -7168 0
-5048 -7208 0
-7168 -7208 0
5048 7168 7208 0
-9352 -12343 0
-9352 -14259 0
-12343 -14259 0
9352 12343 14259 0
-7600 -13831 0
-7600 -14260 0
-13831 -14260 0
7600 13831 14260 0
-2580 -13944 0
-2580 -14261 0
-13944 -14261 0
2580 13944 14261 0
-1067 -10240 0
-1067 -14262 0
-10240 -14262 0
1067 10240 14262 0
-8592 -11290 0
-8592 -14263 0
-11290 -14263 0
8592 11290 14263 0
-4203 -9207 0
-4203 -12341 0
-9207 -12341 0
4203 9207 12341 0
-4760 -14264 0
-4760 -14265 0
-14264 -14265 0
4760 14264 14265 0
-1953 -4702 0
-1953 -9626 0
-4702 -9626 0
1953 4702 9626 0
-4940 -9621 0
-4940 -11367 0
-9621 -11367 0
4940 9621 11367 0
-874 -11675 0
-874 -13791 0
-11675 -13791 0
874 11675 13791 0
-6812 -9101 0
-6812 -14266 0
-9101 -14266 0
6812 9101 14266 0
-9252 -11440 0
-9252 -12750 0
-11440 -12750 0
9252 11440 12750 0
-11112 -12439 0
-11112 -14267 0
-12439 -14267 0
11112 12439 14267 0
-5059 -9043 0
-5059 -11791 0
-9043 -11791 0
5059 9043 11791 0
-9281 -12540 0
-9281 -12821 0
-12540 -12821 0
9281 12540 12821 0
-8411 -14268 0
-8411 -14269 0
-14268 -14269 0
8411 14268 14269 0
-3926 -8804 0
-3926 -8835 0
-8804 -8835 0
3926 8804 8835 0
-6931 -9676 0
-6931 -13955 0
-9676 -13955 0
6931 9676 13955 0
-11552 -14270 0
-11552 -14271 0
-14270 -14271 0
11552 14270 14271 0
-12506 -13909 0
-12506 -14272 0
-13909 -14272 0
12506 13909 14272 0
-1402 -14273 0
-1402 -14274 0
-14273 -14274 0
1402 14273 14274 0
-14275 -14276 0
-14275 -14277 0
-14276 -14277 0
14275 14276 14277 0
-2399 -5138 0
-2399 -13721 0
-5138 -13721 0
2399 5138 13721 0
-1278 -8285 0
-1278 -14278 0
-8285 -14278 0
1278 8285 14278 0
-6565 -7768 0
-6565 -14279 0
-7768 -14279 0
6565 7768 14279 0
-6253 -14205 0
-6253 -14280 0
-14205 -14280 0
6253 14205 14280 0
-3644 -10942 0
-3644 -14281 0
-10942 -14281 0
3644 10942 14281 0
-8912 -13257 0
-8912 -14282 0
-13257 -14282 0
8912 13257 14282 0
-1341 -4681 0
-1341 -10099 0
-4681 -10099 0
1341 4681 10099 0
-4292 -9198 0
-4292 -11747 0
-9198 -11747 0
4292 9198 11747 0
-7517 -8884 0
-7517 -14275 0
-8884 -14275 0
7517 8884 14275 0
-8119 -8505 0
-8119 -13599 0
-8505 -13599 0
8119 8505 13599 0
-7519 -8731 0
-7519 -12807 0
-8731 -12807 0
7519 8731 12807 0
-6174 -14283 0
-6174 -14284 0
-14283 -14284 0
6174 14283 14284 0
-2832 -12169 0
-2832 -14285 0
-12169 -14285 0
2832 12169 14285 0
-13862 -14286 0
-13862 -14287 0
-14286 -14287 0
13862 14286 14287 0
-6747 -13910 0
-6747 -14288 0
-13910 -14288 0
6747 13910 14288 0
-7199 -8284 0
-7199 -14289 0
-8284 -14289 0
7199 8284 14289 0
-2528 -13597 0
-2528 -14290 0
-13597 -14290 0
2528 13597 14290 0
-6370 -8720 0
-6370 -13886 0
-8720 -13886 0
6370 8720 13886 0
-395 -1001 0
-395 -14291 0
-1001 -14291 0
395 1001 14291 0
-6156 -10435 0
-6156 -11302 0
-10435 -11302 0
6156 10435 11302 0
-4564 -13663 0
-4564 -14292 0
-13663 -14292 0
4564 13663 14292 0
-1263 -6389 0
-1263 -11465 0
-6389 -11465 0
1263 6389 11465 0
-5353 -13081 0
-5353 -14293 0
-13081 -14293 0
5353 13081 14293 0
-6473 -8044 0
-6473 -11805 0
-8044 -11805 0
6473 8044 11805 0
-2556 -11630 0
-2556 -13718 0
-11630 -13718 0
2556 11630 13718 0
-12943 -13384 0
-12943 -14294 0
-13384 -14294 0
12943 13384 14294 0
-8077 -10668 0
-8077 -14295 0
-10668 -14295 0
8077 10668 14295 0
-1185 -11838 0
-1185 -12887 0
-11838 -12887 0
1185 11838 12887 0
-7670 -8009 0
-7670 -11242 0
-8009 -11242 0
7670 8009 11242 0
-2523 -14296 0
-2523 -14297 0
-14296 -14297 0
2523 14296 14297 0
-1281 -3777 0
-1281 -10921 0
-3777 -10921 0
1281 3777 10921 0
-8005 -12802 0
-8005 -14298 0
-12802 -14298 0
8005 12802 14298 0
-6591 -11046 0
-6591 -14299 0
-11046 -14299 0
6591 11046 14299 0
-12004 -12131 0
-12004 -14300 0
-12131 -14300 0
12004 12131 14300 0
-7807 -12835 0
-7807 -13616 0
-12835 -13616 0
7807 12835 13616 0
-4495 -6373 0
-4495 -14301 0
-6373 -14301 0
4495 6373 14301 0
-2102 -2946 0
-2102 -9546 0
-2946 -9546 0
2102 2946 9546 0
-8049 -13696 0
-8049 -14058 0
-13696 -14058 0
8049 13696 14058 0
-10108 -14302 0
-10108 -14303 0
-14302 -14303 0
10108 14302 14303 0
-4934 -9819 0
-4934 -14304 0
-9819 -14304 0
4934 9819 14304 0
-7973 -12861 0
-7973 -14305 0
-12861 -14305 0
7973 12861 14305 0
-7925 -14299 0
-7925 -14306 0
-14299 -14306 0
7925 14299 14306 0
-9568 -10170 0
-9568 -10238 0
-10170 -10238 0
9568 10170 10238 0
-2133 -3765 0
-2133 -14307 0
-3765 -14307 0
2133 3765 14307 0
-7797 -10113 0
-7797 -13521 0
-10113 -13521 0
7797 10113 13521 0
-11855 -14308 0
-11855 -14309 0
-14308 -14309 0
11855 14308 14309 0
-8559 -14310 0
-8559 -14311 0
-14310 -14311 0
8559 14310 14311 0
-4574 -14312 0
-4574 -14313 0
-14312 -14313 0
4574 14312 14313 0
-4044 -14314 0
-4044 -14315 0
-14314 -14315 0
4044 14314 14315 0
-2942 -13249 0
-2942 -14316 0
-13249 -14316 0
2942 13249 14316 0
-3790 -8704 0
-3790 -11233 0
-8704 -11233 0
3790 8704 11233 0
-2573 -9078 0
-2573 -9989 0
-9078 -9989 0
2573 9078 9989 0
-7469 -8064 0
-7469 -14317 0
-8064 -14317 0
7469 8064 14317 0
-10137 -13614 0
-10137 -14318 0
-13614 -14318 0
10137 13614 14318 0
-9128 -14319 0
-9128 -14320 0
-14319 -14320 0
9128 14319 14320 0
-10639 -10767 0
-10639 -14022 0
-10767 -14022 0
10639 10767 14022 0
-8642 -10618 0
-8642 -14321 0
-10618 -14321 0
8642 10618 14321 0
-14322 -14323 0
-14322 -14324 0
-14323 -14324 0
14322 14323 14324 0
-11453 -14325 0
-11453 -14326 0
-14325 -14326 0
11453 14325 14326 0
-2968 -5026 0
-2968 -14327 0
-5026 -14327 0
2968 5026 14327 0
-6387 -7589 0
-6387 -10849 0
-7589 -10849 0
6387 7589 10849 0
-674 -13729 0
-674 -14160 0
-13729 -14160 0
674 13729 14160 0
-3605 -5201 0
-3605 -14328 0
-5201 -14328 0
3605 5201 14328 0
-12562 -14329 0
-12562 -14330 0
-14329 -14330 0
12562 14329 14330 0
-10742 -12643 0
-10742 -13818 0
-12643 -13818 0
10742 12643 13818 0
-11775 -14331 0
-11775 -14332 0
-14331 -14332 0
11775 14331 14332 0
-1615 -4546 0
-1615 -13782 0
-4546 -13782 0
1615 4546 13782 0
-1235 -14333 0
-1235 -14334 0
-14333 -14334 0
1235 14333 14334 0
-2734 -7508 0
-2734 -14335 0
-7508 -14335 0
2734 7508 14335 0
-10116 -12613 0
-10116 -14336 0
-12613 -14336 0
10116 12613 14336 0
-3435 -14337 0
-3435 -14338 0
-14337 -14338 0
3435 14337 14338 0
-8440 -13436 0
-8440 -14339 0
-13436 -14339 0
8440 13436 14339 0
-7076 -8207 0
-7076 -10891 0
-8207 -10891 0
7076 8207 10891 0
-2084 -6781 0
-2084 -7903 0
-6781 -7903 0
2084 6781 7903 0
-4503 -12530 0
-4503 -14340 0
-12530 -14340 0
4503 12530 14340 0
-13500 -14341 0
-13500 -14342 0
-14341 -14342 0
13500 14341 14342 0
-6467 -13377 0
-6467 -14343 0
-13377 -14343 0
6467 13377 14343 0
-7295 -10799 0
-7295 -12141 0
-10799 -12141 0
7295 10799 12141 0
-6973 -9861 0
-6973 -11370 0
-9861 -11370 0
6973 9861 11370 0
-7562 -9758 0
-7562 -14344 0
-9758 -14344 0
7562 9758 14344 0
-12344 -14021 0
-12344 -14345 0
-14021 -14345 0
12344 14021 14345 0
-4199 -14346 0
-4199 -14347 0
-14346 -14347 0
4199 14346 14347 0
-9315 -13288 0
-9315 -14348 0
-13288 -14348 0
9315 13288 14348 0
-1543 -14349 0
-1543 -14350 0
-14349 -14350 0
1543 14349 14350 0
-8959 -13510 0
-8959 -14351 0
-13510 -14351 0
8959 13510 14351 0
-8305 -14352 0
-8305 -14353 0
-14352 -14353 0
8305 14352 14353 0
-8667 -12538 0
-8667 -14354 0
-12538 -14354 0
8667 12538 14354 0
-7200 -14333 0
-7200 -14355 0
-14333 -14355 0
7200 14333 14355 0
-4306 -4800 0
-4306 -13250 0
-4800 -13250 0
4306 4800 13250 0
-14316 -14356 0
-14316 -14357 0
-14356 -14357 0
14316 14356 14357 0
-6 -13591 0
-6 -14358 0
-13591 -14358 0
6 13591 14358 0
-1354 -5477 0
-1354 -11032 0
-5477 -11032 0
1354 5477 11032 0
-6657 -7399 0
-6657 -14359 0
-7399 -14359 0
6657 7399 14359 0
-6673 -14360 0
-6673 -14361 0
-14360 -14361 0
6673 14360 14361 0
-12001 -14362 0
-12001 -14363 0
-14362 -14363 0
12001 14362 14363 0
-742 -2503 0
-742 -14364 0
-2503 -14364 0
742 2503 14364 0
-14066 -14365 0
-14066 -14366 0
-14365 -14366 0
14066 14365 14366 0
-5284 -14367 0
-5284 -14368 0
-14367 -14368 0
5284 14367 14368 0
-147 -6528 0
-147 -14369 0
-6528 -14369 0
147 6528 14369 0
-3188 -12132 0
-3188 -14267 0
-12132 -14267 0
3188 12132 14267 0
-5286 -11919 0
-5286 -14286 0
-11919 -14286 0
5286 11919 14286 0
-5103 -12583 0
-5103 -14370 0
-12583 -14370 0
5103 12583 14370 0
-2390 -11501 0
-2390 -13912 0
-11501 -13912 0
2390 11501 13912 0
-4387 -8362 0
-4387 -10502 0
-8362 -10502 0
4387 8362 10502 0
-6890 -11326 0
-6890 -14371 0
-11326 -14371 0
6890 11326 14371 0
-10462 -14071 0
-10462 -14372 0
-14071 -14372 0
10462 14071 14372 0
-12511 -14339 0
-12511 -14373 0
-14339 -14373 0
12511 14339 14373 0
-14296 -14374 0
-14296 -14375 0
-14374 -14375 0
14296 14374 14375 0
-3285 -12463 0
-3285 -12782 0
-12463 -12782 0
3285 12463 12782 0
-1986 -13303 0
-1986 -14376 0
-13303 -14376 0
1986 13303 14376 0
-11931 -12153 0
-11931 -14377 0
-12153 -14377 0
11931 12153 14377 0
-12454 -13809 0
-12454 -14148 0
-13809 -14148 0
12454 13809 14148 0
-13016 -14378 0
-13016 -14379 0
-14378 -14379 0
13016 14378 14379 0
-9674 -13727 0
-9674 -13977 0
-13727 -13977 0
9674 13727 13977 0
-4413 -6014 0
-4413 -14380 0
-6014 -14380 0
4413 6014 14380 0
-841 -10697 0
-841 -14381 0
-10697 -14381 0
841 10697 14381 0
-4006 -11399 0
-4006 -14382 0
-11399 -14382 0
4006 11399 14382 0
-6504 -14383 0
-6504 -14384 0
-14383 -14384 0
6504 14383 14384 0
-12057 -13650 0
-12057 -14385 0
-13650 -14385 0
12057 13650 14385 0
-2784 -2949 0
-2784 -10019 0
-2949 -10019 0
2784 2949 10019 0
-11711 -13519 0
-11711 -14386 0
-13519 -14386 0
11711 13519 14386 0
-4986 -9644 0
-4986 -12973 0
-9644 -12973 0
4986 9644 12973 0
-10392 -13090 0
-10392 -14387 0
-13090 -14387 0
10392 13090 14387 0
-8634 -10666 0
-8634 -14336 0
-10666 -14336 0
8634 10666 14336 0
-3828 -6883 0
-3828 -11451 0
-6883 -11451 0
3828 6883 11451 0
-9501 -9524 0
-9501 -14388 0
-9524 -14388 0
9501 9524 14388 0
-3444 -14389 0
-3444 -14390 0
-14389 -14390 0
3444 14389 14390 0
-8678 -12789 0
-8678 -14391 0
-12789 -14391 0
8678 12789 14391 0
-13839 -14392 0
-13839 -14393 0
-14392 -14393 0
13839 14392 14393 0
-1717 -8343 0
-1717 -12449 0
-8343 -12449 0
1717 8343 12449 0
-3490 -14394 0
-3490 -14395 0
-14394 -14395 0
3490 14394 14395 0
-11067 -14041 0
-11067 -14396 0
-14041 -14396 0
11067 14041 14396 0
-5183 -13430 0
-5183 -14397 0
-13430 -14397 0
5183 13430 14397 0
-9071 -10558 0
-9071 -14398 0
-10558 -14398 0
9071 10558 14398 0
-11557 -12483 0
-11557 -14399 0
-12483 -14399 0
11557 12483 14399 0
-13847 -14400 0
-13847 -14401 0
-14400 -14401 0
13847 14400 14401 0
-2216 -5468 0
-2216 -14402 0
-5468 -14402 0
2216 5468 14402 0
-7525 -14403 0
-7525 -14404 0
-14403 -14404 0
7525 14403 14404 0
-12950 -13378 0
-12950 -14405 0
-13378 -14405 0
12950 13378 14405 0
-10129 -14406 0
-10129 -14407 0
-14406 -14407 0
10129 14406 14407 0
-9136 -10985 0
-9136 -12426 0
-10985 -12426 0
9136 10985 12426 0
-313 -9072 0
-313 -14408 0
-9072 -14408 0
313 9072 14408 0
-4486 -9858 0
-4486 -10710 0
-9858 -10710 0
4486 9858 10710 0
-14409 -14410 0
-14409 -14411 0
-14410 -14411 0
14409 14410 14411 0
-7289 -9375 0
-7289 -12231 0
-9375 -12231 0
7289 9375 12231 0
-13122 -14412 0
-13122 -14413 0
-14412 -14413 0
13122 14412 14413 0
-10283 -10540 0
-10283 -13989 0
-10540 -13989 0
10283 10540 13989 0
-10789 -13113 0
-10789 -14414 0
-13113 -14414 0
10789 13113 14414 0
-2124 -12071 0
-2124 -12109 0
-12071 -12109 0
2124 12071 12109 0
-1204 -5217 0
-1204 -14292 0
-5217 -14292 0
1204 5217 14292 0
-8983 -13129 0
-8983 -14415 0
-13129 -14415 0
8983 13129 14415 0
-14416 -14417 0
-14416 -14418 0
-14417 -14418 0
14416 14417 14418 0
-5658 -8536 0
-5658 -13169 0
-8536 -13169 0
5658 8536 13169 0
-14280 -14419 0
-14280 -14420 0
-14419 -14420 0
14280 14419 14420 0
-6793 -9683 0
-6793 -11373 0
-9683 -11373 0
6793 9683 11373 0
-14421 -14422 0
-14421 -14423 0
-14422 -14423 0
14421 14422 14423 0
-5156 -8812 0
-5156 -14098 0
-8812 -14098 0
5156 8812 14098 0
-615 -6754 0
-615 -13331 0
-6754 -13331 0
615 6754 13331 0
-2575 -7541 0
-2575 -8705 0
-7541 -8705 0
2575 7541 8705 0
-10171 -14424 0
-10171 -14425 0
-14424 -14425 0
10171 14424 14425 0
-5222 -10839 0
-5222 -13123 0
-10839 -13123 0
5222 10839 13123 0
-7118 -11967 0
-7118 -14426 0
-11967 -14426 0
7118 11967 14426 0
-5614 -12427 0
-5614 -13142 0
-12427 -13142 0
5614 12427 13142 0
-11332 -12218 0
-11332 -14427 0
-12218 -14427 0
11332 12218 14427 0
-7275 -11654 0
-7275 -13131 0
-11654 -13131 0
7275 11654 13131 0
-2833 -8363 0
-2833 -13569 0
-8363 -13569 0
2833 8363 13569 0
-7467 -11292 0
-7467 -13018 0
-11292 -13018 0
7467 11292 13018 0
-603 -3281 0
-603 -5203 0
-3281 -5203 0
603 3281 5203 0
-14186 -14428 0
-14186 -14429 0
-14428 -14429 0
14186 14428 14429 0
-9258 -10840 0
-9258 -11118 0
-10840 -11118 0
9258 10840 11118 0
-896 -4636 0
-896 -6927 0
-4636 -6927 0
896 4636 6927 0
-13280 -14430 0
-13280 -14431 0
-14430 -14431 0
13280 14430 14431 0
-5265 -12926 0
-5265 -14132 0
-12926 -14132 0
5265 12926 14132 0
-5162 -10797 0
-5162 -14432 0
-10797 -14432 0
5162 10797 14432 0
-3441 -11806 0
-3441 -13414 0
-11806 -13414 0
3441 11806 13414 0
-14433 -14434 0
-14433 -14435 0
-14434 -14435 0
14433 14434 14435 0
-10145 -14436 0
-10145 -14437 0
-14436 -14437 0
10145 14436 14437 0
-10509 -12897 0
-10509 -14438 0
-12897 -14438 0
10509 12897 14438 0
-6675 -14439 0
-6675 -14440 0
-14439 -14440 0
6675 14439 14440 0
-13292 -13621 0
-13292 -14441 0
-13621 -14441 0
13292 13621 14441 0
-613 -1758 0
-613 -10856 0
-1758 -10856 0
613 1758 10856 0
-3798 -13213 0
-3798 -14442 0
-13213 -14442 0
3798 13213 14442 0
-4332 -13096 0
-4332 -14443 0
-13096 -14443 0
4332 13096 14443 0
-6545 -13750 0
-6545 -14444 0
-13750 -14444 0
6545 13750 14444 0
-12302 -14445 0
-12302 -14446 0
-14445 -14446 0
12302 14445 14446 0
-1539 -12759 0
-1539 -14447 0
-12759 -14447 0
1539 12759 14447 0
-12083 -14448 0
-12083 -14449 0
-14448 -14449 0
12083 14448 14449 0
-10169 -12939 0
-10169 -14017 0
-12939 -14017 0
10169 12939 14017 0
-2509 -14196 0
-2509 -14450 0
-14196 -14450 0
2509 14196 14450 0
-1508 -3476 0
-1508 -11623 0
-3476 -11623 0
1508 3476 11623 0
-11278 -11649 0
-11278 -11926 0
-11649 -11926 0
11278 11649 11926 0
-4821 -12874 0
-4821 -14451 0
-12874 -14451 0
4821 12874 14451 0
-14452 -14453 0
-14452 -14454 0
-14453 -14454 0
14452 14453 14454 0
-2136 -7354 0
-2136 -9701 0
-7354 -9701 0
2136 7354 9701 0
-904 -5901 0
-904 -14455 0
-5901 -14455 0
904 5901 14455 0
-7673 -12499 0
-7673 -12785 0
-12499 -12785 0
7673 12499 12785 0
-2024 -6486 0
-2024 -14456 0
-6486 -14456 0
2024 6486 14456 0
-5123 -8760 0
-5123 -10748 0
-8760 -10748 0
5123 8760 10748 0
-3145 -13560 0
-3145 -13844 0
-13560 -13844 0
3145 13560 13844 0
-751 -8057 0
-751 -13008 0
-8057 -13008 0
751 8057 13008 0
-11181 -14457 0
-11181 -14458 0
-14457 -14458 0
11181 14457 14458 0
-4286 -13918 0
-4286 -14236 0
-13918 -14236 0
4286 13918 14236 0
-3691 -14459 0
-3691 -14460 0
-14459 -14460 0
3691 14459 14460 0
-3233 -10165 0
-3233 -13741 0
-10165 -13741 0
3233 10165 13741 0
-10828 -13853 0
-10828 -14461 0
-13853 -14461 0
10828 13853 14461 0
-2427 -8174 0
-2427 -9490 0
-8174 -9490 0
2427 8174 9490 0
-6107 -10014 0
-6107 -14462 0
-10014 -14462 0
6107 10014 14462 0
-14011 -14412 0
-14011 -14443 0
-14412 -14443 0
14011 14412 14443 0
-6823 -13783 0
-6823 -14463 0
-13783 -14463 0
6823 13783 14463 0
-897 -12929 0
-897 -13196 0
-12929 -13196 0
897 12929 13196 0
-14464 -14465 0
-14464 -14466 0
-14465 -14466 0
14464 14465 14466 0
-1430 -2976 0
-1430 -10339 0
-2976 -10339 0
1430 2976 10339 0
-7576 -9810 0
-7576 -10003 0
-9810 -10003 0
7576 9810 10003 0
-12348 -13270 0
-12348 -13804 0
-13270 -13804 0
12348 13270 13804 0
-6315 -14087 0
-6315 -14467 0
-14087 -14467 0
6315 14087 14467 0
-12934 -14387 0
-12934 -14442 0
-14387 -14442 0
12934 14387 14442 0
-6778 -9944 0
-6778 -13385 0
-9944 -13385 0
6778 9944 13385 0
-5793 -13307 0
-5793 -14468 0
-13307 -14468 0
5793 13307 14468 0
-1269 -5777 0
-1269 -14469 0
-5777 -14469 0
1269 5777 14469 0
-13010 -14470 0
-13010 -14471 0
-14470 -14471 0
13010 14470 14471 0
-1097 -12186 0
-1097 -13578 0
-12186 -13578 0
1097 12186 13578 0
-4299 -4350 0
-4299 -14472 0
-4350 -14472 0
4299 4350 14472 0
-886 -5425 0
-886 -14473 0
-5425 -14473 0
886 5425 14473 0
-14474 -14475 0
-14474 -14476 0
-14475 -14476 0
14474 14475 14476 0
-5357 -12623 0
-5357 -13274 0
-12623 -13274 0
5357 12623 13274 0
-12841 -13364 0
-12841 -14477 0
-13364 -14477 0
12841 13364 14477 0
-12196 -13397 0
-12196 -14478 0
-13397 -14478 0
12196 13397 14478 0
-14479 -14480 0
-14479 -14481 0
-14480 -14481 0
14479 14480 14481 0
-10256 -14464 0
-10256 -14482 0
-14464 -14482 0
10256 14464 14482 0
-639 -3527 0
-639 -13761 0
-3527 -13761 0
639 3527 13761 0
-6350 -8464 0
-6350 -9268 0
-8464 -9268 0
6350 8464 9268 0
-10785 -12870 0
-10785 -14483 0
-12870 -14483 0
10785 12870 14483 0
-1075 -7464 0
-1075 -9934 0
-7464 -9934 0
1075 7464 9934 0
-2201 -12516 0
-2201 -12591 0
-12516 -12591 0
2201 12516 12591 0
-9830 -11393 0
-9830 -14484 0
-11393 -14484 0
9830 11393 14484 0
-2500 -2934 0
-2500 -12590 0
-2934 -12590 0
2500 2934 12590 0
-6170 -9410 0
-6170 -10756 0
-9410 -10756 0
6170 9410 10756 0
-2798 -10378 0
-2798 -11395 0
-10378 -11395 0
2798 10378 11395 0
-6589 -11388 0
-6589 -11864 0
-11388 -11864 0
6589 11388 11864 0
-7523 -10821 0
-7523 -14133 0
-10821 -14133 0
7523 10821 14133 0
-1470 -3389 0
-1470 -13904 0
-3389 -13904 0
1470 3389 13904 0
-7090 -14485 0
-7090 -14486 0
-14485 -14486 0
7090 14485 14486 0
-5903 -13398 0
-5903 -13928 0
-13398 -13928 0
5903 13398 13928 0
-14487 -14488 0
-14487 -14489 0
-14488 -14489 0
14487 14488 14489 0
-11558 -14490 0
-11558 -14491 0
-14490 -14491 0
11558 14490 14491 0
-8090 -12062 0
-8090 -14492 0
-12062 -14492 0
8090 12062 14492 0
-9175 -14493 0
-9175 -14494 0
-14493 -14494 0
9175 14493 14494 0
-6286 -10877 0
-6286 -14495 0
-10877 -14495 0
6286 10877 14495 0
-5823 -13672 0
-5823 -14496 0
-13672 -14496 0
5823 13672 14496 0
-532 -14497 0
-532 -14498 0
-14497 -14498 0
532 14497 14498 0
-10387 -13557 0
-10387 -14499 0
-13557 -14499 0
10387 13557 14499 0
-4948 -13730 0
-4948 -14500 0
-13730 -14500 0
4948 13730 14500 0
-10949 -12183 0
-10949 -14501 0
-12183 -14501 0
10949 12183 14501 0
-9308 -14502 0
-9308 -14503 0
-14502 -14503 0
9308 14502 14503 0
-7563 -10381 0
-7563 -11770 0
-10381 -11770 0
7563 10381 11770 0
-9622 -10231 0
-9622 -14504 0
-10231 -14504 0
9622 10231 14504 0
-8306 -9311 0
-8306 -14505 0
-9311 -14505 0
8306 9311 14505 0
-7226 -8298 0
-7226 -8624 0
-8298 -8624 0
7226 8298 8624 0
-5767 -13574 0
-5767 -14506 0
-13574 -14506 0
5767 13574 14506 0
-419 -14507 0
-419 -14508 0
-14507 -14508 0
419 14507 14508 0
-8193 -11417 0
-8193 -14509 0
-11417 -14509 0
8193 11417 14509 0
-3114 -8988 0
-3114 -14173 0
-8988 -14173 0
3114 8988 14173 0
-193 -1307 0
-193 -14251 0
-1307 -14251 0
193 1307 14251 0
-2348 -4772 0
-2348 -7745 0
-4772 -7745 0
2348 4772 7745 0
-2843 -11328 0
-2843 -14510 0
-11328 -14510 0
2843 11328 14510 0
-5246 -10232 0
-5246 -13486 0
-10232 -13486 0
5246 10232 13486 0
-389 -9494 0
-389 -14511 0
-9494 -14511 0
389 9494 14511 0
-13940 -14157 0
-13940 -14512 0
-14157 -14512 0
13940 14157 14512 0
-8513 -9312 0
-8513 -14513 0
-9312 -14513 0
8513 9312 14513 0
-9809 -13976 0
-9809 -14514 0
-13976 -14514 0
9809 13976 14514 0
-5084 -6947 0
-5084 -14374 0
-6947 -14374 0
5084 6947 14374 0
-3282 -12443 0
-3282 -13447 0
-12443 -13447 0
3282 12443 13447 0
-6147 -10138 0
-6147 -14515 0
-10138 -14515 0
6147 10138 14515 0
-9398 -11831 0
-9398 -13856 0
-11831 -13856 0
9398 11831 13856 0
-6943 -13300 0
-6943 -14516 0
-13300 -14516 0
6943 13300 14516 0
-3399 -3463 0
-3399 -10918 0
-3463 -10918 0
3399 3463 10918 0
-7628 -12910 0
-7628 -14517 0
-12910 -14517 0
7628 12910 14517 0
-6653 -13722 0
-6653 -14518 0
-13722 -14518 0
6653 13722 14518 0
-2167 -10638 0
-2167 -14519 0
-10638 -14519 0
2167 10638 14519 0
-3367 -8417 0
-3367 -11999 0
-8417 -11999 0
3367 8417 11999 0
-7671 -14520 0
-7671 -14521 0
-14520 -14521 0
7671 14520 14521 0
-13972 -14522 0
-13972 -14523 0
-14522 -14523 0
13972 14522 14523 0
-5747 -9918 0
-5747 -14524 0
-9918 -14524 0
5747 9918 14524 0
-1315 -5833 0
-1315 -14322 0
-5833 -14322 0
1315 5833 14322 0
-4339 -13416 0
-4339 -14525 0
-13416 -14525 0
4339 13416 14525 0
-3104 -12911 0
-3104 -14526 0
-12911 -14526 0
3104 12911 14526 0
-5072 -7735 0
-5072 -12949 0
-7735 -12949 0
5072 7735 12949 0
-3470 -13350 0
-3470 -14527 0
-13350 -14527 0
3470 13350 14527 0
-2257 -8015 0
-2257 -8913 0
-8015 -8913 0
2257 8015 8913 0
-5381 -10852 0
-5381 -14287 0
-10852 -14287 0
5381 10852 14287 0
-3362 -14044 0
-3362 -14528 0
-14044 -14528 0
3362 14044 14528 0
-9859 -14529 0
-9859 -14530 0
-14529 -14530 0
9859 14529 14530 0
-2735 -10080 0
-2735 -13190 0
-10080 -13190 0
2735 10080 13190 0
-9099 -9571 0
-9099 -11103 0
-9571 -11103 0
9099 9571 11103 0
-1161 -13152 0
-1161 -13286 0
-13152 -13286 0
1161 13152 13286 0
-14264 -14531 0
-14264 -14532 0
-14531 -14532 0
14264 14531 14532 0
-1420 -11403 0
-1420 -14533 0
-11403 -14533 0
1420 11403 14533 0
-1863 -13706 0
-1863 -14534 0
-13706 -14534 0
1863 13706 14534 0
-1583 -6498 0
-1583 -14408 0
-6498 -14408 0
1583 6498 14408 0
-5571 -9424 0
-5571 -14535 0
-9424 -14535 0
5571 9424 14535 0
-3579 -4853 0
-3579 -12481 0
-4853 -12481 0
3579 4853 12481 0
-2366 -10569 0
-2366 -14536 0
-10569 -14536 0
2366 10569 14536 0
-143 -10760 0
-143 -14174 0
-10760 -14174 0
143 10760 14174 0
-10628 -11230 0
-10628 -14537 0
-11230 -14537 0
10628 11230 14537 0
-5383 -10110 0
-5383 -12352 0
-10110 -12352 0
5383 10110 12352 0
-2743 -7474 0
-2743 -14538 0
-7474 -14538 0
2743 7474 14538 0
-7020 -13415 0
-7020 -14539 0
-13415 -14539 0
7020 13415 14539 0
-2504 -7720 0
-2504 -11484 0
-7720 -11484 0
2504 7720 11484 0
-6126 -14540 0
-6126 -14541 0
-14540 -14541 0
6126 14540 14541 0
-8040 -9066 0
-8040 -10903 0
-9066 -10903 0
8040 9066 10903 0
-7246 -11464 0
-7246 -14542 0
-11464 -14542 0
7246 11464 14542 0
-2764 -10362 0
-2764 -14543 0
-10362 -14543 0
2764 10362 14543 0
-2757 -8575 0
-2757 -12554 0
-8575 -12554 0
2757 8575 12554 0
-5278 -6799 0
-5278 -14544 0
-6799 -14544 0
5278 6799 14544 0
-1031 -9048 0
-1031 -14545 0
-9048 -14545 0
1031 9048 14545 0
-1142 -13036 0
-1142 -14546 0
-13036 -14546 0
1142 13036 14546 0
-9698 -14120 0
-9698 -14547 0
-14120 -14547 0
9698 14120 14547 0
-8808 -14278 0
-8808 -14548 0
-14278 -14548 0
8808 14278 14548 0
-8451 -9942 0
-8451 -11463 0
-9942 -11463 0
8451 9942 11463 0
-12309 -12873 0
-12309 -14549 0
-12873 -14549 0
12309 12873 14549 0
-5730 -8964 0
-5730 -13648 0
-8964 -13648 0
5730 8964 13648 0
-5978 -8936 0
-5978 -13799 0
-8936 -13799 0
5978 8936 13799 0
-13488 -14550 0
-13488 -14551 0
-14550 -14551 0
13488 14550 14551 0
-629 -12013 0
-629 -14552 0
-12013 -14552 0
629 12013 14552 0
-3185 -10345 0
-3185 -14553 0
-10345 -14553 0
3185 10345 14553 0
-14360 -14554 0
-14360 -14555 0
-14554 -14555 0
14360 14554 14555 0
-5799 -13703 0
-5799 -14556 0
-13703 -14556 0
5799 13703 14556 0
-2719 -7413 0
-2719 -10872 0
-7413 -10872 0
2719 7413 10872 0
-1983 -6756 0
-1983 -8239 0
-6756 -8239 0
1983 6756 8239 0
-12026 -13863 0
-12026 -14557 0
-13863 -14557 0
12026 13863 14557 0
-3321 -9109 0
-3321 -12523 0
-9109 -12523 0
3321 9109 12523 0
-3070 -14376 0
-3070 -14558 0
-14376 -14558 0
3070 14376 14558 0
-3182 -8240 0
-3182 -14559 0
-8240 -14559 0
3182 8240 14559 0
-12353 -14560 0
-12353 -14561 0
-14560 -14561 0
12353 14560 14561 0
-648 -8780 0
-648 -11614 0
-8780 -11614 0
648 8780 11614 0
-466 -6331 0
-466 -8182 0
-6331 -8182 0
466 6331 8182 0
-9531 -10176 0
-9531 -10542 0
-10176 -10542 0
9531 10176 10542 0
-10150 -10971 0
-10150 -11936 0
-10971 -11936 0
10150 10971 11936 0
-4101 -10328 0
-4101 -12428 0
-10328 -12428 0
4101 10328 12428 0
-352 -4978 0
-352 -14562 0
-4978 -14562 0
352 4978 14562 0
-4824 -11435 0
-4824 -14563 0
-11435 -14563 0
4824 11435 14563 0
-1152 -4487 0
-1152 -10932 0
-4487 -10932 0
1152 4487 10932 0
-1851 -7695 0
-1851 -11466 0
-7695 -11466 0
1851 7695 11466 0
-734 -9796 0
-734 -11303 0
-9796 -11303 0
734 9796 11303 0
-8702 -14564 0
-8702 -14565 0
-14564 -14565 0
8702 14564 14565 0
-7350 -8822 0
-7350 -9812 0
-8822 -9812 0
7350 8822 9812 0
-13225 -14566 0
-13225 -14567 0
-14566 -14567 0
13225 14566 14567 0
-4683 -6353 0
-4683 -10968 0
-6353 -10968 0
4683 6353 10968 0
-7773 -8824 0
-7773 -13234 0
-8824 -13234 0
7773 8824 13234 0
-2625 -13677 0
-2625 -14568 0
-13677 -14568 0
2625 13677 14568 0
-3657 -7116 0
-3657 -10389 0
-7116 -10389 0
3657 7116 10389 0
-8105 -12653 0
-8105 -14569 0
-12653 -14569 0
8105 12653 14569 0
-4588 -8782 0
-4588 -13353 0
-8782 -13353 0
4588 8782 13353 0
-13617 -14570 0
-13617 -14571 0
-14570 -14571 0
13617 14570 14571 0
-10649 -13595 0
-10649 -13719 0
-13595 -13719 0
10649 13595 13719 0
-4189 -12715 0
-4189 -14572 0
-12715 -14572 0
4189 12715 14572 0
-4029 -12783 0
-4029 -14573 0
-12783 -14573 0
4029 12783 14573 0
-657 -14574 0
-657 -14575 0
-14574 -14575 0
657 14574 14575 0
-2844 -6010 0
-2844 -12440 0
-6010 -12440 0
2844 6010 12440 0
-1603 -12179 0
-1603 -12968 0
-12179 -12968 0
1603 12179 12968 0
-4949 -9860 0
-4949 -14576 0
-9860 -14576 0
4949 9860 14576 0
-2281 -7501 0
-2281 -14577 0
-7501 -14577 0
2281 7501 14577 0
-760 -9511 0
-760 -14107 0
-9511 -14107 0
760 9511 14107 0
-13925 -14116 0
-13925 -14578 0
-14116 -14578 0
13925 14116 14578 0
-11377 -11822 0
-11377 -14579 0
-11822 -14579 0
11377 11822 14579 0
-10284 -14580 0
-10284 -14581 0
-14580 -14581 0
10284 14580 14581 0
-325 -8100 0
-325 -14490 0
-8100 -14490 0
325 8100 14490 0
-3549 -5319 0
-3549 -14135 0
-5319 -14135 0
3549 5319 14135 0
-11796 -12435 0
-11796 -14582 0
-12435 -14582 0
11796 12435 14582 0
-2617 -6585 0
-2617 -11970 0
-6585 -11970 0
2617 6585 11970 0
-1775 -2029 0
-1775 -2790 0
-2029 -2790 0
1775 2029 2790 0
-10162 -14583 0
-10162 -14584 0
-14583 -14584 0
10162 14583 14584 0
-6068 -13301 0
-6068 -14585 0
-13301 -14585 0
6068 13301 14585 0
-10200 -14586 0
-10200 -14587 0
-14586 -14587 0
10200 14586 14587 0
-1187 -14289 0
-1187 -14588 0
-14289 -14588 0
1187 14289 14588 0
-10857 -14589 0
-10857 -14590 0
-14589 -14590 0
10857 14589 14590 0
-8497 -14591 0
-8497 -14592 0
-14591 -14592 0
8497 14591 14592 0
-946 -10898 0
-946 -14593 0
-10898 -14593 0
946 10898 14593 0
-2787 -4675 0
-2787 -7039 0
-4675 -7039 0
2787 4675 7039 0
-993 -11329 0
-993 -14305 0
-11329 -14305 0
993 11329 14305 0
-5508 -12684 0
-5508 -14202 0
-12684 -14202 0
5508 12684 14202 0
-13192 -14594 0
-13192 -14595 0
-14594 -14595 0
13192 14594 14595 0
-4389 -9250 0
-4389 -13670 0
-9250 -13670 0
4389 9250 13670 0
-5985 -9185 0
-5985 -13189 0
-9185 -13189 0
5985 9185 13189 0
-10407 -12885 0
-10407 -13127 0
-12885 -13127 0
10407 12885 13127 0
-9368 -13228 0
-9368 -14596 0
-13228 -14596 0
9368 13228 14596 0
-4348 -4397 0
-4348 -14597 0
-4397 -14597 0
4348 4397 14597 0
-14598 -14599 0
-14598 -14600 0
-14599 -14600 0
14598 14599 14600 0
-413 -8351 0
-413 -12962 0
-8351 -12962 0
413 8351 12962 0
-8571 -12632 0
-8571 -13367 0
-12632 -13367 0
8571 12632 13367 0
-7230 -13235 0
-7230 -13329 0
-13235 -13329 0
7230 13235 13329 0
-1810 -12930 0
-1810 -14601 0
-12930 -14601 0
1810 12930 14601 0
-7592 -12541 0
-7592 -12567 0
-12541 -12567 0
7592 12541 12567 0
-4060 -5655 0
-4060 -7961 0
-5655 -7961 0
4060 5655 7961 0
-11718 -13165 0
-11718 -14602 0
-13165 -14602 0
11718 13165 14602 0
-5036 -9192 0
-5036 -14603 0
-9192 -14603 0
5036 9192 14603 0
-1484 -11260 0
-1484 -11622 0
-11260 -11622 0
1484 11260 11622 0
-12525 -13431 0
-12525 -14604 0
-13431 -14604 0
12525 13431 14604 0
-10739 -14605 0
-10739 -14606 0
-14605 -14606 0
10739 14605 14606 0
-1331 -8773 0
-1331 -12256 0
-8773 -12256 0
1331 8773 12256 0
-1094 -6082 0
-1094 -12142 0
-6082 -12142 0
1094 6082 12142 0
-8016 -14607 0
-8016 -14608 0
-14607 -14608 0
8016 14607 14608 0
-1443 -14216 0
-1443 -14421 0
-14216 -14421 0
1443 14216 14421 0
-13417 -14535 0
-13417 -14609 0
-14535 -14609 0
13417 14535 14609 0
-10964 -14150 0
-10964 -14610 0
-14150 -14610 0
10964 14150 14610 0
-5252 -6520 0
-5252 -12126 0
-6520 -12126 0
5252 6520 12126 0
-1179 -13938 0
-1179 -14611 0
-13938 -14611 0
1179 13938 14611 0
-5856 -11018 0
-5856 -13861 0
-11018 -13861 0
5856 11018 13861 0
-4178 -10670 0
-4178 -11837 0
-10670 -11837 0
4178 10670 11837 0
-11726 -14354 0
-11726 -14612 0
-14354 -14612 0
11726 14354 14612 0
-868 -7189 0
-868 -14613 0
-7189 -14613 0
868 7189 14613 0
-9187 -9799 0
-9187 -11100 0
-9799 -11100 0
9187 9799 11100 0
-10646 -13898 0
-10646 -14614 0
-13898 -14614 0
10646 13898 14614 0
-10521 -12284 0
-10521 -13453 0
-12284 -13453 0
10521 12284 13453 0
-5017 -5986 0
-5017 -13590 0
-5986 -13590 0
5017 5986 13590 0
-1836 -2745 0
-1836 -14615 0
-2745 -14615 0
1836 2745 14615 0
-822 -833 0
-822 -14582 0
-833 -14582 0
822 833 14582 0
-3929 -7251 0
-3929 -14616 0
-7251 -14616 0
3929 7251 14616 0
-8880 -14617 0
-8880 -14618 0
-14617 -14618 0
8880 14617 14618 0
-1901 -11113 0
-1901 -12630 0
-11113 -12630 0
1901 11113 12630 0
-10629 -12325 0
-10629 -14619 0
-12325 -14619 0
10629 12325 14619 0
-5887 -8945 0
-5887 -9167 0
-8945 -9167 0
5887 8945 9167 0
-3071 -8152 0
-3071 -9730 0
-8152 -9730 0
3071 8152 9730 0
-791 -1909 0
-791 -14620 0
-1909 -14620 0
791 1909 14620 0
-7951 -11776 0
-7951 -12037 0
-11776 -12037 0
7951 11776 12037 0
-8364 -14621 0
-8364 -14622 0
-14621 -14622 0
8364 14621 14622 0
-1825 -7388 0
-1825 -14427 0
-7388 -14427 0
1825 7388 14427 0
-1722 -5064 0
-1722 -5914 0
-5064 -5914 0
1722 5064 5914 0
-3571 -14623 0
-3571 -14624 0
-14623 -14624 0
3571 14623 14624 0
-7575 -14625 0
-7575 -14626 0
-14625 -14626 0
7575 14625 14626 0
-1864 -12727 0
-1864 -14627 0
-12727 -14627 0
1864 12727 14627 0
-9569 -12468 0
-9569 -14479 0
-12468 -14479 0
9569 12468 14479 0
-11609 -12726 0
-11609 -14628 0
-12726 -14628 0
11609 12726 14628 0
-5810 -13961 0
-5810 -14629 0
-13961 -14629 0
5810 13961 14629 0
-427 -1207 0
-427 -14529 0
-1207 -14529 0
427 1207 14529 0
-11574 -13089 0
-11574 -14197 0
-13089 -14197 0
11574 13089 14197 0
-7692 -13911 0
-7692 -14630 0
-13911 -14630 0
7692 13911 14630 0
-13808 -14631 0
-13808 -14632 0
-14631 -14632 0
13808 14631 14632 0
-14027 -14253 0
-14027 -14633 0
-14253 -14633 0
14027 14253 14633 0
-10278 -13323 0
-10278 -14634 0
-13323 -14634 0
10278 13323 14634 0
-2886 -10757 0
-2886 -13336 0
-10757 -13336 0
2886 10757 13336 0
-14433 -14559 0
-14433 -14635 0
-14559 -14635 0
14433 14559 14635 0
-3112 -10488 0
-3112 -10961 0
-10488 -10961 0
3112 10488 10961 0
-11385 -12221 0
-11385 -14243 0
-12221 -14243 0
11385 12221 14243 0
-11057 -14636 0
-11057 -14637 0
-14636 -14637 0
11057 14636 14637 0
-8529 -9049 0
-8529 -14638 0
-9049 -14638 0
8529 9049 14638 0
-5567 -10069 0
-5567 -12285 0
-10069 -12285 0
5567 10069 12285 0
-2364 -14598 0
-2364 -14602 0
-14598 -14602 0
2364 14598 14602 0
-4127 -12888 0
-4127 -13895 0
-12888 -13895 0
4127 12888 13895 0
-7331 -9586 0
-7331 -11845 0
-9586 -11845 0
7331 9586 11845 0
-1352 -10600 0
-1352 -14639 0
-10600 -14639 0
1352 10600 14639 0
-4432 -8425 0
-4432 -14640 0
-8425 -14640 0
4432 8425 14640 0
-7201 -10834 0
-7201 -12774 0
-10834 -12774 0
7201 10834 12774 0
-12508 -12755 0
-12508 -13903 0
-12755 -13903 0
12508 12755 13903 0
-6940 -11480 0
-6940 -14594 0
-11480 -14594 0
6940 11480 14594 0
-4510 -8001 0
-4510 -8130 0
-8001 -8130 0
4510 8001 8130 0
-818 -13266 0
-818 -14589 0
-13266 -14589 0
818 13266 14589 0
-3273 -10916 0
-3273 -12769 0
-10916 -12769 0
3273 10916 12769 0
-7314 -9313 0
-7314 -11818 0
-9313 -11818 0
7314 9313 11818 0
-176 -2656 0
-176 -12806 0
-2656 -12806 0
176 2656 12806 0
-3397 -5398 0
-3397 -9363 0
-5398 -9363 0
3397 5398 9363 0
-12310 -14641 0
-12310 -14642 0
-14641 -14642 0
12310 14641 14642 0
-14166 -14643 0
-14166 -14644 0
-14643 -14644 0
14166 14643 14644 0
-9506 -11167 0
-9506 -12165 0
-11167 -12165 0
9506 11167 12165 0
-1390 -6475 0
-1390 -7723 0
-6475 -7723 0
1390 6475 7723 0
-2230 -8153 0
-2230 -12681 0
-8153 -12681 0
2230 8153 12681 0
-7415 -14348 0
-7415 -14472 0
-14348 -14472 0
7415 14348 14472 0
-13612 -14372 0
-13612 -14645 0
-14372 -14645 0
13612 14372 14645 0
-6138 -14531 0
-6138 -14646 0
-14531 -14646 0
6138 14531 14646 0
-11042 -12402 0
-11042 -12744 0
-12402 -12744 0
11042 12402 12744 0
-4928 -10650 0
-4928 -13441 0
-10650 -13441 0
4928 10650 13441 0
-8557 -10995 0
-8557 -13077 0
-10995 -13077 0
8557 10995 13077 0
-905 -9200 0
-905 -14231 0
-9200 -14231 0
905 9200 14231 0
-4448 -12757 0
-4448 -14647 0
-12757 -14647 0
4448 12757 14647 0
-6586 -7332 0
-6586 -13558 0
-7332 -13558 0
6586 7332 13558 0
-6590 -9577 0
-6590 -10346 0
-9577 -10346 0
6590 9577 10346 0
-14483 -14648 0
-14483 -14649 0
-14648 -14649 0
14483 14648 14649 0
-12164 -13332 0
-12164 -13426 0
-13332 -13426 0
12164 13332 13426 0
-8195 -13522 0
-8195 -14650 0
-13522 -14650 0
8195 13522 14650 0
-1518 -2282 0
-1518 -14651 0
-2282 -14651 0
1518 2282 14651 0
-13926 -14492 0
-13926 -14652 0
-14492 -14652 0
13926 14492 14652 0
-10079 -13701 0
-10079 -14084 0
-13701 -14084 0
10079 13701 14084 0
-8669 -10974 0
-8669 -14653 0
-10974 -14653 0
8669 10974 14653 0
-9334 -12178 0
-9334 -13693 0
-12178 -13693 0
9334 12178 13693 0
-6320 -6610 0
-6320 -12825 0
-6610 -12825 0
6320 6610 12825 0
-9470 -14081 0
-9470 -14654 0
-14081 -14654 0
9470 14081 14654 0
-7572 -14655 0
-7572 -14656 0
-14655 -14656 0
7572 14655 14656 0
-3752 -14156 0
-3752 -14657 0
-14156 -14657 0
3752 14156 14657 0
-11917 -13220 0
-11917 -13830 0
-13220 -13830 0
11917 13220 13830 0
-1691 -7202 0
-1691 -13223 0
-7202 -13223 0
1691 7202 13223 0
-3543 -11407 0
-3543 -14045 0
-11407 -14045 0
3543 11407 14045 0
-8595 -13472 0
-8595 -14496 0
-13472 -14496 0
8595 13472 14496 0
-755 -11184 0
-755 -13432 0
-11184 -13432 0
755 11184 13432 0
-6151 -7438 0
-6151 -10100 0
-7438 -10100 0
6151 7438 10100 0
-11987 -12618 0
-11987 -14658 0
-12618 -14658 0
11987 12618 14658 0
-7941 -10776 0
-7941 -14659 0
-10776 -14659 0
7941 10776 14659 0
-9877 -12188 0
-9877 -13409 0
-12188 -13409 0
9877 12188 13409 0
-7999 -10139 0
-7999 -13478 0
-10139 -13478 0
7999 10139 13478 0
-7023 -12883 0
-7023 -14613 0
-12883 -14613 0
7023 12883 14613 0
-8818 -13748 0
-8818 -14660 0
-13748 -14660 0
8818 13748 14660 0
-3507 -11159 0
-3507 -12065 0
-11159 -12065 0
3507 11159 12065 0
-799 -8120 0
-799 -10355 0
-8120 -10355 0
799 8120 10355 0
-8358 -13492 0
-8358 -13685 0
-13492 -13685 0
8358 13492 13685 0
-1913 -13305 0
-1913 -14434 0
-13305 -14434 0
1913 13305 14434 0
-14661 -14662 0
-14661 -14663 0
-14662 -14663 0
14661 14662 14663 0
-13241 -13775 0
-13241 -14664 0
-13775 -14664 0
13241 13775 14664 0
-842 -13535 0
-842 -14665 0
-13535 -14665 0
842 13535 14665 0
-7319 -11086 0
-7319 -14666 0
-11086 -14666 0
7319 11086 14666 0
-13423 -14424 0
-13423 -14667 0
-14424 -14667 0
13423 14424 14667 0
-10111 -11495 0
-10111 -14073 0
-11495 -14073 0
10111 11495 14073 0
-435 -12998 0
-435 -13450 0
-12998 -13450 0
435 12998 13450 0
-9111 -14668 0
-9111 -14669 0
-14668 -14669 0
9111 14668 14669 0
-6639 -7655 0
-6639 -14599 0
-7655 -14599 0
6639 7655 14599 0
-6298 -13365 0
-6298 -14670 0
-13365 -14670 0
6298 13365 14670 0
-5663 -11200 0
-5663 -14671 0
-11200 -14671 0
5663 11200 14671 0
-4796 -9105 0
-4796 -12451 0
-9105 -12451 0
4796 9105 12451 0
-863 -2774 0
-863 -7707 0
-2774 -7707 0
863 2774 7707 0
-4856 -12327 0
-4856 -14672 0
-12327 -14672 0
4856 12327 14672 0
-1062 -13265 0
-1062 -14673 0
-13265 -14673 0
1062 13265 14673 0
-4475 -12571 0
-4475 -14668 0
-12571 -14668 0
4475 12571 14668 0
-10578 -14192 0
-10578 -14674 0
-14192 -14674 0
10578 14192 14674 0
-7054 -10914 0
-7054 -14219 0
-10914 -14219 0
7054 10914 14219 0
-13358 -14293 0
-13358 -14675 0
-14293 -14675 0
13358 14293 14675 0
-4466 -14652 0
-4466 -14676 0
-14652 -14676 0
4466 14652 14676 0
-3061 -8632 0
-3061 -13344 0
-8632 -13344 0
3061 8632 13344 0
-6646 -13675 0
-6646 -14677 0
-13675 -14677 0
6646 13675 14677 0
-8135 -11287 0
-8135 -14170 0
-11287 -14170 0
8135 11287 14170 0
-5118 -14577 0
-5118 -14678 0
-14577 -14678 0
5118 14577 14678 0
-3107 -14175 0
-3107 -14679 0
-14175 -14679 0
3107 14175 14679 0
-4429 -13319 0
-4429 -14621 0
-13319 -14621 0
4429 13319 14621 0
-5826 -8664 0
-5826 -14680 0
-8664 -14680 0
5826 8664 14680 0
-3697 -14109 0
-3697 -14681 0
-14109 -14681 0
3697 14109 14681 0
-4437 -8391 0
-4437 -13671 0
-8391 -13671 0
4437 8391 13671 0
-9679 -12969 0
-9679 -14669 0
-12969 -14669 0
9679 12969 14669 0
-2138 -8276 0
-2138 -14682 0
-8276 -14682 0
2138 8276 14682 0
-6225 -12720 0
-6225 -14266 0
-12720 -14266 0
6225 12720 14266 0
-11984 -13731 0
-11984 -14683 0
-13731 -14683 0
11984 13731 14683 0
-5580 -14684 0
-5580 -14685 0
-14684 -14685 0
5580 14684 14685 0
-8504 -12552 0
-8504 -13948 0
-12552 -13948 0
8504 12552 13948 0
-7942 -9259 0
-7942 -14682 0
-9259 -14682 0
7942 9259 14682 0
-2414 -5745 0
-2414 -14686 0
-5745 -14686 0
2414 5745 14686 0
-6007 -6171 0
-6007 -7334 0
-6171 -7334 0
6007 6171 7334 0
-11386 -12905 0
-11386 -14478 0
-12905 -14478 0
11386 12905 14478 0
-11737 -14687 0
-11737 -14688 0
-14687 -14688 0
11737 14687 14688 0
-3303 -6433 0
-3303 -14162 0
-6433 -14162 0
3303 6433 14162 0
-7544 -12385 0
-7544 -14689 0
-12385 -14689 0
7544 12385 14689 0
-9699 -10201 0
-9699 -14690 0
-10201 -14690 0
9699 10201 14690 0
-2299 -10532 0
-2299 -14691 0
-10532 -14691 0
2299 10532 14691 0
-5288 -14625 0
-5288 -14647 0
-14625 -14647 0
5288 14625 14647 0
-4784 -6697 0
-4784 -14692 0
-6697 -14692 0
4784 6697 14692 0
-3088 -3326 0
-3088 -13702 0
-3326 -13702 0
3088 3326 13702 0
-7732 -14078 0
-7732 -14693 0
-14078 -14693 0
7732 14078 14693 0
-3176 -13939 0
-3176 -14694 0
-13939 -14694 0
3176 13939 14694 0
-5550 -10439 0
-5550 -14695 0
-10439 -14695 0
5550 10439 14695 0
-13002 -14430 0
-13002 -14573 0
-14430 -14573 0
13002 14430 14573 0
-10287 -14131 0
-10287 -14696 0
-14131 -14696 0
10287 14131 14696 0
-1139 -11235 0
-1139 -12330 0
-11235 -12330 0
1139 11235 12330 0
-4877 -14643 0
-4877 -14697 0
-14643 -14697 0
4877 14643 14697 0
-2766 -3627 0
-2766 -6206 0
-3627 -6206 0
2766 3627 6206 0
-3533 -6270 0
-3533 -14698 0
-6270 -14698 0
3533 6270 14698 0
-1910 -13404 0
-1910 -14699 0
-13404 -14699 0
1910 13404 14699 0
-10996 -14700 0
-10996 -14701 0
-14700 -14701 0
10996 14700 14701 0
-7016 -14702 0
-7016 -14703 0
-14702 -14703 0
7016 14702 14703 0
-125 -3141 0
-125 -12281 0
-3141 -12281 0
125 3141 12281 0
-5624 -11707 0
-5624 -14060 0
-11707 -14060 0
5624 11707 14060 0
-1379 -8510 0
-1379 -10735 0
-8510 -10735 0
1379 8510 10735 0
-2510 -3007 0
-2510 -14223 0
-3007 -14223 0
2510 3007 14223 0
-2305 -10660 0
-2305 -14704 0
-10660 -14704 0
2305 10660 14704 0
-102 -5782 0
-102 -11033 0
-5782 -11033 0
102 5782 11033 0
-11019 -14059 0
-11019 -14220 0
-14059 -14220 0
11019 14059 14220 0
-9874 -9882 0
-9874 -14646 0
-9882 -14646 0
9874 9882 14646 0
-5465 -6932 0
-5465 -14705 0
-6932 -14705 0
5465 6932 14705 0
-11250 -11858 0
-11250 -14706 0
-11858 -14706 0
11250 11858 14706 0
-9319 -12974 0
-9319 -14566 0
-12974 -14566 0
9319 12974 14566 0
-11096 -13584 0
-11096 -14707 0
-13584 -14707 0
11096 13584 14707 0
-9688 -14314 0
-9688 -14708 0
-14314 -14708 0
9688 14314 14708 0
-4248 -5343 0
-4248 -14709 0
-5343 -14709 0
4248 5343 14709 0
-6276 -7781 0
-6276 -13455 0
-7781 -13455 0
6276 7781 13455 0
-10889 -14710 0
-10889 -14711 0
-14710 -14711 0
10889 14710 14711 0
-2148 -11730 0
-2148 -12213 0
-11730 -12213 0
2148 11730 12213 0
-10442 -12423 0
-10442 -13401 0
-12423 -13401 0
10442 12423 13401 0
-14675 -14712 0
-14675 -14713 0
-14712 -14713 0
14675 14712 14713 0
-3368 -11026 0
-3368 -14671 0
-11026 -14671 0
3368 11026 14671 0
-2181 -5257 0
-2181 -14206 0
-5257 -14206 0
2181 5257 14206 0
-7936 -13390 0
-7936 -14023 0
-13390 -14023 0
7936 13390 14023 0
-1226 -6834 0
-1226 -9627 0
-6834 -9627 0
1226 6834 9627 0
-9118 -14714 0
-9118 -14715 0
-14714 -14715 0
9118 14714 14715 0
-12268 -13389 0
-12268 -14716 0
-13389 -14716 0
12268 13389 14716 0
-5430 -9721 0
-5430 -13829 0
-9721 -13829 0
5430 9721 13829 0
-1257 -8735 0
-1257 -8813 0
-8735 -8813 0
1257 8735 8813 0
-680 -6794 0
-680 -14717 0
-6794 -14717 0
680 6794 14717 0
-6105 -7791 0
-6105 -8675 0
-7791 -8675 0
6105 7791 8675 0
-6954 -13762 0
-6954 -14099 0
-13762 -14099 0
6954 13762 14099 0
-2901 -10886 0
-2901 -11461 0
-10886 -11461 0
2901 10886 11461 0
-11376 -12008 0
-11376 -14718 0
-12008 -14718 0
11376 12008 14718 0
-7261 -8474 0
-7261 -14719 0
-8474 -14719 0
7261 8474 14719 0
-2579 -7564 0
-2579 -10896 0
-7564 -10896 0
2579 7564 10896 0
-6740 -13891 0
-6740 -14720 0
-13891 -14720 0
6740 13891 14720 0
-641 -13035 0
-641 -14159 0
-13035 -14159 0
641 13035 14159 0
-12695 -14212 0
-12695 -14657 0
-14212 -14657 0
12695 14212 14657 0
-1188 -14721 0
-1188 -14722 0
-14721 -14722 0
1188 14721 14722 0
-2829 -13687 0
-2829 -14723 0
-13687 -14723 0
2829 13687 14723 0
-5044 -8339 0
-5044 -14171 0
-8339 -14171 0
5044 8339 14171 0
-11010 -12993 0
-11010 -14724 0
-12993 -14724 0
11010 12993 14724 0
-6619 -14113 0
-6619 -14679 0
-14113 -14679 0
6619 14113 14679 0
-13275 -13310 0
-13275 -14238 0
-13310 -14238 0
13275 13310 14238 0
-13267 -14090 0
-13267 -14725 0
-14090 -14725 0
13267 14090 14725 0
-5212 -5892 0
-5212 -7347 0
-5892 -7347 0
5212 5892 7347 0
-6501 -12674 0
-6501 -13763 0
-12674 -13763 0
6501 12674 13763 0
-297 -9599 0
-297 -14726 0
-9599 -14726 0
297 9599 14726 0
-5796 -13744 0
-5796 -14727 0
-13744 -14727 0
5796 13744 14727 0
-1839 -6027 0
-1839 -12245 0
-6027 -12245 0
1839 6027 12245 0
-5547 -11530 0
-5547 -14728 0
-11530 -14728 0
5547 11530 14728 0
-5065 -13445 0
-5065 -14729 0
-13445 -14729 0
5065 13445 14729 0
-5069 -7937 0
-5069 -14730 0
-7937 -14730 0
5069 7937 14730 0
-13146 -13890 0
-13146 -14184 0
-13890 -14184 0
13146 13890 14184 0
-4037 -4656 0
-4037 -9837 0
-4656 -9837 0
4037 4656 9837 0
-4671 -12639 0
-4671 -14731 0
-12639 -14731 0
4671 12639 14731 0
-407 -5148 0
-407 -14732 0
-5148 -14732 0
407 5148 14732 0
-4659 -6164 0
-4659 -14733 0
-6164 -14733 0
4659 6164 14733 0
-9419 -13049 0
-9419 -13975 0
-13049 -13975 0
9419 13049 13975 0
-11277 -13651 0
-11277 -13970 0
-13651 -13970 0
11277 13651 13970 0
-3392 -12815 0
-3392 -14734 0
-12815 -14734 0
3392 12815 14734 0
-1481 -3160 0
-1481 -14735 0
-3160 -14735 0
1481 3160 14735 0
-1794 -14112 0
-1794 -14736 0
-14112 -14736 0
1794 14112 14736 0
-4893 -6187 0
-4893 -10432 0
-6187 -10432 0
4893 6187 10432 0
-1980 -2377 0
-1980 -14737 0
-2377 -14737 0
1980 2377 14737 0
-10297 -13900 0
-10297 -14738 0
-13900 -14738 0
10297 13900 14738 0
-8727 -14739 0
-8727 -14740 0
-14739 -14740 0
8727 14739 14740 0
-4705 -12323 0
-4705 -14741 0
-12323 -14741 0
4705 12323 14741 0
-911 -11030 0
-911 -14724 0
-11030 -14724 0
911 11030 14724 0
-13207 -14742 0
-13207 -14743 0
-14742 -14743 0
13207 14742 14743 0
-1554 -8698 0
-1554 -9392 0
-8698 -9392 0
1554 8698 9392 0
-4119 -4218 0
-4119 -9277 0
-4218 -9277 0
4119 4218 9277 0
-4882 -5800 0
-4882 -10034 0
-5800 -10034 0
4882 5800 10034 0
-4315 -14067 0
-4315 -14744 0
-14067 -14744 0
4315 14067 14744 0
-1131 -8602 0
-1131 -14718 0
-8602 -14718 0
1131 8602 14718 0
-2498 -12034 0
-2498 -14745 0
-12034 -14745 0
2498 12034 14745 0
-12509 -12657 0
-12509 -14746 0
-12657 -14746 0
12509 12657 14746 0
-10417 -11629 0
-10417 -14484 0
-11629 -14484 0
10417 11629 14484 0
-12827 -14747 0
-12827 -14748 0
-14747 -14748 0
12827 14747 14748 0
-10226 -11854 0
-10226 -14749 0
-11854 -14749 0
10226 11854 14749 0
-267 -13713 0
-267 -14461 0
-13713 -14461 0
267 13713 14461 0
-3001 -4677 0
-3001 -12852 0
-4677 -12852 0
3001 4677 12852 0
-567 -9954 0
-567 -10335 0
-9954 -10335 0
567 9954 10335 0
-14258 -14750 0
-14258 -14751 0
-14750 -14751 0
14258 14750 14751 0
-6124 -10553 0
-6124 -14705 0
-10553 -14705 0
6124 10553 14705 0
-2924 -10642 0
-2924 -14752 0
-10642 -14752 0
2924 10642 14752 0
-498 -9775 0
-498 -14733 0
-9775 -14733 0
498 9775 14733 0
-7196 -11509 0
-7196 -14753 0
-11509 -14753 0
7196 11509 14753 0
-2452 -13011 0
-2452 -14754 0
-13011 -14754 0
2452 13011 14754 0
-8481 -9007 0
-8481 -14635 0
-9007 -14635 0
8481 9007 14635 0
-6685 -9951 0
-6685 -14755 0
-9951 -14755 0
6685 9951 14755 0
-1658 -5163 0
-1658 -14756 0
-5163 -14756 0
1658 5163 14756 0
-1877 -10687 0
-1877 -14757 0
-10687 -14757 0
1877 10687 14757 0
-1258 -11122 0
-1258 -14586 0
-11122 -14586 0
1258 11122 14586 0
-2184 -8085 0
-2184 -14064 0
-8085 -14064 0
2184 8085 14064 0
-5495 -14758 0
-5495 -14759 0
-14758 -14759 0
5495 14758 14759 0
-3366 -3975 0
-3366 -14760 0
-3975 -14760 0
3366 3975 14760 0
-5537 -6364 0
-5537 -11797 0
-6364 -11797 0
5537 6364 11797 0
-5310 -9280 0
-5310 -14761 0
-9280 -14761 0
5310 9280 14761 0
-819 -8037 0
-819 -13709 0
-8037 -13709 0
819 8037 13709 0
-10132 -14762 0
-10132 -14763 0
-14762 -14763 0
10132 14762 14763 0
-7459 -9759 0
-7459 -11149 0
-9759 -11149 0
7459 9759 11149 0
-4979 -13802 0
-4979 -14764 0
-13802 -14764 0
4979 13802 14764 0
-10694 -13097 0
-10694 -14765 0
-13097 -14765 0
10694 13097 14765 0
-1792 -10081 0
-1792 -13312 0
-10081 -13312 0
1792 10081 13312 0
-8640 -13357 0
-8640 -14428 0
-13357 -14428 0
8640 13357 14428 0
-538 -8502 0
-538 -14766 0
-8502 -14766 0
538 8502 14766 0
-1318 -10741 0
-1318 -14767 0
-10741 -14767 0
1318 10741 14767 0
-3356 -4774 0
-3356 -14768 0
-4774 -14768 0
3356 4774 14768 0
-1628 -5886 0
-1628 -8594 0
-5886 -8594 0
1628 5886 8594 0
-7169 -7885 0
-7169 -11586 0
-7885 -11586 0
7169 7885 11586 0
-9154 -13547 0
-9154 -14769 0
-13547 -14769 0
9154 13547 14769 0
-11405 -12981 0
-11405 -14224 0
-12981 -14224 0
11405 12981 14224 0
-8741 -14569 0
-8741 -14770 0
-14569 -14770 0
8741 14569 14770 0
-2326 -6316 0
-2326 -12899 0
-6316 -12899 0
2326 6316 12899 0
-11891 -11939 0
-11891 -14771 0
-11939 -14771 0
11891 11939 14771 0
-11869 -12945 0
-11869 -14772 0
-12945 -14772 0
11869 12945 14772 0
-1571 -6569 0
-1571 -14710 0
-6569 -14710 0
1571 6569 14710 0
-3528 -12563 0
-3528 -13765 0
-12563 -13765 0
3528 12563 13765 0
-6803 -6872 0
-6803 -13691 0
-6872 -13691 0
6803 6872 13691 0
-6526 -11062 0
-6526 -13448 0
-11062 -13448 0
6526 11062 13448 0
-11078 -14773 0
-11078 -14774 0
-14773 -14774 0
11078 14773 14774 0
-5158 -13625 0
-5158 -14775 0
-13625 -14775 0
5158 13625 14775 0
-10552 -14136 0
-10552 -14776 0
-14136 -14776 0
10552 14136 14776 0
-3189 -11927 0
-3189 -14777 0
-11927 -14777 0
3189 11927 14777 0
-801 -1995 0
-801 -2666 0
-1995 -2666 0
801 1995 2666 0
-8400 -12381 0
-8400 -13314 0
-12381 -13314 0
8400 12381 13314 0
-7045 -13290 0
-7045 -14778 0
-13290 -14778 0
7045 13290 14778 0
-2569 -13374 0
-2569 -14779 0
-13374 -14779 0
2569 13374 14779 0
-12923 -13199 0
-12923 -14758 0
-13199 -14758 0
12923 13199 14758 0
-2664 -3725 0
-2664 -9971 0
-3725 -9971 0
2664 3725 9971 0
-1102 -12830 0
-1102 -14237 0
-12830 -14237 0
1102 12830 14237 0
-6726 -13105 0
-6726 -14780 0
-13105 -14780 0
6726 13105 14780 0
-7906 -8355 0
-7906 -14781 0
-8355 -14781 0
7906 8355 14781 0
-10056 -12401 0
-10056 -14782 0
-12401 -14782 0
10056 12401 14782 0
-1137 -10566 0
-1137 -11432 0
-10566 -11432 0
1137 10566 11432 0
-6787 -8229 0
-6787 -14564 0
-8229 -14564 0
6787 8229 14564 0
-8133 -9355 0
-8133 -11024 0
-9355 -11024 0
8133 9355 11024 0
-2636 -4756 0
-2636 -14783 0
-4756 -14783 0
2636 4756 14783 0
-3585 -13555 0
-3585 -14784 0
-13555 -14784 0
3585 13555 14784 0
-10356 -14341 0
-10356 -14785 0
-14341 -14785 0
10356 14341 14785 0
-2213 -8156 0
-2213 -13433 0
-8156 -13433 0
2213 8156 13433 0
-9161 -14123 0
-9161 -14786 0
-14123 -14786 0
9161 14123 14786 0
-503 -13277 0
-503 -14787 0
-13277 -14787 0
503 13277 14787 0
-8143 -13345 0
-8143 -14788 0
-13345 -14788 0
8143 13345 14788 0
-3923 -9226 0
-3923 -14789 0
-9226 -14789 0
3923 9226 14789 0
-5621 -7871 0
-5621 -12682 0
-7871 -12682 0
5621 7871 12682 0
-11133 -12033 0
-11133 -14790 0
-12033 -14790 0
11133 12033 14790 0
-6832 -14791 0
-6832 -14792 0
-14791 -14792 0
6832 14791 14792 0
-6724 -10149 0
-6724 -12625 0
-10149 -12625 0
6724 10149 12625 0
-1540 -7060 0
-1540 -14793 0
-7060 -14793 0
1540 7060 14793 0
-13347 -13753 0
-13347 -14794 0
-13753 -14794 0
13347 13753 14794 0
-9618 -12752 0
-9618 -14795 0
-12752 -14795 0
9618 12752 14795 0
-5938 -6654 0
-5938 -9384 0
-6654 -9384 0
5938 6654 9384 0
-4045 -13813 0
-4045 -14351 0
-13813 -14351 0
4045 13813 14351 0
-6100 -10472 0
-6100 -11712 0
-10472 -11712 0
6100 10472 11712 0
-4865 -12997 0
-4865 -14796 0
-12997 -14796 0
4865 12997 14796 0
-8506 -12197 0
-8506 -13745 0
-12197 -13745 0
8506 12197 13745 0
-14797 -14798 0
-14797 -14799 0
-14798 -14799 0
14797 14798 14799 0
-8488 -14800 0
-8488 -14801 0
-14800 -14801 0
8488 14800 14801 0
-6211 -14802 0
-6211 -14803 0
-14802 -14803 0
6211 14802 14803 0
-4805 -8958 0
-4805 -10012 0
-8958 -10012 0
4805 8958 10012 0
-3694 -12157 0
-3694 -14752 0
-12157 -14752 0
3694 12157 14752 0
-10845 -11698 0
-10845 -11989 0
-11698 -11989 0
10845 11698 11989 0
-4124 -5243 0
-4124 -14095 0
-5243 -14095 0
4124 5243 14095 0
-10424 -13026 0
-10424 -14804 0
-13026 -14804 0
10424 13026 14804 0
-3685 -12311 0
-3685 -12514 0
-12311 -12514 0
3685 12311 12514 0
-197 -621 0
-197 -5481 0
-621 -5481 0
197 621 5481 0
-5924 -14779 0
-5924 -14805 0
-14779 -14805 0
5924 14779 14805 0
-1162 -12158 0
-1162 -14304 0
-12158 -14304 0
1162 12158 14304 0
-969 -13537 0
-969 -13540 0
-13537 -13540 0
969 13537 13540 0
-160 -950 0
-160 -14806 0
-950 -14806 0
160 950 14806 0
-5871 -9772 0
-5871 -12611 0
-9772 -12611 0
5871 9772 12611 0
-7729 -9915 0
-7729 -14807 0
-9915 -14807 0
7729 9915 14807 0
-13260 -13779 0
-13260 -13922 0
-13779 -13922 0
13260 13779 13922 0
-6168 -13919 0
-6168 -14808 0
-13919 -14808 0
6168 13919 14808 0
-3904 -8287 0
-3904 -14560 0
-8287 -14560 0
3904 8287 14560 0
-7569 -13042 0
-7569 -14809 0
-13042 -14809 0
7569 13042 14809 0
-9300 -12824 0
-9300 -14119 0
-12824 -14119 0
9300 12824 14119 0
-8543 -12066 0
-8543 -14810 0
-12066 -14810 0
8543 12066 14810 0
-371 -2423 0
-371 -10215 0
-2423 -10215 0
371 2423 10215 0
-4007 -12354 0
-4007 -14441 0
-12354 -14441 0
4007 12354 14441 0
-9787 -11687 0
-9787 -14811 0
-11687 -14811 0
9787 11687 14811 0
-11459 -11951 0
-11459 -12901 0
-11951 -12901 0
11459 11951 12901 0
-491 -8188 0
-491 -12358 0
-8188 -12358 0
491 8188 12358 0
-14480 -14739 0
-14480 -14812 0
-14739 -14812 0
14480 14739 14812 0
-13293 -13559 0
-13293 -14775 0
-13559 -14775 0
13293 13559 14775 0
-4499 -8281 0
-4499 -13054 0
-8281 -13054 0
4499 8281 13054 0
-5372 -6042 0
-5372 -13769 0
-6042 -13769 0
5372 6042 13769 0
-565 -3645 0
-565 -10489 0
-3645 -10489 0
565 3645 10489 0
-3243 -5370 0
-3243 -11426 0
-5370 -11426 0
3243 5370 11426 0
-11119 -12036 0
-11119 -14813 0
-12036 -14813 0
11119 12036 14813 0
-4300 -14809 0
-4300 -14814 0
-14809 -14814 0
4300 14809 14814 0
-12489 -14085 0
-12489 -14815 0
-14085 -14815 0
12489 14085 14815 0
-2300 -4445 0
-2300 -14816 0
-4445 -14816 0
2300 4445 14816 0
-13062 -14711 0
-13062 -14817 0
-14711 -14817 0
13062 14711 14817 0
-13767 -14246 0
-13767 -14818 0
-14246 -14818 0
13767 14246 14818 0
-3344 -5931 0
-3344 -10685 0
-5931 -10685 0
3344 5931 10685 0
-4146 -5014 0
-4146 -14819 0
-5014 -14819 0
4146 5014 14819 0
-3256 -3512 0
-3256 -14008 0
-3512 -14008 0
3256 3512 14008 0
-10764 -12771 0
-10764 -13638 0
-12771 -13638 0
10764 12771 13638 0
-9491 -12422 0
-9491 -13031 0
-12422 -13031 0
9491 12422 13031 0
-457 -2570 0
-457 -12561 0
-2570 -12561 0
457 2570 12561 0
-4544 -4871 0
-4544 -5763 0
-4871 -5763 0
4544 4871 5763 0
-1068 -4335 0
-1068 -14520 0
-4335 -14520 0
1068 4335 14520 0
-4043 -4109 0
-4043 -8222 0
-4109 -8222 0
4043 4109 8222 0
-8183 -10879 0
-8183 -14820 0
-10879 -14820 0
8183 10879 14820 0
-11143 -14343 0
-11143 -14821 0
-14343 -14821 0
11143 14343 14821 0
-5378 -10819 0
-5378 -11333 0
-10819 -11333 0
5378 10819 11333 0
-4293 -13772 0
-4293 -14596 0
-13772 -14596 0
4293 13772 14596 0
-2468 -12486 0
-2468 -13529 0
-12486 -13529 0
2468 12486 13529 0
-14507 -14822 0
-14507 -14823 0
-14822 -14823 0
14507 14822 14823 0
-2777 -14824 0
-2777 -14825 0
-14824 -14825 0
2777 14824 14825 0
-11455 -12595 0
-11455 -14654 0
-12595 -14654 0
11455 12595 14654 0
-326 -1223 0
-326 -5640 0
-1223 -5640 0
326 1223 5640 0
-10437 -12372 0
-10437 -13191 0
-12372 -13191 0
10437 12372 13191 0
-3567 -8979 0
-3567 -10731 0
-8979 -10731 0
3567 8979 10731 0
-813 -4967 0
-813 -13515 0
-4967 -13515 0
813 4967 13515 0
-5948 -14826 0
-5948 -14827 0
-14826 -14827 0
5948 14826 14827 0
-5306 -14828 0
-5306 -14829 0
-14828 -14829 0
5306 14828 14829 0
-10899 -13913 0
-10899 -14025 0
-13913 -14025 0
10899 13913 14025 0
-1345 -1833 0
-1345 -12091 0
-1833 -12091 0
1345 1833 12091 0
-9898 -14265 0
-9898 -14830 0
-14265 -14830 0
9898 14265 14830 0
-5608 -14502 0
-5608 -14831 0
-14502 -14831 0
5608 14502 14831 0
-408 -3815 0
-408 -13795 0
-3815 -13795 0
408 3815 13795 0
-7477 -14745 0
-7477 -14832 0
-14745 -14832 0
7477 14745 14832 0
-4815 -7191 0
-4815 -12854 0
-7191 -12854 0
4815 7191 12854 0
-1313 -13646 0
-1313 -14820 0
-13646 -14820 0
1313 13646 14820 0
-9518 -11004 0
-9518 -12061 0
-11004 -12061 0
9518 11004 12061 0
-13658 -14833 0
-13658 -14834 0
-14833 -14834 0
13658 14833 14834 0
-5568 -8907 0
-5568 -12429 0
-8907 -12429 0
5568 8907 12429 0
-5164 -11733 0
-5164 -14702 0
-11733 -14702 0
5164 11733 14702 0
-13055 -13662 0
-13055 -14712 0
-13662 -14712 0
13055 13662 14712 0
-965 -2125 0
-965 -12105 0
-2125 -12105 0
965 2125 12105 0
-2496 -9503 0
-2496 -14835 0
-9503 -14835 0
2496 9503 14835 0
-9800 -14495 0
-9800 -14836 0
-14495 -14836 0
9800 14495 14836 0
-9910 -13949 0
-9910 -14837 0
-13949 -14837 0
9910 13949 14837 0
-9387 -12776 0
-9387 -14558 0
-12776 -14558 0
9387 12776 14558 0
-1069 -7857 0
-1069 -9960 0
-7857 -9960 0
1069 7857 9960 0
-11910 -14838 0
-11910 -14839 0
-14838 -14839 0
11910 14838 14839 0
-951 -9509 0
-951 -13626 0
-9509 -13626 0
951 9509 13626 0
-8374 -14762 0
-8374 -14840 0
-14762 -14840 0
8374 14762 14840 0
-685 -14841 0
-685 -14842 0
-14841 -14842 0
685 14841 14842 0
-9336 -9526 0
-9336 -14843 0
-9526 -14843 0
9336 9526 14843 0
-12 -8986 0
-12 -11761 0
-8986 -11761 0
12 8986 11761 0
-1648 -6447 0
-1648 -14844 0
-6447 -14844 0
1648 6447 14844 0
-13232 -14845 0
-13232 -14846 0
-14845 -14846 0
13232 14845 14846 0
-8226 -12904 0
-8226 -14847 0
-12904 -14847 0
8226 12904 14847 0
-8739 -11843 0
-8739 -13392 0
-11843 -13392 0
8739 11843 13392 0
-4407 -14848 0
-4407 -14849 0
-14848 -14849 0
4407 14848 14849 0
-1915 -5159 0
-1915 -6311 0
-5159 -6311 0
1915 5159 6311 0
-10405 -14075 0
-10405 -14403 0
-14075 -14403 0
10405 14075 14403 0
-117 -9976 0
-117 -13179 0
-9976 -13179 0
117 9976 13179 0
-3805 -8368 0
-3805 -14362 0
-8368 -14362 0
3805 8368 14362 0
-11503 -13951 0
-11503 -14850 0
-13951 -14850 0
11503 13951 14850 0
-7505 -11007 0
-7505 -12278 0
-11007 -12278 0
7505 11007 12278 0
-8840 -10021 0
-8840 -12693 0
-10021 -12693 0
8840 10021 12693 0
-3036 -12779 0
-3036 -14851 0
-12779 -14851 0
3036 12779 14851 0
-5838 -10083 0
-5838 -12144 0
-10083 -12144 0
5838 10083 12144 0
-5690 -14852 0
-5690 -14853 0
-14852 -14853 0
5690 14852 14853 0
-14203 -14590 0
-14203 -14797 0
-14590 -14797 0
14203 14590 14797 0
-12902 -14854 0
-12902 -14855 0
-14854 -14855 0
12902 14854 14855 0
-6963 -10096 0
-6963 -10104 0
-10096 -10104 0
6963 10096 10104 0
-2513 -3340 0
-2513 -14570 0
-3340 -14570 0
2513 3340 14570 0
-2119 -14856 0
-2119 -14857 0
-14856 -14857 0
2119 14856 14857 0
-2507 -3069 0
-2507 -7046 0
-3069 -7046 0
2507 3069 7046 0
-576 -14858 0
-576 -14859 0
-14858 -14859 0
576 14858 14859 0
-13543 -14321 0
-13543 -14860 0
-14321 -14860 0
13543 14321 14860 0
-8748 -12851 0
-8748 -14861 0
-12851 -14861 0
8748 12851 14861 0
-3168 -14862 0
-3168 -14863 0
-14862 -14863 0
3168 14862 14863 0
-7101 -9982 0
-7101 -14003 0
-9982 -14003 0
7101 9982 14003 0
-942 -14217 0
-942 -14864 0
-14217 -14864 0
942 14217 14864 0
-12336 -12487 0
-12336 -14865 0
-12487 -14865 0
12336 12487 14865 0
-8462 -9080 0
-8462 -14866 0
-9080 -14866 0
8462 9080 14866 0
-770 -2960 0
-770 -8427 0
-2960 -8427 0
770 2960 8427 0
-4463 -7357 0
-4463 -14867 0
-7357 -14867 0
4463 7357 14867 0
-1357 -9991 0
-1357 -14308 0
-9991 -14308 0
1357 9991 14308 0
-8436 -8471 0
-8436 -9652 0
-8471 -9652 0
8436 8471 9652 0
-5949 -7446 0
-5949 -12112 0
-7446 -12112 0
5949 7446 12112 0
-10430 -12947 0
-10430 -14325 0
-12947 -14325 0
10430 12947 14325 0
-3833 -4807 0
-3833 -10717 0
-4807 -10717 0
3833 4807 10717 0
-185 -5990 0
-185 -9712 0
-5990 -9712 0
185 5990 9712 0
-9357 -14868 0
-9357 -14869 0
-14868 -14869 0
9357 14868 14869 0
-1814 -14154 0
-1814 -14870 0
-14154 -14870 0
1814 14154 14870 0
-14525 -14871 0
-14525 -14872 0
-14871 -14872 0
14525 14871 14872 0
-5099 -8050 0
-5099 -9711 0
-8050 -9711 0
5099 8050 9711 0
-5876 -7091 0
-5876 -9943 0
-7091 -9943 0
5876 7091 9943 0
-3939 -13605 0
-3939 -14134 0
-13605 -14134 0
3939 13605 14134 0
-11335 -11624 0
-11335 -14873 0
-11624 -14873 0
11335 11624 14873 0
-9957 -14874 0
-9957 -14875 0
-14874 -14875 0
9957 14874 14875 0
-6964 -8688 0
-6964 -14876 0
-8688 -14876 0
6964 8688 14876 0
-3678 -4420 0
-3678 -14396 0
-4420 -14396 0
3678 4420 14396 0
-8868 -8900 0
-8868 -13424 0
-8900 -13424 0
8868 8900 13424 0
-3782 -6888 0
-3782 -11610 0
-6888 -11610 0
3782 6888 11610 0
-6144 -9523 0
-6144 -14877 0
-9523 -14877 0
6144 9523 14877 0
-10900 -11138 0
-10900 -12282 0
-11138 -12282 0
10900 11138 12282 0
-767 -4026 0
-767 -14878 0
-4026 -14878 0
767 4026 14878 0
-8352 -13877 0
-8352 -14879 0
-13877 -14879 0
8352 13877 14879 0
-10743 -12002 0
-10743 -13408 0
-12002 -13408 0
10743 12002 13408 0
-13520 -14445 0
-13520 -14880 0
-14445 -14880 0
13520 14445 14880 0
-11243 -11888 0
-11243 -14881 0
-11888 -14881 0
11243 11888 14881 0
-955 -2356 0
-955 -14882 0
-2356 -14882 0
955 2356 14882 0
-7882 -12189 0
-7882 -13937 0
-12189 -13937 0
7882 12189 13937 0
-8237 -8432 0
-8237 -14435 0
-8432 -14435 0
8237 8432 14435 0
-2853 -14014 0
-2853 -14883 0
-14014 -14883 0
2853 14014 14883 0
-7378 -9600 0
-7378 -14884 0
-9600 -14884 0
7378 9600 14884 0
-11095 -14885 0
-11095 -14886 0
-14885 -14886 0
11095 14885 14886 0
-9844 -14444 0
-9844 -14887 0
-14444 -14887 0
9844 14444 14887 0
-4571 -6676 0
-4571 -14404 0
-6676 -14404 0
4571 6676 14404 0
-1781 -14888 0
-1781 -14889 0
-14888 -14889 0
1781 14888 14889 0
-6141 -6678 0
-6141 -8843 0
-6678 -8843 0
6141 6678 8843 0
-12038 -14749 0
-12038 -14890 0
-14749 -14890 0
12038 14749 14890 0
-3018 -7770 0
-3018 -14381 0
-7770 -14381 0
3018 7770 14381 0
-6510 -9594 0
-6510 -11092 0
-9594 -11092 0
6510 9594 11092 0
-6072 -7407 0
-6072 -14891 0
-7407 -14891 0
6072 7407 14891 0
-1360 -4020 0
-1360 -12609 0
-4020 -12609 0
1360 4020 12609 0
-6570 -11664 0
-6570 -14892 0
-11664 -14892 0
6570 11664 14892 0
-9994 -11642 0
-9994 -12790 0
-11642 -12790 0
9994 11642 12790 0
-9215 -14369 0
-9215 -14655 0
-14369 -14655 0
9215 14369 14655 0
-3628 -12913 0
-3628 -14818 0
-12913 -14818 0
3628 12913 14818 0
-7143 -14530 0
-7143 -14893 0
-14530 -14893 0
7143 14530 14893 0
-9828 -12846 0
-9828 -14380 0
-12846 -14380 0
9828 12846 14380 0
-8761 -10981 0
-8761 -14894 0
-10981 -14894 0
8761 10981 14894 0
-14352 -14463 0
-14352 -14895 0
-14463 -14895 0
14352 14463 14895 0
-7420 -11752 0
-7420 -14807 0
-11752 -14807 0
7420 11752 14807 0
-14281 -14612 0
-14281 -14896 0
-14612 -14896 0
14281 14612 14896 0
-2541 -11657 0
-2541 -12863 0
-11657 -12863 0
2541 11657 12863 0
-4434 -12012 0
-4434 -14091 0
-12012 -14091 0
4434 12012 14091 0
-3686 -13582 0
-3686 -14451 0
-13582 -14451 0
3686 13582 14451 0
-6543 -13094 0
-6543 -13820 0
-13094 -13820 0
6543 13094 13820 0
-4684 -9283 0
-4684 -9715 0
-9283 -9715 0
4684 9283 9715 0
-4392 -10077 0
-4392 -13869 0
-10077 -13869 0
4392 10077 13869 0
-2887 -8467 0
-2887 -14897 0
-8467 -14897 0
2887 8467 14897 0
-5564 -11020 0
-5564 -14276 0
-11020 -14276 0
5564 11020 14276 0
-4012 -10374 0
-4012 -10651 0
-10374 -10651 0
4012 10374 10651 0
-3309 -3734 0
-3309 -13439 0
-3734 -13439 0
3309 3734 13439 0
-1392 -14770 0
-1392 -14898 0
-14770 -14898 0
1392 14770 14898 0
-9726 -11995 0
-9726 -14899 0
-11995 -14899 0
9726 11995 14899 0
-5918 -9520 0
-5918 -10747 0
-9520 -10747 0
5918 9520 10747 0
-10711 -11351 0
-10711 -14270 0
-11351 -14270 0
10711 11351 14270 0
-2365 -6560 0
-2365 -14241 0
-6560 -14241 0
2365 6560 14241 0
-9792 -11904 0
-9792 -14900 0
-11904 -14900 0
9792 11904 14900 0
-8990 -12644 0
-8990 -14634 0
-12644 -14634 0
8990 12644 14634 0
-7223 -9748 0
-7223 -11953 0
-9748 -11953 0
7223 9748 11953 0
-9220 -13833 0
-9220 -14828 0
-13833 -14828 0
9220 13833 14828 0
-14141 -14901 0
-14141 -14902 0
-14901 -14902 0
14141 14901 14902 0
-14383 -14903 0
-14383 -14904 0
-14903 -14904 0
14383 14903 14904 0
-10320 -10583 0
-10320 -10956 0
-10583 -10956 0
10320 10583 10956 0
-9825 -13586 0
-9825 -14905 0
-13586 -14905 0
9825 13586 14905 0
-3826 -4322 0
-3826 -13556 0
-4322 -13556 0
3826 4322 13556 0
-3565 -6293 0
-3565 -9050 0
-6293 -9050 0
3565 6293 9050 0
-3465 -7605 0
-3465 -14906 0
-7605 -14906 0
3465 7605 14906 0
-4605 -9888 0
-4605 -14907 0
-9888 -14907 0
4605 9888 14907 0
-7403 -10873 0
-7403 -13355 0
-10873 -13355 0
7403 10873 13355 0
-10268 -12455 0
-10268 -14908 0
-12455 -14908 0
10268 12455 14908 0
-404 -9484 0
-404 -14282 0
-9484 -14282 0
404 9484 14282 0
-5189 -12619 0
-5189 -14323 0
-12619 -14323 0
5189 12619 14323 0
-2202 -13996 0
-2202 -14874 0
-13996 -14874 0
2202 13996 14874 0
-633 -7409 0
-633 -14578 0
-7409 -14578 0
633 7409 14578 0
-6115 -11547 0
-6115 -14306 0
-11547 -14306 0
6115 11547 14306 0
-8581 -14580 0
-8581 -14908 0
-14580 -14908 0
8581 14580 14908 0
-6710 -14534 0
-6710 -14909 0
-14534 -14909 0
6710 14534 14909 0
-731 -4706 0
-731 -14910 0
-4706 -14910 0
731 4706 14910 0
-4131 -13371 0
-4131 -14911 0
-13371 -14911 0
4131 13371 14911 0
-9743 -10724 0
-9743 -12424 0
-10724 -12424 0
9743 10724 12424 0
-8114 -13368 0
-8114 -14912 0
-13368 -14912 0
8114 13368 14912 0
-8744 -9823 0
-8744 -11193 0
-9823 -11193 0
8744 9823 11193 0
-12389 -14821 0
-12389 -14913 0
-14821 -14913 0
12389 14821 14913 0
-9853 -12712 0
-9853 -14914 0
-12712 -14914 0
9853 12712 14914 0
-11763 -11823 0
-11763 -14858 0
-11823 -14858 0
11763 11823 14858 0
-3949 -14416 0
-3949 -14915 0
-14416 -14915 0
3949 14416 14915 0
-217 -4226 0
-217 -8191 0
-4226 -8191 0
217 4226 8191 0
-6608 -7948 0
-6608 -14862 0
-7948 -14862 0
6608 7948 14862 0
-2290 -12466 0
-2290 -14617 0
-12466 -14617 0
2290 12466 14617 0
-6463 -7512 0
-6463 -11892 0
-7512 -11892 0
6463 7512 11892 0
-711 -7914 0
-711 -13857 0
-7914 -13857 0
711 7914 13857 0
-3898 -5339 0
-3898 -13524 0
-5339 -13524 0
3898 5339 13524 0
-44 -14425 0
-44 -14916 0
-14425 -14916 0
44 14425 14916 0
-6057 -11191 0
-6057 -13052 0
-11191 -13052 0
6057 11191 13052 0
-1685 -4797 0
-1685 -14854 0
-4797 -14854 0
1685 4797 14854 0
-7481 -13276 0
-7481 -14370 0
-13276 -14370 0
7481 13276 14370 0
-7547 -7847 0
-7547 -13969 0
-7847 -13969 0
7547 7847 13969 0
-2407 -4427 0
-2407 -10354 0
-4427 -10354 0
2407 4427 10354 0
-3669 -8117 0
-3669 -14917 0
-8117 -14917 0
3669 8117 14917 0
-1620 -14234 0
-1620 -14524 0
-14234 -14524 0
1620 14234 14524 0
-1868 -13624 0
-1868 -14918 0
-13624 -14918 0
1868 13624 14918 0
-2693 -11862 0
-2693 -13528 0
-11862 -13528 0
2693 11862 13528 0
-4625 -10562 0
-4625 -11940 0
-10562 -11940 0
4625 10562 11940 0
-6425 -7344 0
-6425 -14919 0
-7344 -14919 0
6425 7344 14919 0
-7816 -14180 0
-7816 -14920 0
-14180 -14920 0
7816 14180 14920 0
-7053 -10448 0
-7053 -14921 0
-10448 -14921 0
7053 10448 14921 0
-692 -13942 0
-692 -14922 0
-13942 -14922 0
692 13942 14922 0
-1114 -3757 0
-1114 -14506 0
-3757 -14506 0
1114 3757 14506 0
-8825 -12770 0
-8825 -13622 0
-12770 -13622 0
8825 12770 13622 0
-1790 -11996 0
-1790 -14124 0
-11996 -14124 0
1790 11996 14124 0
-6166 -9636 0
-6166 -11439 0
-9636 -11439 0
6166 9636 11439 0
-10262 -11508 0
-10262 -13427 0
-11508 -13427 0
10262 11508 13427 0
-13476 -14923 0
-13476 -14924 0
-14923 -14924 0
13476 14923 14924 0
-12058 -14714 0
-12058 -14925 0
-14714 -14925 0
12058 14714 14925 0
-4264 -13999 0
-4264 -14194 0
-13999 -14194 0
4264 13999 14194 0
-8790 -11135 0
-8790 -14926 0
-11135 -14926 0
8790 11135 14926 0
-129 -11124 0
-129 -13888 0
-11124 -13888 0
129 11124 13888 0
-6441 -9004 0
-6441 -12258 0
-9004 -12258 0
6441 9004 12258 0
-1604 -11257 0
-1604 -14833 0
-11257 -14833 0
1604 11257 14833 0
-5807 -6790 0
-5807 -10869 0
-6790 -10869 0
5807 6790 10869 0
-6013 -12578 0
-6013 -14841 0
-12578 -14841 0
6013 12578 14841 0
-6744 -11945 0
-6744 -14927 0
-11945 -14927 0
6744 11945 14927 0
-2371 -14623 0
-2371 -14928 0
-14623 -14928 0
2371 14623 14928 0
-3771 -4657 0
-3771 -13509 0
-4657 -13509 0
3771 4657 13509 0
-2589 -12380 0
-2589 -14929 0
-12380 -14929 0
2589 12380 14929 0
-8794 -13630 0
-8794 -14152 0
-13630 -14152 0
8794 13630 14152 0
-3762 -9433 0
-3762 -14930 0
-9433 -14930 0
3762 9433 14930 0
-7977 -9783 0
-7977 -14452 0
-9783 -14452 0
7977 9783 14452 0
-12277 -13047 0
-12277 -14931 0
-13047 -14931 0
12277 13047 14931 0
-1927 -2547 0
-1927 -6410 0
-2547 -6410 0
1927 2547 6410 0
-3912 -9316 0
-3912 -13168 0
-9316 -13168 0
3912 9316 13168 0
-2208 -10316 0
-2208 -14932 0
-10316 -14932 0
2208 10316 14932 0
-4981 -7080 0
-4981 -13197 0
-7080 -13197 0
4981 7080 13197 0
-4099 -5196 0
-4099 -10490 0
-5196 -10490 0
4099 5196 10490 0
-156 -14811 0
-156 -14933 0
-14811 -14933 0
156 14811 14933 0
-13187 -14138 0
-13187 -14753 0
-14138 -14753 0
13187 14138 14753 0
-8611 -10303 0
-8611 -14687 0
-10303 -14687 0
8611 10303 14687 0
-11715 -13063 0
-11715 -13737 0
-13063 -13737 0
11715 13063 13737 0
-6499 -6916 0
-6499 -14934 0
-6916 -14934 0
6499 6916 14934 0
-8177 -9481 0
-8177 -14935 0
-9481 -14935 0
8177 9481 14935 0
-2975 -6337 0
-2975 -11381 0
-6337 -11381 0
2975 6337 11381 0
-12703 -13974 0
-12703 -14822 0
-13974 -14822 0
12703 13974 14822 0
-3197 -9831 0
-3197 -11005 0
-9831 -11005 0
3197 9831 11005 0
-7982 -8060 0
-7982 -14664 0
-8060 -14664 0
7982 8060 14664 0
-4885 -8242 0
-4885 -14936 0
-8242 -14936 0
4885 8242 14936 0
-9629 -11141 0
-9629 -12716 0
-11141 -12716 0
9629 11141 12716 0
-1336 -10333 0
-1336 -14937 0
-10333 -14937 0
1336 10333 14937 0
-1040 -4607 0
-1040 -13581 0
-4607 -13581 0
1040 4607 13581 0
-11157 -13527 0
-11157 -14917 0
-13527 -14917 0
11157 13527 14917 0
-1808 -8960 0
-1808 -14938 0
-8960 -14938 0
1808 8960 14938 0
-18 -75 0
-18 -8102 0
-75 -8102 0
18 75 8102 0
-10476 -12549 0
-10476 -14689 0
-12549 -14689 0
10476 12549 14689 0
-4130 -6698 0
-4130 -14556 0
-6698 -14556 0
4130 6698 14556 0
-10546 -14813 0
-10546 -14939 0
-14813 -14939 0
10546 14813 14939 0
-3023 -14522 0
-3023 -14940 0
-14522 -14940 0
3023 14522 14940 0
-6690 -7364 0
-6690 -11186 0
-7364 -11186 0
6690 7364 11186 0
-1229 -11422 0
-1229 -14508 0
-11422 -14508 0
1229 11422 14508 0
-4577 -6412 0
-4577 -14450 0
-6412 -14450 0
4577 6412 14450 0
-218 -14384 0
-218 -14941 0
-14384 -14941 0
218 14384 14941 0
-1076 -6182 0
-1076 -6212 0
-6182 -6212 0
1076 6182 6212 0
-2920 -14791 0
-2920 -14885 0
-14791 -14885 0
2920 14791 14885 0
-13263 -14367 0
-13263 -14942 0
-14367 -14942 0
13263 14367 14942 0
-7348 -10937 0
-7348 -14943 0
-10937 -14943 0
7348 10937 14943 0
-11261 -11496 0
-11261 -11750 0
-11496 -11750 0
11261 11496 11750 0
-4708 -11577 0
-4708 -14944 0
-11577 -14944 0
4708 11577 14944 0
-10273 -13132 0
-10273 -14945 0
-13132 -14945 0
10273 13132 14945 0
-2240 -5596 0
-2240 -9784 0
-5596 -9784 0
2240 5596 9784 0
-12136 -13615 0
-12136 -14946 0
-13615 -14946 0
12136 13615 14946 0
-7273 -10810 0
-7273 -14947 0
-10810 -14947 0
7273 10810 14947 0
-4616 -8079 0
-4616 -12743 0
-8079 -12743 0
4616 8079 12743 0
-6651 -6898 0
-6651 -8369 0
-6898 -8369 0
6651 6898 8369 0
-5653 -6776 0
-5653 -14948 0
-6776 -14948 0
5653 6776 14948 0
-9820 -9970 0
-9820 -10257 0
-9970 -10257 0
9820 9970 10257 0
-2391 -6426 0
-2391 -12909 0
-6426 -12909 0
2391 6426 12909 0
-6075 -9889 0
-6075 -13124 0
-9889 -13124 0
6075 9889 13124 0
-2465 -10850 0
-2465 -13892 0
-10850 -13892 0
2465 10850 13892 0
-12500 -14835 0
-12500 -14949 0
-14835 -14949 0
12500 14835 14949 0
-5830 -12432 0
-5830 -14950 0
-12432 -14950 0
5830 12432 14950 0
-5514 -12408 0
-5514 -14540 0
-12408 -14540 0
5514 12408 14540 0
-3704 -5300 0
-3704 -14951 0
-5300 -14951 0
3704 5300 14951 0
-2824 -4040 0
-2824 -14349 0
-4040 -14349 0
2824 4040 14349 0
-1660 -4525 0
-1660 -14952 0
-4525 -14952 0
1660 4525 14952 0
-589 -746 0
-589 -12760 0
-746 -12760 0
589 746 12760 0
-12737 -14574 0
-12737 -14661 0
-14574 -14661 0
12737 14574 14661 0
-1693 -14798 0
-1693 -14953 0
-14798 -14953 0
1693 14798 14953 0
-14182 -14934 0
-14182 -14954 0
-14934 -14954 0
14182 14934 14954 0
-2428 -8265 0
-2428 -8449 0
-8265 -8449 0
2428 8265 8449 0
-1182 -4644 0
-1182 -11727 0
-4644 -11727 0
1182 4644 11727 0
-7249 -9483 0
-7249 -14955 0
-9483 -14955 0
7249 9483 14955 0
-1363 -4968 0
-1363 -12592 0
-4968 -12592 0
1363 4968 12592 0
-493 -10074 0
-493 -14956 0
-10074 -14956 0
493 10074 14956 0
-999 -7203 0
-999 -8636 0
-7203 -8636 0
999 7203 8636 0
-8684 -14838 0
-8684 -14957 0
-14838 -14957 0
8684 14838 14957 0
-14927 -14958 0
-14927 -14959 0
-14958 -14959 0
14927 14958 14959 0
-3049 -11835 0
-3049 -14960 0
-11835 -14960 0
3049 11835 14960 0
-4140 -14847 0
-4140 -14961 0
-14847 -14961 0
4140 14847 14961 0
-9681 -12696 0
-9681 -14962 0
-12696 -14962 0
9681 12696 14962 0
-4709 -10195 0
-4709 -11661 0
-10195 -11661 0
4709 10195 11661 0
-11198 -12264 0
-11198 -14438 0
-12264 -14438 0
11198 12264 14438 0
-1557 -14229 0
-1557 -14963 0
-14229 -14963 0
1557 14229 14963 0
-4233 -14793 0
-4233 -14964 0
-14793 -14964 0
4233 14793 14964 0
-9439 -11448 0
-9439 -13306 0
-11448 -13306 0
9439 11448 13306 0
-66 -4195 0
-66 -7355 0
-4195 -7355 0
66 4195 7355 0
-1393 -6060 0
-1393 -13330 0
-6060 -13330 0
1393 6060 13330 0
-12685 -14965 0
-12685 -14966 0
-14965 -14966 0
12685 14965 14966 0
-14844 -14967 0
-14844 -14968 0
-14967 -14968 0
14844 14967 14968 0
-4001 -13067 0
-4001 -13451 0
-13067 -13451 0
4001 13067 13451 0
-4531 -11551 0
-4531 -14114 0
-11551 -14114 0
4531 11551 14114 0
-6118 -12294 0
-6118 -14969 0
-12294 -14969 0
6118 12294 14969 0
-8676 -11803 0
-8676 -14970 0
-11803 -14970 0
8676 11803 14970 0
-1959 -6238 0
-1959 -12982 0
-6238 -12982 0
1959 6238 12982 0
-14971 -14972 0
-14971 -14973 0
-14972 -14973 0
14971 14972 14973 0
-7746 -11920 0
-7746 -14189 0
-11920 -14189 0
7746 11920 14189 0
-1103 -9393 0
-1103 -11573 0
-9393 -11573 0
1103 9393 11573 0
-10299 -11063 0
-10299 -11651 0
-11063 -11651 0
10299 11063 11651 0
-3239 -12122 0
-3239 -14974 0
-12122 -14974 0
3239 12122 14974 0
-6299 -6684 0
-6299 -14975 0
-6684 -14975 0
6299 6684 14975 0
-8204 -12507 0
-8204 -14976 0
-12507 -14976 0
8204 12507 14976 0
-3727 -12914 0
-3727 -14977 0
-12914 -14977 0
3727 12914 14977 0
-2639 -3846 0
-2639 -14978 0
-3846 -14978 0
2639 3846 14978 0
-552 -1738 0
-552 -2564 0
-1738 -2564 0
552 1738 2564 0
-5215 -14939 0
-5215 -14979 0
-14939 -14979 0
5215 14939 14979 0
-3420 -4860 0
-3420 -13110 0
-4860 -13110 0
3420 4860 13110 0
-4617 -5939 0
-4617 -10556 0
-5939 -10556 0
4617 5939 10556 0
-7383 -9899 0
-7383 -14499 0
-9899 -14499 0
7383 9899 14499 0
-4363 -11187 0
-4363 -14980 0
-11187 -14980 0
4363 11187 14980 0
-329 -13530 0
-329 -14943 0
-13530 -14943 0
329 13530 14943 0
-604 -6382 0
-604 -10543 0
-6382 -10543 0
604 6382 10543 0
-492 -7988 0
-492 -13724 0
-7988 -13724 0
492 7988 13724 0
-8616 -10538 0
-8616 -14981 0
-10538 -14981 0
8616 10538 14981 0
-3142 -13396 0
-3142 -14638 0
-13396 -14638 0
3142 13396 14638 0
-1053 -2128 0
-1053 -9176 0
-2128 -9176 0
1053 2128 9176 0
-6755 -9733 0
-6755 -14866 0
-9733 -14866 0
6755 9733 14866 0
-9232 -12382 0
-9232 -14982 0
-12382 -14982 0
9232 12382 14982 0
-5609 -7441 0
-5609 -14527 0
-7441 -14527 0
5609 7441 14527 0
-8830 -11943 0
-8830 -14720 0
-11943 -14720 0
8830 11943 14720 0
-3206 -11576 0
-3206 -14283 0
-11576 -14283 0
3206 11576 14283 0
-9302 -9876 0
-9302 -10235 0
-9876 -10235 0
9302 9876 10235 0
-6226 -7416 0
-6226 -12076 0
-7416 -12076 0
6226 7416 12076 0
-4550 -11570 0
-4550 -13644 0
-11570 -13644 0
4550 11570 13644 0
-7616 -13376 0
-7616 -14983 0
-13376 -14983 0
7616 13376 14983 0
-5166 -11236 0
-5166 -13896 0
-11236 -13896 0
5166 11236 13896 0
-4360 -12765 0
-4360 -14984 0
-12765 -14984 0
4360 12765 14984 0
-12553 -12812 0
-12553 -14985 0
-12812 -14985 0
12553 12812 14985 0
-3360 -14328 0
-3360 -14986 0
-14328 -14986 0
3360 14328 14986 0
-5316 -14375 0
-5316 -14987 0
-14375 -14987 0
5316 14375 14987 0
-10953 -12915 0
-10953 -14988 0
-12915 -14988 0
10953 12915 14988 0
-439 -8442 0
-439 -9417 0
-8442 -9417 0
439 8442 9417 0
-1456 -9130 0
-1456 -13789 0
-9130 -13789 0
1456 9130 13789 0
-2952 -12912 0
-2952 -14989 0
-12912 -14989 0
2952 12912 14989 0
-2259 -13592 0
-2259 -13887 0
-13592 -13887 0
2259 13592 13887 0
-7661 -7739 0
-7661 -8006 0
-7739 -8006 0
7661 7739 8006 0
-11564 -14971 0
-11564 -14990 0
-14971 -14990 0
11564 14971 14990 0
-11502 -12645 0
-11502 -14991 0
-12645 -14991 0
11502 12645 14991 0
-920 -1183 0
-920 -1192 0
-1183 -1192 0
920 1183 1192 0
-9189 -13138 0
-9189 -14680 0
-13138 -14680 0
9189 13138 14680 0
-9195 -13485 0
-9195 -14641 0
-13485 -14641 0
9195 13485 14641 0
-4468 -9337 0
-4468 -14992 0
-9337 -14992 0
4468 9337 14992 0
-4004 -4114 0
-4004 -11578 0
-4114 -11578 0
4004 4114 11578 0
-11494 -12496 0
-11494 -12766 0
-12496 -12766 0
11494 12496 12766 0
-9707 -14361 0
-9707 -14431 0
-14361 -14431 0
9707 14361 14431 0
-13050 -14756 0
-13050 -14993 0
-14756 -14993 0
13050 14756 14993 0
-9884 -14550 0
-9884 -14781 0
-14550 -14781 0
9884 14550 14781 0
-2690 -9959 0
-2690 -11197 0
-9959 -11197 0
2690 9959 11197 0
-4926 -9263 0
-4926 -12616 0
-9263 -12616 0
4926 9263 12616 0
-6508 -12836 0
-6508 -14994 0
-12836 -14994 0
6508 12836 14994 0
-4170 -8198 0
-4170 -9724 0
-8198 -9724 0
4170 8198 9724 0
-6034 -9138 0
-6034 -9183 0
-9138 -9183 0
6034 9138 9183 0
-4354 -6893 0
-4354 -11668 0
-6893 -11668 0
4354 6893 11668 0
-1612 -8454 0
-1612 -12921 0
-8454 -12921 0
1612 8454 12921 0
-3503 -10631 0
-3503 -12003 0
-10631 -12003 0
3503 10631 12003 0
-7842 -13541 0
-7842 -14163 0
-13541 -14163 0
7842 13541 14163 0
-12073 -12957 0
-12073 -13990 0
-12957 -13990 0
12073 12957 13990 0
-891 -4057 0
-891 -13099 0
-4057 -13099 0
891 4057 13099 0
-642 -13325 0
-642 -14967 0
-13325 -14967 0
642 13325 14967 0
-1043 -1947 0
-1043 -14995 0
-1947 -14995 0
1043 1947 14995 0
-10245 -13380 0
-10245 -14996 0
-13380 -14996 0
10245 13380 14996 0
-4551 -13160 0
-4551 -14997 0
-13160 -14997 0
4551 13160 14997 0
-630 -9217 0
-630 -11434 0
-9217 -11434 0
630 9217 11434 0
-4735 -5228 0
-4735 -14326 0
-5228 -14326 0
4735 5228 14326 0
-5721 -13707 0
-5721 -14248 0
-13707 -14248 0
5721 13707 14248 0
-10676 -13627 0
-10676 -13682 0
-13627 -13682 0
10676 13627 13682 0
-344 -8832 0
-344 -13382 0
-8832 -13382 0
344 8832 13382 0
-5739 -8395 0
-5739 -9864 0
-8395 -9864 0
5739 8395 9864 0
-2989 -9455 0
-2989 -14998 0
-9455 -14998 0
2989 9455 14998 0
-5361 -10829 0
-5361 -14999 0
-10829 -14999 0
5361 10829 14999 0
-7736 -13024 0
-7736 -14997 0
-13024 -14997 0
7736 13024 14997 0
-13618 -13982 0
-13618 -14642 0
-13982 -14642 0
13618 13982 14642 0
-4554 -9570 0
-4554 -10187 0
-9570 -10187 0
4554 9570 10187 0
-2055 -8654 0
-2055 -14519 0
-8654 -14519 0
2055 8654 14519 0
-13184 -14962 0
-13184 -15000 0
-14962 -15000 0
13184 14962 15000 0
-9208 -12072 0
-9208 -14485 0
-12072 -14485 0
9208 12072 14485 0
-3838 -7107 0
-3838 -14537 0
-7107 -14537 0
3838 7107 14537 0
-12080 -14533 0
-12080 -15001 0
-14533 -15001 0
12080 14533 15001 0
-1057 -11905 0
-1057 -13917 0
-11905 -13917 0
1057 11905 13917 0
-1971 -2958 0
-1971 -9543 0
-2958 -9543 0
1971 2958 9543 0
-2334 -3555 0
-2334 -6139 0
-3555 -6139 0
2334 3555 6139 0
-4013 -4408 0
-4013 -15002 0
-4408 -15002 0
4013 4408 15002 0
-8333 -8740 0
-8333 -15003 0
-8740 -15003 0
8333 8740 15003 0
-2883 -9983 0
-2883 -14102 0
-9983 -14102 0
2883 9983 14102 0
-2450 -13198 0
-2450 -14509 0
-13198 -14509 0
2450 13198 14509 0
-9664 -13333 0
-9664 -15004 0
-13333 -15004 0
9664 13333 15004 0
-459 -3935 0
-459 -13102 0
-3935 -13102 0
459 3935 13102 0
-1078 -4156 0
-1078 -15005 0
-4156 -15005 0
1078 4156 15005 0
-894 -13254 0
-894 -15006 0
-13254 -15006 0
894 13254 15006 0
-5117 -14195 0
-5117 -14875 0
-14195 -14875 0
5117 14195 14875 0
-440 -553 0
-440 -15007 0
-553 -15007 0
440 553 15007 0
-1210 -8802 0
-1210 -12972 0
-8802 -12972 0
1210 8802 12972 0
-4637 -7183 0
-4637 -15008 0
-7183 -15008 0
4637 7183 15008 0
-8414 -10698 0
-8414 -12088 0
-10698 -12088 0
8414 10698 12088 0
-949 -7391 0
-949 -11985 0
-7391 -11985 0
949 7391 11985 0
-14129 -15009 0
-14129 -15010 0
-15009 -15010 0
14129 15009 15010 0
-13611 -14086 0
-13611 -15011 0
-14086 -15011 0
13611 14086 15011 0
-5861 -13023 0
-5861 -15012 0
-13023 -15012 0
5861 13023 15012 0
-6972 -11974 0
-6972 -12918 0
-11974 -12918 0
6972 11974 12918 0
-5002 -6379 0
-5002 -13458 0
-6379 -13458 0
5002 6379 13458 0
-4237 -14474 0
-4237 -15013 0
-14474 -15013 0
4237 14474 15013 0
-1296 -13894 0
-1296 -14947 0
-13894 -14947 0
1296 13894 14947 0
-7056 -8293 0
-7056 -14965 0
-8293 -14965 0
7056 8293 14965 0
-7839 -11077 0
-7839 -13661 0
-11077 -13661 0
7839 11077 13661 0
-10112 -11911 0
-10112 -15014 0
-11911 -15014 0
10112 11911 15014 0
-9428 -14987 0
-9428 -15015 0
-14987 -15015 0
9428 14987 15015 0
-1174 -13930 0
-1174 -15016 0
-13930 -15016 0
1174 13930 15016 0
-3276 -7361 0
-3276 -13545 0
-7361 -13545 0
3276 7361 13545 0
-1654 -7536 0
-1654 -15017 0
-7536 -15017 0
1654 7536 15017 0
-364 -5591 0
-364 -9230 0
-5591 -9230 0
364 5591 9230 0
-3172 -14465 0
-3172 -15018 0
-14465 -15018 0
3172 14465 15018 0
-2501 -5244 0
-2501 -14616 0
-5244 -14616 0
2501 5244 14616 0
-1504 -4761 0
-1504 -12927 0
-4761 -12927 0
1504 4761 12927 0
-11002 -11914 0
-11002 -15006 0
-11914 -15006 0
11002 11914 15006 0
-4628 -4834 0
-4628 -8864 0
-4834 -8864 0
4628 4834 8864 0
-8729 -9032 0
-8729 -14145 0
-9032 -14145 0
8729 9032 14145 0
-10465 -15019 0
-10465 -15020 0
-15019 -15020 0
10465 15019 15020 0
-494 -6511 0
-494 -14683 0
-6511 -14683 0
494 6511 14683 0
-3436 -6659 0
-3436 -6835 0
-6659 -6835 0
3436 6659 6835 0
-11282 -13635 0
-11282 -13836 0
-13635 -13836 0
11282 13635 13836 0
-4351 -13576 0
-4351 -15021 0
-13576 -15021 0
4351 13576 15021 0
-1180 -7926 0
-1180 -12355 0
-7926 -12355 0
1180 7926 12355 0
-13784 -14693 0
-13784 -15022 0
-14693 -15022 0
13784 14693 15022 0
-11908 -12559 0
-11908 -12994 0
-12559 -12994 0
11908 12559 12994 0
-4987 -5945 0
-4987 -14290 0
-5945 -14290 0
4987 5945 14290 0
-7333 -15023 0
-7333 -15024 0
-15023 -15024 0
7333 15023 15024 0
-6741 -12612 0
-6741 -14439 0
-12612 -14439 0
6741 12612 14439 0
-5597 -8334 0
-5597 -15025 0
-8334 -15025 0
5597 8334 15025 0
-215 -5229 0
-215 -11215 0
-5229 -11215 0
215 5229 11215 0
-7310 -14260 0
-7310 -15004 0
-14260 -15004 0
7310 14260 15004 0
-5259 -13952 0
-5259 -14843 0
-13952 -14843 0
5259 13952 14843 0
-6035 -11871 0
-6035 -13639 0
-11871 -13639 0
6035 11871 13639 0
-8146 -14356 0
-8146 -14684 0
-14356 -14684 0
8146 14356 14684 0
-4301 -10068 0
-4301 -13059 0
-10068 -13059 0
4301 10068 13059 0
-1822 -13076 0
-1822 -15026 0
-13076 -15026 0
1822 13076 15026 0
-708 -11034 0
-708 -12255 0
-11034 -12255 0
708 11034 12255 0
-14364 -14735 0
-14364 -15027 0
-14735 -15027 0
14364 14735 15027 0
-14834 -14920 0
-14834 -14954 0
-14920 -14954 0
14834 14920 14954 0
-14706 -15028 0
-14706 -15029 0
-15028 -15029 0
14706 15028 15029 0
-5208 -11253 0
-5208 -13317 0
-11253 -13317 0
5208 11253 13317 0
-3595 -9727 0
-3595 -15030 0
-9727 -15030 0
3595 9727 15030 0
-11506 -13821 0
-11506 -15031 0
-13821 -15031 0
11506 13821 15031 0
-10156 -11482 0
-10156 -14046 0
-11482 -14046 0
10156 11482 14046 0
-10191 -12748 0
-10191 -14312 0
-12748 -14312 0
10191 12748 14312 0
-12096 -13947 0
-12096 -15032 0
-13947 -15032 0
12096 13947 15032 0
-6549 -12365 0
-6549 -13224 0
-12365 -13224 0
6549 12365 13224 0
-3715 -7611 0
-3715 -14856 0
-7611 -14856 0
3715 7611 14856 0
-356 -1784 0
-356 -14353 0
-1784 -14353 0
356 1784 14353 0
-409 -12032 0
-409 -14651 0
-12032 -14651 0
409 12032 14651 0
-5934 -11801 0
-5934 -15033 0
-11801 -15033 0
5934 11801 15033 0
-13231 -14977 0
-13231 -15023 0
-14977 -15023 0
13231 14977 15023 0
-11716 -11741 0
-11716 -12809 0
-11741 -12809 0
11716 11741 12809 0
-3820 -10803 0
-3820 -11346 0
-10803 -11346 0
3820 10803 11346 0
-889 -8349 0
-889 -9376 0
-8349 -9376 0
889 8349 9376 0
-548 -6615 0
-548 -13177 0
-6615 -13177 0
548 6615 13177 0
-11021 -13060 0
-11021 -14717 0
-13060 -14717 0
11021 13060 14717 0
-9606 -15028 0
-9606 -15034 0
-15028 -15034 0
9606 15028 15034 0
-1399 -8582 0
-1399 -15035 0
-8582 -15035 0
1399 8582 15035 0
-8585 -9284 0
-8585 -9625 0
-9284 -9625 0
8585 9284 9625 0
-2977 -13966 0
-2977 -14190 0
-13966 -14190 0
2977 13966 14190 0
-2916 -6553 0
-2916 -14968 0
-6553 -14968 0
2916 6553 14968 0
-132 -11088 0
-132 -13248 0
-11088 -13248 0
132 11088 13248 0
-2531 -8651 0
-2531 -10452 0
-8651 -10452 0
2531 8651 10452 0
-8717 -11349 0
-8717 -15036 0
-11349 -15036 0
8717 11349 15036 0
-1763 -11898 0
-1763 -14824 0
-11898 -14824 0
1763 11898 14824 0
-5479 -9457 0
-5479 -10046 0
-9457 -10046 0
5479 9457 10046 0
-12865 -14868 0
-12865 -15037 0
-14868 -15037 0
12865 14868 15037 0
-5240 -12773 0
-5240 -15038 0
-12773 -15038 0
5240 12773 15038 0
-9562 -10868 0
-9562 -15039 0
-10868 -15039 0
9562 10868 15039 0
-8649 -12118 0
-8649 -14358 0
-12118 -14358 0
8649 12118 14358 0
-436 -7500 0
-436 -11620 0
-7500 -11620 0
436 7500 11620 0
-12690 -15040 0
-12690 -15041 0
-15040 -15041 0
12690 15040 15041 0
-4789 -6435 0
-4789 -15037 0
-6435 -15037 0
4789 6435 15037 0
-898 -7537 0
-898 -13678 0
-7537 -13678 0
898 7537 13678 0
-13130 -14960 0
-13130 -15042 0
-14960 -15042 0
13130 14960 15042 0
-9325 -11671 0
-9325 -14836 0
-11671 -14836 0
9325 11671 14836 0
-3986 -6051 0
-3986 -9366 0
-6051 -9366 0
3986 6051 9366 0
-592 -11009 0
-592 -13991 0
-11009 -13991 0
592 11009 13991 0
-8875 -10395 0
-8875 -13029 0
-10395 -13029 0
8875 10395 13029 0
-3421 -7180 0
-3421 -14892 0
-7180 -14892 0
3421 7180 14892 0
-4697 -5684 0
-4697 -7329 0
-5684 -7329 0
4697 5684 7329 0
-10802 -13278 0
-10802 -15043 0
-13278 -15043 0
10802 13278 15043 0
-13666 -14727 0
-13666 -15044 0
-14727 -15044 0
13666 14727 15044 0
-5391 -12356 0
-5391 -14297 0
-12356 -14297 0
5391 12356 14297 0
-9576 -15045 0
-9576 -15046 0
-15045 -15046 0
9576 15045 15046 0
-2867 -14040 0
-2867 -15047 0
-14040 -15047 0
2867 14040 15047 0
-14004 -14291 0
-14004 -15048 0
-14291 -15048 0
14004 14291 15048 0
-9512 -12314 0
-9512 -15049 0
-12314 -15049 0
9512 12314 15049 0
-8106 -9405 0
-8106 -12517 0
-9405 -12517 0
8106 9405 12517 0
-14187 -14300 0
-14187 -15050 0
-14300 -15050 0
14187 14300 15050 0
-10144 -14032 0
-10144 -14579 0
-14032 -14579 0
10144 14032 14579 0
-7384 -12837 0
-7384 -12985 0
-12837 -12985 0
7384 12837 12985 0
-4276 -6039 0
-4276 -14554 0
-6039 -14554 0
4276 6039 14554 0
-11436 -14329 0
-11436 -14737 0
-14329 -14737 0
11436 14329 14737 0
-12689 -13318 0
-12689 -14850 0
-13318 -14850 0
12689 13318 14850 0
-3987 -4438 0
-3987 -11899 0
-4438 -11899 0
3987 4438 11899 0
-144 -5111 0
-144 -14440 0
-5111 -14440 0
144 5111 14440 0
-6300 -10136 0
-6300 -12139 0
-10136 -12139 0
6300 10136 12139 0
-3786 -4537 0
-3786 -5717 0
-4537 -5717 0
3786 4537 5717 0
-2211 -9238 0
-2211 -13901 0
-9238 -13901 0
2211 9238 13901 0
-3012 -15002 0
-3012 -15018 0
-15002 -15018 0
3012 15002 15018 0
-5827 -13866 0
-5827 -14309 0
-13866 -14309 0
5827 13866 14309 0
-84 -4287 0
-84 -10295 0
-4287 -10295 0
84 4287 10295 0
-2293 -12159 0
-2293 -13025 0
-12159 -13025 0
2293 12159 13025 0
-10217 -12608 0
-10217 -15051 0
-12608 -15051 0
10217 12608 15051 0
-11060 -13115 0
-11060 -14986 0
-13115 -14986 0
11060 13115 14986 0
-1536 -10705 0
-1536 -10917 0
-10705 -10917 0
1536 10705 10917 0
-6101 -9218 0
-6101 -10342 0
-9218 -10342 0
6101 9218 10342 0
-6846 -11262 0
-6846 -11627 0
-11262 -11627 0
6846 11262 11627 0
-13268 -14228 0
-13268 -15052 0
-14228 -15052 0
13268 14228 15052 0
-72 -13313 0
-72 -13405 0
-13313 -13405 0
72 13313 13405 0
-3471 -13551 0
-3471 -14802 0
-13551 -14802 0
3471 13551 14802 0
-8514 -9645 0
-8514 -12025 0
-9645 -12025 0
8514 9645 12025 0
-6956 -11641 0
-6956 -11787 0
-11641 -11787 0
6956 11641 11787 0
-914 -9114 0
-914 -10209 0
-9114 -10209 0
914 9114 10209 0
-2349 -4279 0
-2349 -7834 0
-4279 -7834 0
2349 4279 7834 0
-8408 -13967 0
-8408 -14419 0
-13967 -14419 0
8408 13967 14419 0
-7752 -13074 0
-7752 -14750 0
-13074 -14750 0
7752 13074 14750 0
-7985 -14789 0
-7985 -15053 0
-14789 -15053 0
7985 14789 15053 0
-686 -11612 0
-686 -14368 0
-11612 -14368 0
686 11612 14368 0
-10643 -13434 0
-10643 -13708 0
-13434 -13708 0
10643 13434 13708 0
-7721 -14453 0
-7721 -15054 0
-14453 -15054 0
7721 14453 15054 0
-12688 -13506 0
-12688 -15055 0
-13506 -15055 0
12688 13506 15055 0
-8233 -9231 0
-8233 -13893 0
-9231 -13893 0
8233 9231 13893 0
-12373 -12582 0
-12373 -13479 0
-12582 -13479 0
12373 12582 13479 0
-6405 -15056 0
-6405 -15057 0
-15056 -15057 0
6405 15056 15057 0
-1668 -10406 0
-1668 -13979 0
-10406 -13979 0
1668 10406 13979 0
-8332 -10818 0
-8332 -12920 0
-10818 -12920 0
8332 10818 12920 0
-10835 -12232 0
-10835 -15058 0
-12232 -15058 0
10835 12232 15058 0
-9908 -13743 0
-9908 -14812 0
-13743 -14812 0
9908 13743 14812 0
-11696 -13180 0
-11696 -15059 0
-13180 -15059 0
11696 13180 15059 0
-5492 -11852 0
-5492 -12446 0
-11852 -12446 0
5492 11852 12446 0
-3127 -15060 0
-3127 -15061 0
-15060 -15061 0
3127 15060 15061 0
-14010 -14342 0
-14010 -14400 0
-14342 -14400 0
14010 14342 14400 0
-8180 -8405 0
-8180 -15062 0
-8405 -15062 0
8180 8405 15062 0
-8300 -12000 0
-8300 -13570 0
-12000 -13570 0
8300 12000 13570 0
-12925 -14121 0
-12925 -15063 0
-14121 -15063 0
12925 14121 15063 0
-10751 -12940 0
-10751 -15064 0
-12940 -15064 0
10751 12940 15064 0
-4074 -6177 0
-4074 -15065 0
-6177 -15065 0
4074 6177 15065 0
-10085 -10206 0
-10085 -15066 0
-10206 -15066 0
10085 10206 15066 0
-2203 -6384 0
-2203 -9668 0
-6384 -9668 0
2203 6384 9668 0
-2088 -3736 0
-2088 -14696 0
-3736 -14696 0
2088 3736 14696 0
-6795 -9342 0
-6795 -10151 0
-9342 -10151 0
6795 9342 10151 0
-10279 -11555 0
-10279 -13229 0
-11555 -13229 0
10279 11555 13229 0
-7813 -15067 0
-7813 -15068 0
-15067 -15068 0
7813 15067 15068 0
-7084 -8269 0
-7084 -10659 0
-8269 -10659 0
7084 8269 10659 0
-6999 -7365 0
-6999 -12021 0
-7365 -12021 0
6999 7365 12021 0
-5611 -6856 0
-5611 -8503 0
-6856 -8503 0
5611 6856 8503 0
-2249 -7005 0
-2249 -13444 0
-7005 -13444 0
2249 7005 13444 0
-11139 -12383 0
-11139 -15016 0
-12383 -15016 0
11139 12383 15016 0
-7703 -14177 0
-7703 -14831 0
-14177 -14831 0
7703 14177 14831 0
-9465 -12127 0
-9465 -13133 0
-12127 -13133 0
9465 12127 13133 0
-6296 -7176 0
-6296 -12103 0
-7176 -12103 0
6296 7176 12103 0
-8805 -12847 0
-8805 -14666 0
-12847 -14666 0
8805 12847 14666 0
-8137 -9752 0
-8137 -12140 0
-9752 -12140 0
8137 9752 12140 0
-242 -952 0
-242 -12484 0
-952 -12484 0
242 952 12484 0
-433 -5769 0
-433 -13674 0
-5769 -13674 0
433 5769 13674 0
-2099 -11777 0
-2099 -14005 0
-11777 -14005 0
2099 11777 14005 0
-9619 -9879 0
-9619 -13834 0
-9879 -13834 0
9619 9879 13834 0
-7018 -14855 0
-7018 -14922 0
-14855 -14922 0
7018 14855 14922 0
-24 -3311 0
-24 -15069 0
-3311 -15069 0
24 3311 15069 0
-10773 -12735 0
-10773 -14105 0
-12735 -14105 0
10773 12735 14105 0
-305 -6983 0
-305 -15070 0
-6983 -15070 0
305 6983 15070 0
-1189 -8661 0
-1189 -11846 0
-8661 -11846 0
1189 8661 11846 0
-2557 -10478 0
-2557 -12704 0
-10478 -12704 0
2557 10478 12704 0
-2675 -7971 0
-2675 -12018 0
-7971 -12018 0
2675 7971 12018 0
-8932 -9639 0
-8932 -14517 0
-9639 -14517 0
8932 9639 14517 0
-7206 -9438 0
-7206 -15071 0
-9438 -15071 0
7206 9438 15071 0
-10436 -15072 0
-10436 -15073 0
-15072 -15073 0
10436 15072 15073 0
-3002 -3665 0
-3002 -14538 0
-3665 -14538 0
3002 3665 14538 0
-1085 -1701 0
-1085 -12191 0
-1701 -12191 0
1085 1701 12191 0
-7761 -12545 0
-7761 -14019 0
-12545 -14019 0
7761 12545 14019 0
-8742 -10652 0
-8742 -10771 0
-10652 -10771 0
8742 10652 10771 0
-5943 -9143 0
-5943 -14628 0
-9143 -14628 0
5943 9143 14628 0
-1764 -11101 0
-1764 -13032 0
-11101 -13032 0
1764 11101 13032 0
-1992 -3594 0
-1992 -13580 0
-3594 -13580 0
1992 3594 13580 0
-4886 -5599 0
-4886 -14907 0
-5599 -14907 0
4886 5599 14907 0
-2937 -10098 0
-2937 -14394 0
-10098 -14394 0
2937 10098 14394 0
-10271 -14056 0
-10271 -14126 0
-14056 -14126 0
10271 14056 14126 0
-11359 -11878 0
-11359 -12908 0
-11878 -12908 0
11359 11878 12908 0
-5529 -6191 0
-5529 -15074 0
-6191 -15074 0
5529 6191 15074 0
-13705 -14235 0
-13705 -15075 0
-14235 -15075 0
13705 14235 15075 0
-7147 -12986 0
-7147 -15076 0
-12986 -15076 0
7147 12986 15076 0
-1070 -3043 0
-1070 -8169 0
-3043 -8169 0
1070 3043 8169 0
-4835 -11336 0
-4835 -14500 0
-11336 -14500 0
4835 11336 14500 0
-9360 -10690 0
-9360 -13845 0
-10690 -13845 0
9360 10690 13845 0
-9063 -11064 0
-9063 -11389 0
-11064 -11389 0
9063 11064 11389 0
-2006 -8892 0
-2006 -15077 0
-8892 -15077 0
2006 8892 15077 0
-13814 -14335 0
-13814 -15078 0
-14335 -15078 0
13814 14335 15078 0
-2101 -2925 0
-2101 -14100 0
-2925 -14100 0
2101 2925 14100 0
-10466 -11975 0
-10466 -14103 0
-11975 -14103 0
10466 11975 14103 0
-6641 -11355 0
-6641 -13988 0
-11355 -13988 0
6641 11355 13988 0
-8033 -10182 0
-8033 -14346 0
-10182 -14346 0
8033 10182 14346 0
-1493 -12788 0
-1493 -14548 0
-12788 -14548 0
1493 12788 14548 0
-7724 -9613 0
-7724 -14778 0
-9613 -14778 0
7724 9613 14778 0
-9739 -10555 0
-9739 -15079 0
-10555 -15079 0
9739 10555 15079 0
-8220 -12471 0
-8220 -15080 0
-12471 -15080 0
8220 12471 15080 0
-9588 -15081 0
-9588 -15082 0
-15081 -15082 0
9588 15081 15082 0
-11849 -13021 0
-11849 -14694 0
-13021 -14694 0
11849 13021 14694 0
-14117 -14852 0
-14117 -15083 0
-14852 -15083 0
14117 14852 15083 0
-2151 -4381 0
-2151 -15084 0
-4381 -15084 0
2151 4381 15084 0
-2736 -11678 0
-2736 -15019 0
-11678 -15019 0
2736 11678 15019 0
-6469 -15085 0
-6469 -15086 0
-15085 -15086 0
6469 15085 15086 0
-2446 -2884 0
-2446 -11719 0
-2884 -11719 0
2446 2884 11719 0
-3479 -5708 0
-3479 -15087 0
-5708 -15087 0
3479 5708 15087 0
-8447 -9014 0
-8447 -14607 0
-9014 -14607 0
8447 9014 14607 0
-2542 -8906 0
-2542 -11201 0
-8906 -11201 0
2542 8906 11201 0
-13084 -14741 0
-13084 -15088 0
-14741 -15088 0
13084 14741 15088 0
-13209 -14825 0
-13209 -14972 0
-14825 -14972 0
13209 14825 14972 0
-4518 -8855 0
-4518 -14331 0
-8855 -14331 0
4518 8855 14331 0
-12287 -14457 0
-12287 -15089 0
-14457 -15089 0
12287 14457 15089 0
-11968 -14884 0
-11968 -15090 0
-14884 -15090 0
11968 14884 15090 0
-30 -168 0
-30 -13466 0
-168 -13466 0
30 168 13466 0
-13634 -14728 0
-13634 -15091 0
-14728 -15091 0
13634 14728 15091 0
-922 -14106 0
-922 -15092 0
-14106 -15092 0
922 14106 15092 0
-2394 -12826 0
-2394 -14672 0
-12826 -14672 0
2394 12826 14672 0
-2770 -3207 0
-2770 -4678 0
-3207 -4678 0
2770 3207 4678 0
-10290 -10813 0
-10290 -15093 0
-10813 -15093 0
10290 10813 15093 0
-161 -5548 0
-161 -9015 0
-5548 -9015 0
161 5548 9015 0
-9806 -14916 0
-9806 -15094 0
-14916 -15094 0
9806 14916 15094 0
-4910 -8916 0
-4910 -13889 0
-8916 -13889 0
4910 8916 13889 0
-1694 -4598 0
-1694 -5124 0
-4598 -5124 0
1694 4598 5124 0
-6143 -15092 0
-6143 -15095 0
-15092 -15095 0
6143 15092 15095 0
-3728 -11441 0
-3728 -15096 0
-11441 -15096 0
3728 11441 15096 0
-10527 -12813 0
-10527 -14853 0
-12813 -14853 0
10527 12813 14853 0
-5500 -9402 0
-5500 -10312 0
-9402 -10312 0
5500 9402 10312 0
-1316 -2645 0
-1316 -15097 0
-2645 -15097 0
1316 2645 15097 0
-5505 -14690 0
-5505 -15089 0
-14690 -15089 0
5505 14690 15089 0
-660 -4446 0
-660 -5664 0
-4446 -5664 0
660 4446 5664 0
-7756 -9615 0
-7756 -14169 0
-9615 -14169 0
7756 9615 14169 0
-1949 -6282 0
-1949 -15098 0
-6282 -15098 0
1949 6282 15098 0
-4117 -5562 0
-4117 -5581 0
-5562 -5581 0
4117 5562 5581 0
-3642 -5097 0
-3642 -15099 0
-5097 -15099 0
3642 5097 15099 0
-301 -9248 0
-301 -13573 0
-9248 -13573 0
301 9248 13573 0
-7664 -7887 0
-7664 -13532 0
-7887 -13532 0
7664 7887 13532 0
-302 -3248 0
-302 -14016 0
-3248 -14016 0
302 3248 14016 0
-7342 -13082 0
-7342 -13734 0
-13082 -13734 0
7342 13082 13734 0
-1171 -1741 0
-1171 -13725 0
-1741 -13725 0
1171 1741 13725 0
-13603 -14454 0
-13603 -15100 0
-14454 -15100 0
13603 14454 15100 0
-3829 -12154 0
-3829 -14740 0
-12154 -14740 0
3829 12154 14740 0
-2814 -13980 0
-2814 -15101 0
-13980 -15101 0
2814 13980 15101 0
-2602 -6038 0
-2602 -12274 0
-6038 -12274 0
2602 6038 12274 0
-3760 -6822 0
-3760 -14088 0
-6822 -14088 0
3760 6822 14088 0
-9478 -9563 0
-9478 -13452 0
-9563 -13452 0
9478 9563 13452 0
-7244 -15053 0
-7244 -15102 0
-15053 -15102 0
7244 15053 15102 0
-9291 -12654 0
-9291 -14915 0
-12654 -14915 0
9291 12654 14915 0
-700 -12753 0
-700 -15103 0
-12753 -15103 0
700 12753 15103 0
-2110 -14585 0
-2110 -15104 0
-14585 -15104 0
2110 14585 15104 0
-4813 -9103 0
-4813 -10943 0
-9103 -10943 0
4813 9103 10943 0
-6480 -12680 0
-6480 -15105 0
-12680 -15105 0
6480 12680 15105 0
-4866 -14208 0
-4866 -15106 0
-14208 -15106 0
4866 14208 15106 0
-3716 -15107 0
-3716 -15108 0
-15107 -15108 0
3716 15107 15108 0
-7291 -11421 0
-7291 -13513 0
-11421 -13513 0
7291 11421 13513 0
-6438 -12857 0
-6438 -15109 0
-12857 -15109 0
6438 12857 15109 0
-10227 -11363 0
-10227 -14700 0
-11363 -14700 0
10227 11363 14700 0
-10294 -12156 0
-10294 -14422 0
-12156 -14422 0
10294 12156 14422 0
-9155 -11148 0
-9155 -14676 0
-11148 -14676 0
9155 11148 14676 0
-8670 -12305 0
-8670 -14944 0
-12305 -14944 0
8670 12305 14944 0
-9447 -12501 0
-9447 -14941 0
-12501 -14941 0
9447 12501 14941 0
-6334 -12092 0
-6334 -12447 0
-12092 -12447 0
6334 12092 12447 0
-3589 -6873 0
-3589 -15110 0
-6873 -15110 0
3589 6873 15110 0
-2921 -3327 0
-2921 -15111 0
-3327 -15111 0
2921 3327 15111 0
-2435 -9885 0
-2435 -15112 0
-9885 -15112 0
2435 9885 15112 0
-9607 -10579 0
-9607 -12498 0
-10579 -12498 0
9607 10579 12498 0
-7086 -8507 0
-7086 -14185 0
-8507 -14185 0
7086 8507 14185 0
-8172 -14262 0
-8172 -14780 0
-14262 -14780 0
8172 14262 14780 0
-1502 -10463 0
-1502 -11430 0
-10463 -11430 0
1502 10463 11430 0
-3886 -7771 0
-3886 -15113 0
-7771 -15113 0
3886 7771 15113 0
-1729 -3564 0
-1729 -15051 0
-3564 -15051 0
1729 3564 15051 0
-866 -6232 0
-866 -7910 0
-6232 -7910 0
866 6232 7910 0
-1589 -9374 0
-1589 -14970 0
-9374 -14970 0
1589 9374 14970 0
-7434 -9073 0
-7434 -14414 0
-9073 -14414 0
7434 9073 14414 0
-13907 -14222 0
-13907 -15114 0
-14222 -15114 0
13907 14222 15114 0
-3408 -9909 0
-3408 -14475 0
-9909 -14475 0
3408 9909 14475 0
-338 -2750 0
-338 -12086 0
-2750 -12086 0
338 2750 12086 0
-13284 -14984 0
-13284 -15078 0
-14984 -15078 0
13284 14984 15078 0
-7904 -10308 0
-7904 -14491 0
-10308 -14491 0
7904 10308 14491 0
-6351 -8115 0
-6351 -10420 0
-8115 -10420 0
6351 8115 10420 0
-5027 -5450 0
-5027 -11308 0
-5450 -11308 0
5027 5450 11308 0
-7133 -9079 0
-7133 -13633 0
-9079 -13633 0
7133 9079 13633 0
-3749 -12312 0
-3749 -15115 0
-12312 -15115 0
3749 12312 15115 0
-869 -1591 0
-869 -10576 0
-1591 -10576 0
869 1591 10576 0
-10729 -15116 0
-10729 -15117 0
-15116 -15117 0
10729 15116 15117 0
-7367 -11371 0
-7367 -13652 0
-11371 -13652 0
7367 11371 13652 0
-7538 -12663 0
-7538 -15118 0
-12663 -15118 0
7538 12663 15118 0
-10563 -13149 0
-10563 -15119 0
-13149 -15119 0
10563 13149 15119 0
-3619 -11053 0
-3619 -11584 0
-11053 -11584 0
3619 11053 11584 0
-173 -5045 0
-173 -10120 0
-5045 -10120 0
173 5045 10120 0
-1415 -9793 0
-1415 -10999 0
-9793 -10999 0
1415 9793 10999 0
-1932 -9754 0
-1932 -9776 0
-9754 -9776 0
1932 9754 9776 0
-1149 -5323 0
-1149 -12570 0
-5323 -12570 0
1149 5323 12570 0
-9964 -13372 0
-9964 -13446 0
-13372 -13446 0
9964 13372 13446 0
-3091 -9012 0
-3091 -10950 0
-9012 -10950 0
3091 9012 10950 0
-10117 -10251 0
-10117 -15120 0
-10251 -15120 0
10117 10251 15120 0
-6708 -11102 0
-6708 -14618 0
-11102 -14618 0
6708 11102 14618 0
-54 -11456 0
-54 -12453 0
-11456 -12453 0
54 11456 12453 0
-9513 -11650 0
-9513 -15102 0
-11650 -15102 0
9513 11650 15102 0
-9350 -13766 0
-9350 -15121 0
-13766 -15121 0
9350 13766 15121 0
-8123 -11889 0
-8123 -15095 0
-11889 -15095 0
8123 11889 15095 0
-33 -7774 0
-33 -14256 0
-7774 -14256 0
33 7774 14256 0
-93 -3513 0
-93 -8128 0
-3513 -8128 0
93 3513 8128 0
-2241 -2779 0
-2241 -4395 0
-2779 -4395 0
2241 2779 4395 0
-11644 -13091 0
-11644 -13351 0
-13091 -13351 0
11644 13091 13351 0
-12291 -13968 0
-12291 -14742 0
-13968 -14742 0
12291 13968 14742 0
-15 -6427 0
-15 -14409 0
-6427 -14409 0
15 6427 14409 0
-8335 -13027 0
-8335 -13271 0
-13027 -13271 0
8335 13027 13271 0
-2821 -11514 0
-2821 -12094 0
-11514 -12094 0
2821 11514 12094 0
-2561 -6419 0
-2561 -15122 0
-6419 -15122 0
2561 6419 15122 0
-15114 -15123 0
-15114 -15124 0
-15123 -15124 0
15114 15123 15124 0
-3051 -3298 0
-3051 -6236 0
-3298 -6236 0
3051 3298 6236 0
-554 -6070 0
-554 -14896 0
-6070 -14896 0
554 6070 14896 0
-4489 -10454 0
-4489 -13643 0
-10454 -13643 0
4489 10454 13643 0
-635 -6356 0
-635 -12738 0
-6356 -12738 0
635 6356 12738 0
-8946 -14845 0
-8946 -14910 0
-14845 -14910 0
8946 14845 14910 0
-7986 -9736 0
-7986 -15125 0
-9736 -15125 0
7986 9736 15125 0
-1531 -6152 0
-1531 -13418 0
-6152 -13418 0
1531 6152 13418 0
-105 -7716 0
-105 -11227 0
-7716 -11227 0
105 7716 11227 0
-14204 -14673 0
-14204 -15126 0
-14673 -15126 0
14204 14673 15126 0
-3553 -15081 0
-3553 -15127 0
-15081 -15127 0
3553 15081 15127 0
-9665 -9992 0
-9665 -13393 0
-9992 -13393 0
9665 9992 13393 0
-1811 -2165 0
-1811 -14721 0
-2165 -14721 0
1811 2165 14721 0
-10118 -13468 0
-10118 -15055 0
-13468 -15055 0
10118 13468 15055 0
-1079 -8745 0
-1079 -13588 0
-8745 -13588 0
1079 8745 13588 0
-10106 -12042 0
-10106 -14047 0
-12042 -14047 0
10106 12042 14047 0
-7114 -14890 0
-7114 -15128 0
-14890 -15128 0
7114 14890 15128 0
-8996 -12452 0
-8996 -13867 0
-12452 -13867 0
8996 12452 13867 0
-2830 -11928 0
-2830 -12175 0
-11928 -12175 0
2830 11928 12175 0
-14199 -15110 0
-14199 -15129 0
-15110 -15129 0
14199 15110 15129 0
-317 -14979 0
-317 -15072 0
-14979 -15072 0
317 14979 15072 0
-14405 -14543 0
-14405 -15130 0
-14543 -15130 0
14405 14543 15130 0
-14130 -15071 0
-14130 -15131 0
-15071 -15131 0
14130 15071 15131 0
-5414 -13456 0
-5414 -15132 0
-13456 -15132 0
5414 13456 15132 0
-11104 -13575 0
-11104 -14252 0
-13575 -14252 0
11104 13575 14252 0
-6911 -13205 0
-6911 -15133 0
-13205 -15133 0
6911 13205 15133 0
-11357 -12641 0
-11357 -15134 0
-12641 -15134 0
11357 12641 15134 0
-9788 -12248 0
-9788 -15135 0
-12248 -15135 0
9788 12248 15135 0
-5238 -11839 0
-5238 -12731 0
-11839 -12731 0
5238 11839 12731 0
-1361 -7953 0
-1361 -8643 0
-7953 -8643 0
1361 7953 8643 0
-11618 -13600 0
-11618 -15136 0
-13600 -15136 0
11618 13600 15136 0
-8103 -14207 0
-8103 -15052 0
-14207 -15052 0
8103 14207 15052 0
-2969 -11150 0
-2969 -14420 0
-11150 -14420 0
2969 11150 14420 0
-6052 -10501 0
-6052 -15137 0
-10501 -15137 0
6052 10501 15137 0
-13619 -13908 0
-13619 -14864 0
-13908 -14864 0
13619 13908 14864 0
-7212 -15138 0
-7212 -15139 0
-15138 -15139 0
7212 15138 15139 0
-2877 -13118 0
-2877 -15140 0
-13118 -15140 0
2877 13118 15140 0
-2321 -3963 0
-2321 -9212 0
-3963 -9212 0
2321 3963 9212 0
-2525 -15001 0
-2525 -15141 0
-15001 -15141 0
2525 15001 15141 0
-5977 -14760 0
-5977 -14771 0
-14760 -14771 0
5977 14760 14771 0
-15142 -15143 0
-15142 -15144 0
-15143 -15144 0
15142 15143 15144 0
-8441 -14378 0
-8441 -15145 0
-14378 -15145 0
8441 14378 15145 0
-6669 -6937 0
-6669 -11483 0
-6937 -11483 0
6669 6937 11483 0
-454 -5268 0
-454 -15146 0
-5268 -15146 0
454 5268 15146 0
-9984 -10313 0
-9984 -15147 0
-10313 -15147 0
9984 10313 15147 0
-13800 -14164 0
-13800 -14436 0
-14164 -14436 0
13800 14164 14436 0
-12192 -12222 0
-12192 -12409 0
-12222 -12409 0
12192 12222 12409 0
-3259 -9339 0
-3259 -14583 0
-9339 -14583 0
3259 9339 14583 0
-1342 -2280 0
-1342 -15148 0
-2280 -15148 0
1342 2280 15148 0
-9950 -13046 0
-9950 -15130 0
-13046 -15130 0
9950 13046 15130 0
-8302 -13341 0
-8302 -15149 0
-13341 -15149 0
8302 13341 15149 0
-7753 -10130 0
-7753 -14769 0
-10130 -14769 0
7753 10130 14769 0
-9845 -10252 0
-9845 -14659 0
-10252 -14659 0
9845 10252 14659 0
-6693 -10790 0
-6693 -11971 0
-10790 -11971 0
6693 10790 11971 0
-8583 -10241 0
-8583 -11169 0
-10241 -11169 0
8583 10241 11169 0
-11933 -13692 0
-11933 -15150 0
-13692 -15150 0
11933 13692 15150 0
-8552 -8974 0
-8552 -13194 0
-8974 -13194 0
8552 8974 13194 0
-4336 -9737 0
-4336 -13419 0
-9737 -13419 0
4336 9737 13419 0
-4094 -11094 0
-4094 -15151 0
-11094 -15151 0
4094 11094 15151 0
-831 -9096 0
-831 -11959 0
-9096 -11959 0
831 9096 11959 0
-14146 -14359 0
-14146 -15152 0
-14359 -15152 0
14146 14359 15152 0
-3212 -9346 0
-3212 -15097 0
-9346 -15097 0
3212 9346 15097 0
-7182 -14932 0
-7182 -15153 0
-14932 -15153 0
7182 14932 15153 0
-6833 -10255 0
-6833 -11983 0
-10255 -11983 0
6833 10255 11983 0
-8393 -10969 0
-8393 -15154 0
-10969 -15154 0
8393 10969 15154 0
-5715 -15155 0
-5715 -15156 0
-15155 -15156 0
5715 15155 15156 0
-13987 -15157 0
-13987 -15158 0
-15157 -15158 0
13987 15157 15158 0
-2730 -7144 0
-2730 -14230 0
-7144 -14230 0
2730 7144 14230 0
-5108 -12392 0
-5108 -15159 0
-12392 -15159 0
5108 12392 15159 0
-5305 -14665 0
-5305 -15160 0
-14665 -15160 0
5305 14665 15160 0
-3369 -7502 0
-3369 -13981 0
-7502 -13981 0
3369 7502 13981 0
-782 -9521 0
-782 -13957 0
-9521 -13957 0
782 9521 13957 0
-3590 -5503 0
-3590 -15014 0
-5503 -15014 0
3590 5503 15014 0
-6313 -10794 0
-6313 -15150 0
-10794 -15150 0
6313 10794 15150 0
-60 -10507 0
-60 -11314 0
-10507 -11314 0
60 10507 11314 0
-12620 -14487 0
-12620 -15161 0
-14487 -15161 0
12620 14487 15161 0
-1920 -11452 0
-1920 -14859 0
-11452 -14859 0
1920 11452 14859 0
-4894 -9038 0
-4894 -15162 0
-9038 -15162 0
4894 9038 15162 0
-8549 -13158 0
-8549 -14826 0
-13158 -14826 0
8549 13158 14826 0
-8263 -8375 0
-8263 -14505 0
-8375 -14505 0
8263 8375 14505 0
-6213 -11037 0
-6213 -14949 0
-11037 -14949 0
6213 11037 14949 0
-11543 -11972 0
-11543 -14776 0
-11972 -14776 0
11543 11972 14776 0
-9764 -13736 0
-9764 -14914 0
-13736 -14914 0
9764 13736 14914 0
-3251 -8056 0
-3251 -8763 0
-8056 -8763 0
3251 8056 8763 0
-5176 -11263 0
-5176 -14093 0
-11263 -14093 0
5176 11263 14093 0
-12948 -15163 0
-12948 -15164 0
-15163 -15164 0
12948 15163 15164 0
-12375 -12741 0
-12375 -13001 0
-12741 -13001 0
12375 12741 13001 0
-7119 -14226 0
-7119 -14541 0
-14226 -14541 0
7119 14226 14541 0
-11669 -14772 0
-11669 -15165 0
-14772 -15165 0
11669 14772 15165 0
-10647 -14401 0
-10647 -14630 0
-14401 -14630 0
10647 14401 14630 0
-9159 -9584 0
-9159 -11893 0
-9584 -11893 0
9159 9584 11893 0
-6271 -10249 0
-6271 -15135 0
-10249 -15135 0
6271 10249 15135 0
-10060 -13645 0
-10060 -14951 0
-13645 -14951 0
10060 13645 14951 0
-2669 -14953 0
-2669 -15166 0
-14953 -15166 0
2669 14953 15166 0
-11344 -13034 0
-11344 -15129 0
-13034 -15129 0
11344 13034 15129 0
-9180 -12979 0
-9180 -15167 0
-12979 -15167 0
9180 12979 15167 0
-4077 -13567 0
-4077 -14319 0
-13567 -14319 0
4077 13567 14319 0
-5198 -9973 0
-5198 -11947 0
-9973 -11947 0
5198 9973 11947 0
-4424 -7651 0
-4424 -9422 0
-7651 -9422 0
4424 7651 9422 0
-10061 -13078 0
-10061 -15168 0
-13078 -15168 0
10061 13078 15168 0
-12145 -14128 0
-12145 -14650 0
-14128 -14650 0
12145 14128 14650 0
-4267 -12980 0
-4267 -15008 0
-12980 -15008 0
4267 12980 15008 0
-516 -14901 0
-516 -15169 0
-14901 -15169 0
516 14901 15169 0
-3469 -11316 0
-3469 -14734 0
-11316 -14734 0
3469 11316 14734 0
-7456 -14935 0
-7456 -15073 0
-14935 -15073 0
7456 14935 15073 0
-10134 -13796 0
-10134 -15132 0
-13796 -15132 0
10134 13796 15132 0
-10010 -10722 0
-10010 -14660 0
-10722 -14660 0
10010 10722 14660 0
-11511 -14488 0
-11511 -15170 0
-14488 -15170 0
11511 14488 15170 0
-2903 -5873 0
-2903 -15171 0
-5873 -15171 0
2903 5873 15171 0
-1563 -13339 0
-1563 -15172 0
-13339 -15172 0
1563 13339 15172 0
-14024 -15094 0
-14024 -15173 0
-15094 -15173 0
14024 15094 15173 0
-3013 -8448 0
-3013 -12170 0
-8448 -12170 0
3013 8448 12170 0
-10528 -11909 0
-10528 -14313 0
-11909 -14313 0
10528 11909 14313 0
-5362 -5738 0
-5362 -14819 0
-5738 -14819 0
5362 5738 14819 0
-2266 -12089 0
-2266 -14514 0
-12089 -14514 0
2266 12089 14514 0
-8646 -13349 0
-8646 -13689 0
-13349 -13689 0
8646 13349 13689 0
-5360 -10811 0
-5360 -15174 0
-10811 -15174 0
5360 10811 15174 0
-8837 -12621 0
-8837 -15175 0
-12621 -15175 0
8837 12621 15175 0
-2781 -4071 0
-2781 -4251 0
-4071 -4251 0
2781 4071 4251 0
-9966 -11194 0
-9966 -15176 0
-11194 -15176 0
9966 11194 15176 0
-11111 -12629 0
-11111 -15177 0
-12629 -15177 0
11111 12629 15177 0
-8108 -9173 0
-8108 -13141 0
-9173 -13141 0
8108 9173 13141 0
-1842 -2106 0
-1842 -13402 0
-2106 -13402 0
1842 2106 13402 0
-6344 -9596 0
-6344 -15178 0
-9596 -15178 0
6344 9596 15178 0
-11728 -13803 0
-11728 -15179 0
-13803 -15179 0
11728 13803 15179 0
-9020 -9897 0
-9020 -10619 0
-9897 -10619 0
9020 9897 10619 0
-5740 -12045 0
-5740 -13069 0
-12045 -13069 0
5740 12045 13069 0
-6797 -8656 0
-6797 -13764 0
-8656 -13764 0
6797 8656 13764 0
-15011 -15036 0
-15011 -15180 0
-15036 -15180 0
15011 15036 15180 0
-3997 -4450 0
-3997 -8949 0
-4450 -8949 0
3997 4450 8949 0
-10508 -12110 0
-10508 -15181 0
-12110 -15181 0
10508 12110 15181 0
-1933 -12320 0
-1933 -15148 0
-12320 -15148 0
1933 12320 15148 0
-2581 -4132 0
-2581 -13664 0
-4132 -13664 0
2581 4132 13664 0
-4895 -14888 0
-4895 -15182 0
-14888 -15182 0
4895 14888 15182 0
-1988 -14330 0
-1988 -14587 0
-14330 -14587 0
1988 14330 14587 0
-1630 -12292 0
-1630 -15062 0
-12292 -15062 0
1630 12292 15062 0
-6219 -8820 0
-6219 -11089 0
-8820 -11089 0
6219 8820 11089 0
-598 -3615 0
-598 -11941 0
-3615 -11941 0
598 3615 11941 0
-11825 -14144 0
-11825 -14624 0
-14144 -14624 0
11825 14144 14624 0
-3357 -11050 0
-3357 -15183 0
-11050 -15183 0
3357 11050 15183 0
-4135 -12111 0
-4135 -14575 0
-12111 -14575 0
4135 12111 14575 0
-2247 -7271 0
-2247 -9978 0
-7271 -9978 0
2247 7271 9978 0
-7822 -10695 0
-7822 -14151 0
-10695 -14151 0
7822 10695 14151 0
-4829 -5258 0
-4829 -14379 0
-5258 -14379 0
4829 5258 14379 0
-7675 -14137 0
-7675 -15184 0
-14137 -15184 0
7675 14137 15184 0
-15185 -15186 0
-15185 -15187 0
-15186 -15187 0
15185 15186 15187 0
-15188 -15189 0
-15188 -15190 0
-15189 -15190 0
15188 15189 15190 0
-8940 -10972 0
-8940 -12117 0
-10972 -12117 0
8940 10972 12117 0
-9744 -13516 0
-9744 -14923 0
-13516 -14923 0
9744 13516 14923 0
-11300 -14000 0
-11300 -15122 0
-14000 -15122 0
11300 14000 15122 0
-10109 -14198 0
-10109 -14909 0
-14198 -14909 0
10109 14198 14909 0
-3432 -4223 0
-3432 -14568 0
-4223 -14568 0
3432 4223 14568 0
-6771 -13776 0
-6771 -14426 0
-13776 -14426 0
6771 13776 14426 0
-11512 -12732 0
-11512 -15191 0
-12732 -15191 0
11512 12732 15191 0
-5307 -11449 0
-5307 -15192 0
-11449 -15192 0
5307 11449 15192 0
-6727 -11670 0
-6727 -13538 0
-11670 -13538 0
6727 11670 13538 0
-6922 -9305 0
-6922 -10709 0
-9305 -10709 0
6922 9305 10709 0
-6919 -12369 0
-6919 -14448 0
-12369 -14448 0
6919 12369 14448 0
-9514 -11418 0
-9514 -12886 0
-11418 -12886 0
9514 11418 12886 0
-12839 -14786 0
-12839 -15012 0
-14786 -15012 0
12839 14786 15012 0
-7711 -14871 0
-7711 -15179 0
-14871 -15179 0
7711 14871 15179 0
-12512 -15030 0
-12512 -15056 0
-15030 -15056 0
12512 15030 15056 0
-9906 -12418 0
-9906 -13508 0
-12418 -13508 0
9906 12418 13508 0
-2868 -7406 0
-2868 -15193 0
-7406 -15193 0
2868 7406 15193 0
-12010 -14588 0
-12010 -15009 0
-14588 -15009 0
12010 14588 15009 0
-11748 -12721 0
-11748 -14886 0
-12721 -14886 0
11748 12721 14886 0
-5129 -8652 0
-5129 -15194 0
-8652 -15194 0
5129 8652 15194 0
-1319 -7284 0
-1319 -15195 0
-7284 -15195 0
1319 7284 15195 0
-1585 -7608 0
-1585 -11875 0
-7608 -11875 0
1585 7608 11875 0
-4883 -9018 0
-4883 -14542 0
-9018 -14542 0
4883 9018 14542 0
-4369 -6490 0
-4369 -8340 0
-6490 -8340 0
4369 6490 8340 0
-4739 -5732 0
-4739 -11027 0
-5732 -11027 0
4739 5732 11027 0
-194 -10047 0
-194 -11301 0
-10047 -11301 0
194 10047 11301 0
-5022 -15120 0
-5022 -15196 0
-15120 -15196 0
5022 15120 15196 0
-14782 -15197 0
-14782 -15198 0
-15197 -15198 0
14782 15197 15198 0
-3379 -5699 0
-3379 -11997 0
-5699 -11997 0
3379 5699 11997 0
-9295 -15199 0
-9295 -15200 0
-15199 -15200 0
9295 15199 15200 0
-6477 -8002 0
-6477 -14963 0
-8002 -14963 0
6477 8002 14963 0
-6531 -14210 0
-6531 -14670 0
-14210 -14670 0
6531 14210 14670 0
-9975 -13400 0
-9975 -14806 0
-13400 -14806 0
9975 13400 14806 0
-7758 -12306 0
-7758 -14391 0
-12306 -14391 0
7758 12306 14391 0
-1438 -7869 0
-1438 -15060 0
-7869 -15060 0
1438 7869 15060 0
-6413 -7148 0
-6413 -13302 0
-7148 -13302 0
6413 7148 13302 0
-10317 -10804 0
-10317 -15125 0
-10804 -15125 0
10317 10804 15125 0
-8617 -11161 0
-8617 -15201 0
-11161 -15201 0
8617 11161 15201 0
-4346 -12492 0
-4346 -12515 0
-12492 -12515 0
4346 12492 12515 0
-2596 -7549 0
-2596 -13505 0
-7549 -13505 0
2596 7549 13505 0
-9760 -13043 0
-9760 -14930 0
-13043 -14930 0
9760 13043 14930 0
-11412 -11781 0
-11412 -14903 0
-11781 -14903 0
11412 11781 14903 0
-3466 -11171 0
-3466 -15202 0
-11171 -15202 0
3466 11171 15202 0
-6622 -7092 0
-6622 -11607 0
-7092 -11607 0
6622 7092 11607 0
-10224 -13407 0
-10224 -13511 0
-13407 -13511 0
10224 13407 13511 0
-7110 -13321 0
-7110 -14636 0
-13321 -14636 0
7110 13321 14636 0
-264 -7108 0
-264 -8525 0
-7108 -8525 0
264 7108 8525 0
-10755 -12889 0
-10755 -14388 0
-12889 -14388 0
10755 12889 14388 0
-8455 -8600 0
-8455 -9719 0
-8600 -9719 0
8455 8600 9719 0
-7024 -11929 0
-7024 -14980 0
-11929 -14980 0
7024 11929 14980 0
-1795 -10874 0
-1795 -14716 0
-10874 -14716 0
1795 10874 14716 0
-899 -7577 0
-899 -11755 0
-7577 -11755 0
899 7577 11755 0
-636 -3085 0
-636 -14691 0
-3085 -14691 0
636 3085 14691 0
-8951 -10740 0
-8951 -15057 0
-10740 -15057 0
8951 10740 15057 0
-4715 -7215 0
-4715 -9089 0
-7215 -9089 0
4715 7215 9089 0
-6996 -13945 0
-6996 -14945 0
-13945 -14945 0
6996 13945 14945 0
-3561 -5262 0
-3561 -15203 0
-5262 -15203 0
3561 5262 15203 0
-6294 -14377 0
-6294 -15204 0
-14377 -15204 0
6294 14377 15204 0
-5999 -8961 0
-5999 -13822 0
-8961 -13822 0
5999 8961 13822 0
-11311 -12547 0
-11311 -12730 0
-12547 -12730 0
11311 12547 12730 0
-12991 -13153 0
-12991 -15205 0
-13153 -15205 0
12991 13153 15205 0
-2660 -13752 0
-2660 -15206 0
-13752 -15206 0
2660 13752 15206 0
-10587 -10656 0
-10587 -11487 0
-10656 -11487 0
10587 10656 11487 0
-4652 -8433 0
-4652 -11212 0
-8433 -11212 0
4652 8433 11212 0
-3610 -5476 0
-3610 -10704 0
-5476 -10704 0
3610 5476 10704 0
-12535 -14501 0
-12535 -15085 0
-14501 -15085 0
12535 14501 15085 0
-1865 -12971 0
-1865 -15207 0
-12971 -15207 0
1865 12971 15207 0
-4992 -13914 0
-4992 -15208 0
-13914 -15208 0
4992 13914 15208 0
-7631 -14544 0
-7631 -14571 0
-14544 -14571 0
7631 14544 14571 0
-607 -2107 0
-607 -12150 0
-2107 -12150 0
607 2107 12150 0
-1411 -10189 0
-1411 -11952 0
-10189 -11952 0
1411 10189 11952 0
-7520 -11608 0
-7520 -15209 0
-11608 -15209 0
7520 11608 15209 0
-4312 -9735 0
-4312 -10422 0
-9735 -10422 0
4312 9735 10422 0
-6257 -12917 0
-6257 -15210 0
-12917 -15210 0
6257 12917 15210 0
-10285 -13998 0
-10285 -14389 0
-13998 -14389 0
10285 13998 14389 0
-3345 -7883 0
-3345 -15211 0
-7883 -15211 0
3345 7883 15211 0
-2737 -3299 0
-2737 -12147 0
-3299 -12147 0
2737 3299 12147 0
-7321 -14092 0
-7321 -14747 0
-14092 -14747 0
7321 14092 14747 0
-6462 -12842 0
-6462 -15212 0
-12842 -15212 0
6462 12842 15212 0
-2429 -6087 0
-2429 -8254 0
-6087 -8254 0
2429 6087 8254 0
-8046 -13258 0
-8046 -13480 0
-13258 -13480 0
8046 13258 13480 0
-6886 -7954 0
-6886 -11527 0
-7954 -11527 0
6886 7954 11527 0
-1723 -2322 0
-1723 -8282 0
-2322 -8282 0
1723 2322 8282 0
-9434 -15098 0
-9434 -15213 0
-15098 -15213 0
9434 15098 15213 0
-365 -14057 0
-365 -14147 0
-14057 -14147 0
365 14057 14147 0
-4379 -9358 0
-4379 -13083 0
-9358 -13083 0
4379 9358 13083 0
-727 -5384 0
-727 -15214 0
-5384 -15214 0
727 5384 15214 0
-11519 -13610 0
-11519 -15162 0
-13610 -15162 0
11519 13610 15162 0
-785 -4243 0
-785 -12798 0
-4243 -12798 0
785 4243 12798 0
-1935 -11631 0
-1935 -14857 0
-11631 -14857 0
1935 11631 14857 0
-6329 -10605 0
-6329 -14601 0
-10605 -14601 0
6329 10605 14601 0
-7939 -8627 0
-7939 -15215 0
-8627 -15215 0
7939 8627 15215 0
-8063 -10934 0
-8063 -11207 0
-10934 -11207 0
8063 10934 11207 0
-1418 -10661 0
-1418 -14581 0
-10661 -14581 0
1418 10661 14581 0
-3680 -10042 0
-3680 -12014 0
-10042 -12014 0
3680 10042 12014 0
-9630 -11396 0
-9630 -13040 0
-11396 -13040 0
9630 11396 13040 0
-716 -1337 0
-716 -11734 0
-1337 -11734 0
716 1337 11734 0
-4561 -11667 0
-4561 -11866 0
-11667 -11866 0
4561 11667 11866 0
-6196 -7503 0
-6196 -13065 0
-7503 -13065 0
6196 7503 13065 0
-9203 -13754 0
-9203 -14964 0
-13754 -14964 0
9203 13754 14964 0
-3083 -8751 0
-3083 -15216 0
-8751 -15216 0
3083 8751 15216 0
-3198 -14726 0
-3198 -15208 0
-14726 -15208 0
3198 14726 15208 0
-3531 -15104 0
-3531 -15209 0
-15104 -15209 0
3531 15104 15209 0
-87 -11444 0
-87 -15217 0
-11444 -15217 0
87 11444 15217 0
-5444 -6158 0
-5444 -14992 0
-6158 -14992 0
5444 6158 14992 0
-2159 -6566 0
-2159 -6843 0
-6566 -6843 0
2159 6566 6843 0
-9106 -13824 0
-9106 -14736 0
-13824 -14736 0
9106 13824 14736 0
-4471 -4698 0
-4471 -15091 0
-4698 -15091 0
4471 4698 15091 0
-1444 -3787 0
-1444 -14168 0
-3787 -14168 0
1444 3787 14168 0
-7864 -8605 0
-7864 -9168 0
-8605 -9168 0
7864 8605 9168 0
-11794 -13473 0
-11794 -14511 0
-13473 -14511 0
11794 13473 14511 0
-4290 -5074 0
-4290 -15218 0
-5074 -15218 0
4290 5074 15218 0
-11545 -11744 0
-11545 -13163 0
-11744 -13163 0
11545 11744 13163 0
-5297 -7303 0
-5297 -11152 0
-7303 -11152 0
5297 7303 11152 0
-5909 -8379 0
-5909 -15219 0
-8379 -15219 0
5909 8379 15219 0
-2978 -13279 0
-2978 -13471 0
-13279 -13471 0
2978 13279 13471 0
-6080 -11368 0
-6080 -14417 0
-11368 -14417 0
6080 11368 14417 0
-3843 -7067 0
-3843 -14591 0
-7067 -14591 0
3843 7067 14591 0
-5285 -6451 0
-5285 -10233 0
-6451 -10233 0
5285 6451 10233 0
-2035 -2618 0
-2035 -8657 0
-2618 -8657 0
2035 2618 8657 0
-12990 -14486 0
-12990 -15185 0
-14486 -15185 0
12990 14486 15185 0
-10531 -11546 0
-10531 -15128 0
-11546 -15128 0
10531 11546 15128 0
-4858 -14906 0
-4858 -15022 0
-14906 -15022 0
4858 14906 15022 0
-8849 -14645 0
-8849 -15220 0
-14645 -15220 0
8849 14645 15220 0
-11090 -11802 0
-11090 -14880 0
-11802 -14880 0
11090 11802 14880 0
-3052 -8918 0
-3052 -15221 0
-8918 -15221 0
3052 8918 15221 0
-5775 -12251 0
-5775 -13457 0
-12251 -13457 0
5775 12251 13457 0
-9647 -13585 0
-9647 -15222 0
-13585 -15222 0
9647 13585 15222 0
-3587 -15223 0
-3587 -15224 0
-15223 -15224 0
3587 15223 15224 0
-1513 -12673 0
-1513 -14038 0
-12673 -14038 0
1513 12673 14038 0
-10301 -14755 0
-10301 -15003 0
-14755 -15003 0
10301 14755 15003 0
-4903 -11575 0
-4903 -14982 0
-11575 -14982 0
4903 11575 14982 0
-1140 -5656 0
-1140 -15225 0
-5656 -15225 0
1140 5656 15225 0
-6686 -10791 0
-6686 -12767 0
-10791 -12767 0
6686 10791 12767 0
-9104 -13120 0
-9104 -13256 0
-13120 -13256 0
9104 13120 13256 0
-13007 -13460 0
-13007 -15226 0
-13460 -15226 0
13007 13460 15226 0
-15227 -15228 0
-15227 -15229 0
-15228 -15229 0
15227 15228 15229 0
-2661 -6987 0
-2661 -14279 0
-6987 -14279 0
2661 6987 14279 0
-2432 -9262 0
-2432 -15033 0
-9262 -15033 0
2432 9262 15033 0
-4672 -8586 0
-4672 -10727 0
-8586 -10727 0
4672 8586 10727 0
-10277 -12040 0
-10277 -13534 0
-12040 -13534 0
10277 12040 13534 0
-12593 -14958 0
-12593 -15230 0
-14958 -15230 0
12593 14958 15230 0
-7001 -10525 0
-7001 -15231 0
-10525 -15231 0
7001 10525 15231 0
-4472 -9932 0
-4472 -15232 0
-9932 -15232 0
4472 9932 15232 0
-13837 -14050 0
-13837 -15233 0
-14050 -15233 0
13837 14050 15233 0
-11569 -12360 0
-11569 -13185 0
-12360 -13185 0
11569 12360 13185 0
-3066 -11901 0
-3066 -15234 0
-11901 -15234 0
3066 11901 15234 0
-5700 -9633 0
-5700 -9717 0
-9633 -9717 0
5700 9633 9717 0
-12124 -12818 0
-12124 -15235 0
-12818 -15235 0
12124 12818 15235 0
-1325 -7150 0
-1325 -7930 0
-7150 -7930 0
1325 7150 7930 0
-8783 -11528 0
-8783 -14310 0
-11528 -14310 0
8783 11528 14310 0
-4085 -8894 0
-4085 -11976 0
-8894 -11976 0
4085 8894 11976 0
-8511 -10142 0
-8511 -15236 0
-10142 -15236 0
8511 10142 15236 0
-1374 -6687 0
-1374 -15160 0
-6687 -15160 0
1374 6687 15160 0
-2157 -12098 0
-2157 -15237 0
-12098 -15237 0
2157 12098 15237 0
-788 -12462 0
-788 -14837 0
-12462 -14837 0
788 12462 14837 0
-3521 -12791 0
-3521 -15238 0
-12791 -15238 0
3521 12791 15238 0
-1796 -9985 0
-1796 -10516 0
-9985 -10516 0
1796 9985 10516 0
-8080 -8938 0
-8080 -9756 0
-8938 -9756 0
8080 8938 9756 0
-2576 -4729 0
-2576 -10126 0
-4729 -10126 0
2576 4729 10126 0
-5760 -6091 0
-5760 -15239 0
-6091 -15239 0
5760 6091 15239 0
-5462 -7109 0
-5462 -11683 0
-7109 -11683 0
5462 7109 11683 0
-4144 -10945 0
-4144 -15240 0
-10945 -15240 0
4144 10945 15240 0
-7260 -8662 0
-7260 -14832 0
-8662 -14832 0
7260 8662 14832 0
-10008 -13041 0
-10008 -14848 0
-13041 -14848 0
10008 13041 14848 0
-1461 -6297 0
-1461 -11065 0
-6297 -11065 0
1461 6297 11065 0
-5654 -8392 0
-5654 -12211 0
-8392 -12211 0
5654 8392 12211 0
-13128 -14345 0
-13128 -14386 0
-14345 -14386 0
13128 14345 14386 0
-5484 -7320 0
-5484 -15241 0
-7320 -15241 0
5484 7320 15241 0
-4158 -12855 0
-4158 -13106 0
-12855 -13106 0
4158 12855 13106 0
-10135 -11330 0
-10135 -14882 0
-11330 -14882 0
10135 11330 14882 0
-7613 -12532 0
-7613 -12919 0
-12532 -12919 0
7613 12532 12919 0
-8621 -10153 0
-8621 -14989 0
-10153 -14989 0
8621 10153 14989 0
-12890 -13698 0
-12890 -15211 0
-13698 -15211 0
12890 13698 15211 0
-12977 -13971 0
-12977 -15220 0
-13971 -15220 0
12977 13971 15220 0
-669 -8707 0
-669 -9862 0
-8707 -9862 0
669 8707 9862 0
-4874 -14002 0
-4874 -15242 0
-14002 -15242 0
4874 14002 15242 0
-6891 -7524 0
-6891 -14373 0
-7524 -14373 0
6891 7524 14373 0
-12027 -13143 0
-12027 -15154 0
-13143 -15154 0
12027 13143 15154 0
-10987 -15243 0
-10987 -15244 0
-15243 -15244 0
10987 15243 15244 0
-6980 -13983 0
-6980 -14337 0
-13983 -14337 0
6980 13983 14337 0
-6241 -10418 0
-6241 -12518 0
-10418 -12518 0
6241 10418 12518 0
-5272 -12691 0
-5272 -14609 0
-12691 -14609 0
5272 12691 14609 0
-12087 -14938 0
-12087 -15245 0
-14938 -15245 0
12087 14938 15245 0
-7922 -9213 0
-7922 -11840 0
-9213 -11840 0
7922 9213 11840 0
-10221 -13704 0
-10221 -14395 0
-13704 -14395 0
10221 13704 14395 0
-10409 -13337 0
-10409 -14889 0
-13337 -14889 0
10409 13337 14889 0
-11813 -13045 0
-11813 -15221 0
-13045 -15221 0
11813 13045 15221 0
-2961 -3943 0
-2961 -14039 0
-3943 -14039 0
2961 3943 14039 0
-3887 -11666 0
-3887 -15246 0
-11666 -15246 0
3887 11666 15246 0
-3480 -5354 0
-3480 -8821 0
-5354 -8821 0
3480 5354 8821 0
-3150 -4476 0
-3150 -13073 0
-4476 -13073 0
3150 4476 13073 0
-279 -6258 0
-279 -14697 0
-6258 -14697 0
279 6258 14697 0
-10688 -13504 0
-10688 -14913 0
-13504 -14913 0
10688 13504 14913 0
-4371 -5993 0
-4371 -14455 0
-5993 -14455 0
4371 5993 14455 0
-2154 -12668 0
-2154 -15123 0
-12668 -15123 0
2154 12668 15123 0
-728 -8858 0
-728 -9872 0
-8858 -9872 0
728 8858 9872 0
-1355 -5660 0
-1355 -14603 0
-5660 -14603 0
1355 5660 14603 0
-7934 -9081 0
-7934 -15205 0
-9081 -15205 0
7934 9081 15205 0
-5526 -13098 0
-5526 -15142 0
-13098 -15142 0
5526 13098 15142 0
-5376 -8472 0
-5376 -10871 0
-8472 -10871 0
5376 8472 10871 0
-392 -9487 0
-392 -11525 0
-9487 -11525 0
392 9487 11525 0
-4234 -13715 0
-4234 -14539 0
-13715 -14539 0
4234 13715 14539 0
-6699 -11541 0
-6699 -13768 0
-11541 -13768 0
6699 11541 13768 0
-4194 -9801 0
-4194 -12398 0
-9801 -12398 0
4194 9801 12398 0
-5778 -13518 0
-5778 -15247 0
-13518 -15247 0
5778 13518 15247 0
-2441 -13728 0
-2441 -14787 0
-13728 -14787 0
2441 13728 14787 0
-6130 -9022 0
-6130 -14878 0
-9022 -14878 0
6130 9022 14878 0
-2521 -10940 0
-2521 -15174 0
-10940 -15174 0
2521 10940 15174 0
-7693 -11534 0
-7693 -14048 0
-11534 -14048 0
7693 11534 14048 0
-8596 -13272 0
-8596 -13315 0
-13272 -13315 0
8596 13272 13315 0
-9157 -10393 0
-9157 -15103 0
-10393 -15103 0
9157 10393 15103 0
-5289 -8876 0
-5289 -14593 0
-8876 -14593 0
5289 8876 14593 0
-11785 -12952 0
-11785 -13294 0
-12952 -13294 0
11785 12952 13294 0
-4262 -10928 0
-4262 -15248 0
-10928 -15248 0
4262 10928 15248 0
-3075 -12877 0
-3075 -15249 0
-12877 -15249 0
3075 12877 15249 0
-3222 -14191 0
-3222 -15250 0
-14191 -15250 0
3222 14191 15250 0
-13161 -14320 0
-13161 -14446 0
-14320 -14446 0
13161 14320 14446 0
-13244 -15025 0
-13244 -15243 0
-15025 -15243 0
13244 15025 15243 0
-4327 -14273 0
-4327 -15111 0
-14273 -15111 0
4327 14273 15111 0
-3966 -8311 0
-3966 -14009 0
-8311 -14009 0
3966 8311 14009 0
-5006 -14254 0
-5006 -15251 0
-14254 -15251 0
5006 14254 15251 0
-3019 -4572 0
-3019 -7890 0
-4572 -7890 0
3019 4572 7890 0
-3411 -4740 0
-3411 -6554 0
-4740 -6554 0
3411 4740 6554 0
-5480 -15119 0
-5480 -15252 0
-15119 -15252 0
5480 15119 15252 0
-6713 -8766 0
-6713 -15253 0
-8766 -15253 0
6713 8766 15253 0
-2447 -8324 0
-2447 -14528 0
-8324 -14528 0
2447 8324 14528 0
-11814 -15048 0
-11814 -15254 0
-15048 -15254 0
11814 15048 15254 0
-1923 -10415 0
-1923 -13044 0
-10415 -13044 0
1923 10415 13044 0
-916 -8708 0
-916 -11217 0
-8708 -11217 0
916 8708 11217 0
-51 -2889 0
-51 -5578 0
-2889 -5578 0
51 2889 5578 0
-39 -12470 0
-39 -15255 0
-12470 -15255 0
39 12470 15255 0
-12946 -15256 0
-12946 -15257 0
-15256 -15257 0
12946 15256 15257 0
-533 -11827 0
-533 -14795 0
-11827 -14795 0
533 11827 14795 0
-10167 -13905 0
-10167 -15165 0
-13905 -15165 0
10167 13905 15165 0
-6332 -7979 0
-6332 -13079 0
-7979 -13079 0
6332 7979 13079 0
-9288 -11520 0
-9288 -12745 0
-11520 -12745 0
9288 11520 12745 0
-7021 -10920 0
-7021 -13030 0
-10920 -13030 0
7021 10920 13030 0
-11219 -13134 0
-11219 -14516 0
-13134 -14516 0
11219 13134 14516 0
-68 -8923 0
-68 -13159 0
-8923 -13159 0
68 8923 13159 0
-1358 -12916 0
-1358 -14410 0
-12916 -14410 0
1358 12916 14410 0
-4699 -13636 0
-4699 -15258 0
-13636 -15258 0
4699 13636 15258 0
-14842 -15216 0
-14842 -15259 0
-15216 -15259 0
14842 15216 15259 0
-3890 -5186 0
-3890 -14662 0
-5186 -14662 0
3890 5186 14662 0
-10866 -11114 0
-10866 -15260 0
-11114 -15260 0
10866 11114 15260 0
-1516 -10533 0
-1516 -14639 0
-10533 -14639 0
1516 10533 14639 0
-4205 -5825 0
-4205 -9377 0
-5825 -9377 0
4205 5825 9377 0
-8021 -11029 0
-8021 -15010 0
-11029 -15010 0
8021 11029 15010 0
-15000 -15261 0
-15000 -15262 0
-15261 -15262 0
15000 15261 15262 0
-5897 -10692 0
-5897 -14006 0
-10692 -14006 0
5897 10692 14006 0
-2061 -4920 0
-2061 -12614 0
-4920 -12614 0
2061 4920 12614 0
-2052 -12796 0
-2052 -14746 0
-12796 -14746 0
2052 12796 14746 0
-4808 -15193 0
-4808 -15263 0
-15193 -15263 0
4808 15193 15263 0
-2761 -7949 0
-2761 -8246 0
-7949 -8246 0
2761 7949 8246 0
-380 -13483 0
-380 -14985 0
-13483 -14985 0
380 13483 14985 0
-12786 -13215 0
-12786 -15183 0
-13215 -15183 0
12786 13215 15183 0
-385 -12097 0
-385 -15264 0
-12097 -15264 0
385 12097 15264 0
-162 -3024 0
-162 -14142 0
-3024 -14142 0
162 3024 14142 0
-8550 -13295 0
-8550 -13335 0
-13295 -13335 0
8550 13295 13335 0
-2254 -9170 0
-2254 -14685 0
-9170 -14685 0
2254 9170 14685 0
-2103 -7844 0
-2103 -12474 0
-7844 -12474 0
2103 7844 12474 0
-1213 -7247 0
-1213 -11220 0
-7247 -11220 0
1213 7247 11220 0
-2295 -13463 0
-2295 -14950 0
-13463 -14950 0
2295 13463 14950 0
-9335 -14619 0
-9335 -15180 0
-14619 -15180 0
9335 14619 15180 0
-1761 -7923 0
-1761 -14730 0
-7923 -14730 0
1761 7923 14730 0
-13316 -13793 0
-13316 -15265 0
-13793 -15265 0
13316 13793 15265 0
-14068 -14611 0
-14068 -14911 0
-14611 -14911 0
14068 14611 14911 0
-8094 -14271 0
-8094 -14803 0
-14271 -14803 0
8094 14271 14803 0
-3535 -8250 0
-3535 -14247 0
-8250 -14247 0
3535 8250 14247 0
-3839 -8847 0
-3839 -15266 0
-8847 -15266 0
3839 8847 15266 0
-12706 -14959 0
-12706 -15267 0
-14959 -15267 0
12706 14959 15267 0
-13958 -14447 0
-13958 -14473 0
-14447 -14473 0
13958 14447 14473 0
-10541 -12242 0
-10541 -15268 0
-12242 -15268 0
10541 12242 15268 0
-8484 -13770 0
-8484 -15269 0
-13770 -15269 0
8484 13770 15269 0
-8933 -12400 0
-8933 -15184 0
-12400 -15184 0
8933 12400 15184 0
-8603 -10469 0
-8603 -15270 0
-10469 -15270 0
8603 10469 15270 0
-542 -14732 0
-542 -15271 0
-14732 -15271 0
542 14732 15271 0
-3625 -12675 0
-3625 -13064 0
-12675 -13064 0
3625 12675 13064 0
-3123 -11746 0
-3123 -15272 0
-11746 -15272 0
3123 11746 15272 0
-7449 -8361 0
-7449 -8769 0
-8361 -8769 0
7449 8361 8769 0
-12626 -13604 0
-12626 -15241 0
-13604 -15241 0
12626 13604 15241 0
-2990 -6889 0
-2990 -14459 0
-6889 -14459 0
2990 6889 14459 0
-3613 -10883 0
-3613 -13039 0
-10883 -13039 0
3613 10883 13039 0
-6928 -8013 0
-6928 -14563 0
-8013 -14563 0
6928 8013 14563 0
-8521 -14792 0
-8521 -15061 0
-14792 -15061 0
8521 14792 15061 0
-5193 -14656 0
-5193 -15188 0
-14656 -15188 0
5193 14656 15188 0
-1776 -10497 0
-1776 -13935 0
-10497 -13935 0
1776 10497 13935 0
-3868 -6649 0
-3868 -14887 0
-6649 -14887 0
3868 6649 14887 0
-3177 -7570 0
-3177 -15157 0
-7570 -15157 0
3177 7570 15157 0
-1661 -3477 0
-1661 -13342 0
-3477 -13342 0
1661 3477 13342 0
-1495 -2260 0
-1495 -14703 0
-2260 -14703 0
1495 2260 14703 0
-4206 -14344 0
-4206 -15273 0
-14344 -15273 0
4206 14344 15273 0
-7093 -15136 0
-7093 -15237 0
-15136 -15237 0
7093 15136 15237 0
-1485 -13356 0
-1485 -15274 0
-13356 -15274 0
1485 13356 15274 0
-11652 -12649 0
-11652 -13338 0
-12649 -13338 0
11652 12649 13338 0
-2535 -8309 0
-2535 -14140 0
-8309 -14140 0
2535 8309 14140 0
-6203 -14172 0
-6203 -15029 0
-14172 -15029 0
6203 14172 15029 0
-2311 -8903 0
-2311 -11437 0
-8903 -11437 0
2311 8903 11437 0
-1921 -2775 0
-1921 -8081 0
-2775 -8081 0
1921 2775 8081 0
-1778 -11107 0
-1778 -14839 0
-11107 -14839 0
1778 11107 14839 0
-7097 -13759 0
-7097 -15223 0
-13759 -15223 0
7097 13759 15223 0
-8148 -8703 0
-8148 -15275 0
-8703 -15275 0
8148 8703 15275 0
-4481 -13125 0
-4481 -15058 0
-13125 -15058 0
4481 13125 15058 0
-11973 -13469 0
-11973 -14610 0
-13469 -14610 0
11973 13469 14610 0
-11378 -14767 0
-11378 -15207 0
-14767 -15207 0
11378 14767 15207 0
-10157 -14036 0
-10157 -15268 0
-14036 -15268 0
10157 14036 15268 0
-4469 -12906 0
-4469 -14846 0
-12906 -14846 0
4469 12906 14846 0
-10522 -12953 0
-10522 -14482 0
-12953 -14482 0
10522 12953 14482 0
-5936 -9303 0
-5936 -14699 0
-9303 -14699 0
5936 9303 14699 0
-1122 -7506 0
-1122 -9351 0
-7506 -9351 0
1122 7506 9351 0
-5009 -11228 0
-5009 -15040 0
-11228 -15040 0
5009 11228 15040 0
-383 -8194 0
-383 -11155 0
-8194 -11155 0
383 8194 11155 0
-2599 -6289 0
-2599 -15047 0
-6289 -15047 0
2599 6289 15047 0
-8999 -14294 0
-8999 -15194 0
-14294 -15194 0
8999 14294 15194 0
-3304 -11896 0
-3304 -14759 0
-11896 -14759 0
3304 11896 14759 0
-11306 -12059 0
-11306 -13933 0
-12059 -13933 0
11306 12059 13933 0
-10912 -11544 0
-10912 -14523 0
-11544 -14523 0
10912 11544 14523 0
-4575 -5741 0
-4575 -15227 0
-5741 -15227 0
4575 5741 15227 0
-10718 -11894 0
-10718 -12214 0
-11894 -12214 0
10718 11894 12214 0
-2367 -2850 0
-2367 -13148 0
-2850 -13148 0
2367 2850 13148 0
-7258 -8686 0
-7258 -13872 0
-8686 -13872 0
7258 8686 13872 0
-9249 -12475 0
-9249 -14327 0
-12475 -14327 0
9249 12475 14327 0
-126 -8659 0
-126 -14493 0
-8659 -14493 0
126 8659 14493 0
-5857 -9044 0
-5857 -11334 0
-9044 -11334 0
5857 9044 11334 0
-4732 -15133 0
-4732 -15276 0
-15133 -15276 0
4732 15133 15276 0
-3866 -14800 0
-3866 -15277 0
-14800 -15277 0
3866 14800 15277 0
-8921 -13879 0
-8921 -14561 0
-13879 -14561 0
8921 13879 14561 0
-13226 -15278 0
-13226 -15279 0
-15278 -15279 0
13226 15278 15279 0
-7940 -13915 0
-7940 -15280 0
-13915 -15280 0
7940 13915 15280 0
-7262 -14200 0
-7262 -14814 0
-14200 -14814 0
7262 14200 14814 0
-7192 -11710 0
-7192 -14115 0
-11710 -14115 0
7192 11710 14115 0
-10057 -10359 0
-10057 -12376 0
-10359 -12376 0
10057 10359 12376 0
-6083 -9443 0
-6083 -12085 0
-9443 -12085 0
6083 9443 12085 0
-7435 -14785 0
-7435 -15277 0
-14785 -15277 0
7435 14785 15277 0
-5600 -7040 0
-5600 -14946 0
-7040 -14946 0
5600 7040 14946 0
-8370 -8473 0
-8370 -13923 0
-8473 -13923 0
8370 8473 13923 0
-7678 -10765 0
-7678 -15281 0
-10765 -15281 0
7678 10765 15281 0
-2272 -11548 0
-2272 -12868 0
-11548 -12868 0
2272 11548 12868 0
-4086 -11013 0
-4086 -15282 0
-11013 -15282 0
4086 11013 15282 0
-2922 -4838 0
-2922 -14895 0
-4838 -14895 0
2922 4838 14895 0
-212 -4296 0
-212 -9075 0
-4296 -9075 0
212 4296 9075 0
-2190 -3823 0
-2190 -15283 0
-3823 -15283 0
2190 3823 15283 0
-4816 -14557 0
-4816 -14988 0
-14557 -14988 0
4816 14557 14988 0
-11865 -13746 0
-11865 -15236 0
-13746 -15236 0
11865 13746 15236 0
-1198 -8186 0
-1198 -15247 0
-8186 -15247 0
1198 8186 15247 0
-13075 -15113 0
-13075 -15284 0
-15113 -15284 0
13075 15113 15284 0
-2027 -14595 0
-2027 -15264 0
-14595 -15264 0
2027 14595 15264 0
-2536 -12961 0
-2536 -15178 0
-12961 -15178 0
2536 12961 15178 0
-3634 -5991 0
-3634 -15182 0
-5991 -15182 0
3634 5991 15182 0
-1472 -7609 0
-1472 -15285 0
-7609 -15285 0
1472 7609 15285 0
-10511 -12984 0
-10511 -14158 0
-12984 -14158 0
10511 12984 14158 0
-13694 -13781 0
-13694 -15093 0
-13781 -15093 0
13694 13781 15093 0
-1005 -4065 0
-1005 -14881 0
-4065 -14881 0
1005 4065 14881 0
-7952 -11408 0
-7952 -14462 0
-11408 -14462 0
7952 11408 14462 0
-45 -683 0
-45 -3293 0
-683 -3293 0
45 683 3293 0
-2767 -12642 0
-2767 -13251 0
-12642 -13251 0
2767 12642 13251 0
-3037 -9462 0
-3037 -15286 0
-9462 -15286 0
3037 9462 15286 0
-5802 -8810 0
-5802 -12069 0
-8810 -12069 0
5802 8810 12069 0
-8234 -14043 0
-8234 -15287 0
-14043 -15287 0
8234 14043 15287 0
-1049 -2896 0
-1049 -12537 0
-2896 -12537 0
1049 2896 12537 0
-775 -12458 0
-775 -15084 0
-12458 -15084 0
775 12458 15084 0
-1767 -9151 0
-1767 -10893 0
-9151 -10893 0
1767 9151 10893 0
-320 -3400 0
-320 -7898 0
-3400 -7898 0
320 3400 7898 0
-5791 -9658 0
-5791 -11031 0
-9658 -11031 0
5791 9658 11031 0
-3841 -4500 0
-3841 -4610 0
-4500 -4610 0
3841 4500 4610 0
-14301 -14398 0
-14301 -15288 0
-14398 -15288 0
14301 14398 15288 0
-6505 -10311 0
-6505 -15064 0
-10311 -15064 0
6505 10311 15064 0
-12209 -14061 0
-12209 -14926 0
-14061 -14926 0
12209 14061 14926 0
-1010 -12441 0
-1010 -14371 0
-12441 -14371 0
1010 12441 14371 0
-10786 -15233 0
-10786 -15273 0
-15233 -15273 0
10786 15233 15273 0
-4833 -7804 0
-4833 -10143 0
-7804 -10143 0
4833 7804 10143 0
-353 -13874 0
-353 -14012 0
-13874 -14012 0
353 13874 14012 0
-10438 -12143 0
-10438 -15270 0
-12143 -15270 0
10438 12143 15270 0
-966 -9926 0
-966 -12215 0
-9926 -12215 0
966 9926 12215 0
-12898 -14054 0
-12898 -14995 0
-14054 -14995 0
12898 14054 14995 0
-11592 -15254 0
-11592 -15276 0
-15254 -15276 0
11592 15254 15276 0
-2738 -14423 0
-2738 -14627 0
-14423 -14627 0
2738 14423 14627 0
-1586 -15080 0
-1586 -15289 0
-15080 -15289 0
1586 15080 15289 0
-4971 -12816 0
-4971 -13326 0
-12816 -13326 0
4971 12816 13326 0
-2400 -14681 0
-2400 -14748 0
-14681 -14748 0
2400 14681 14748 0
-11130 -12781 0
-11130 -15290 0
-12781 -15290 0
11130 12781 15290 0
-4027 -6957 0
-4027 -14804 0
-6957 -14804 0
4027 6957 14804 0
-11786 -13422 0
-11786 -14513 0
-13422 -14513 0
11786 13422 14513 0
-1601 -11779 0
-1601 -15252 0
-11779 -15252 0
1601 11779 15252 0
-1408 -7886 0
-1408 -15291 0
-7886 -15291 0
1408 7886 15291 0
-10720 -14900 0
-10720 -15218 0
-14900 -15218 0
10720 14900 15218 0
-13004 -13788 0
-13004 -14079 0
-13788 -14079 0
13004 13788 14079 0
-7057 -13858 0
-7057 -15292 0
-13858 -15292 0
7057 13858 15292 0
-7447 -10991 0
-7447 -15293 0
-10991 -15293 0
7447 10991 15293 0
-5703 -12193 0
-5703 -15118 0
-12193 -15118 0
5703 12193 15118 0
-2545 -6942 0
-2545 -9475 0
-6942 -9475 0
2545 6942 9475 0
-8290 -13548 0
-8290 -15045 0
-13548 -15045 0
8290 13548 15045 0
-6088 -13072 0
-6088 -15294 0
-13072 -15294 0
6088 13072 15294 0
-12263 -13655 0
-12263 -14476 0
-13655 -14476 0
12263 13655 14476 0
-794 -12891 0
-794 -14402 0
-12891 -14402 0
794 12891 14402 0
-13369 -14754 0
-13369 -14978 0
-14754 -14978 0
13369 14754 14978 0
-4430 -4603 0
-4430 -7927 0
-4603 -7927 0
4430 4603 7927 0
-6864 -12265 0
-6864 -14020 0
-12265 -14020 0
6864 12265 14020 0
-12450 -12464 0
-12450 -12814 0
-12464 -12814 0
12450 12464 12814 0
-5705 -8178 0
-5705 -12342 0
-8178 -12342 0
5705 8178 12342 0
-3763 -7825 0
-3763 -12099 0
-7825 -12099 0
3763 7825 12099 0
-764 -8403 0
-764 -8851 0
-8403 -8851 0
764 8403 8851 0
-6133 -9605 0
-6133 -15295 0
-9605 -15295 0
6133 9605 15295 0
-525 -4511 0
-525 -13679 0
-4511 -13679 0
525 4511 13679 0
-7978 -14062 0
-7978 -14867 0
-14062 -14867 0
7978 14062 14867 0
-4924 -13425 0
-4924 -14608 0
-13425 -14608 0
4924 13425 14608 0
-11766 -11821 0
-11766 -15079 0
-11821 -15079 0
11766 11821 15079 0
-11799 -12966 0
-11799 -14076 0
-12966 -14076 0
11799 12966 14076 0
-4201 -6824 0
-4201 -15296 0
-6824 -15296 0
4201 6824 15296 0
-701 -5549 0
-701 -13787 0
-5549 -13787 0
701 5549 13787 0
-11052 -13801 0
-11052 -15050 0
-13801 -15050 0
11052 13801 15050 0
-11589 -14357 0
-11589 -14725 0
-14357 -14725 0
11589 14357 14725 0
-1241 -11603 0
-1241 -14863 0
-11603 -14863 0
1241 11603 14863 0
-1232 -5925 0
-1232 -10000 0
-5925 -10000 0
1232 5925 10000 0
-1948 -9285 0
-1948 -12866 0
-9285 -12866 0
1948 9285 12866 0
-6902 -13299 0
-6902 -14788 0
-13299 -14788 0
6902 13299 14788 0
-1607 -12833 0
-1607 -13252 0
-12833 -13252 0
1607 12833 13252 0
-1002 -7532 0
-1002 -14245 0
-7532 -14245 0
1002 7532 14245 0
-7064 -9458 0
-7064 -11690 0
-9458 -11690 0
7064 9458 11690 0
-1024 -13686 0
-1024 -14532 0
-13686 -14532 0
1024 13686 14532 0
-7708 -11011 0
-7708 -14893 0
-11011 -14893 0
7708 11011 14893 0
-12125 -13493 0
-12125 -14567 0
-13493 -14567 0
12125 13493 14567 0
-6015 -14139 0
-6015 -14637 0
-14139 -14637 0
6015 14139 14637 0
-7081 -10929 0
-7081 -13237 0
-10929 -13237 0
7081 10929 13237 0
-495 -2038 0
-495 -10329 0
-2038 -10329 0
495 2038 10329 0
-6061 -6220 0
-6061 -14805 0
-6220 -14805 0
6061 6220 14805 0
-1805 -13379 0
-1805 -15297 0
-13379 -15297 0
1805 13379 15297 0
-2351 -9083 0
-2351 -14504 0
-9083 -14504 0
2351 9083 14504 0
-8367 -11804 0
-8367 -15082 0
-11804 -15082 0
8367 11804 15082 0
-2043 -12456 0
-2043 -13147 0
-12456 -13147 0
2043 12456 13147 0
-7450 -9510 0
-7450 -12198 0
-9510 -12198 0
7450 9510 12198 0
-2758 -3257 0
-2758 -12936 0
-3257 -12936 0
2758 3257 12936 0
-577 -10669 0
-577 -13287 0
-10669 -13287 0
577 10669 13287 0
-8319 -13607 0
-8319 -14937 0
-13607 -14937 0
8319 13607 14937 0
-14715 -15166 0
-14715 -15249 0
-15166 -15249 0
14715 15166 15249 0
-5426 -8719 0
-5426 -14658 0
-8719 -14658 0
5426 8719 14658 0
-10043 -14470 0
-10043 -14829 0
-14470 -14829 0
10043 14470 14829 0
-7963 -11054 0
-7963 -15234 0
-11054 -15234 0
7963 11054 15234 0
-4313 -8087 0
-4313 -12324 0
-8087 -12324 0
4313 8087 12324 0
-9060 -10064 0
-9060 -15206 0
-10064 -15206 0
9060 10064 15206 0
-4304 -9816 0
-4304 -13507 0
-9816 -13507 0
4304 9816 13507 0
-8532 -12269 0
-8532 -15298 0
-12269 -15298 0
8532 12269 15298 0
-3003 -13188 0
-3003 -14990 0
-13188 -14990 0
3003 13188 14990 0
-6800 -12419 0
-6800 -15299 0
-12419 -15299 0
6800 12419 15299 0
-1054 -3682 0
-1054 -9805 0
-3682 -9805 0
1054 3682 9805 0
-6848 -10336 0
-6848 -11688 0
-10336 -11688 0
6848 10336 11688 0
-9010 -11693 0
-9010 -14622 0
-11693 -14622 0
9010 11693 14622 0
-12420 -14975 0
-12420 -15107 0
-14975 -15107 0
12420 14975 15107 0
-1950 -14648 0
-1950 -15087 0
-14648 -15087 0
1950 14648 15087 0
-3672 -3800 0
-3672 -12999 0
-3800 -12999 0
3672 3800 12999 0
-2550 -8541 0
-2550 -11350 0
-8541 -11350 0
2550 8541 11350 0
-6633 -10485 0
-6633 -10655 0
-10485 -10655 0
6633 10485 10655 0
-9749 -14063 0
-9749 -14143 0
-14063 -14143 0
9749 14063 14143 0
-8291 -14392 0
-8291 -14663 0
-14392 -14663 0
8291 14392 14663 0
-688 -2417 0
-688 -11066 0
-2417 -11066 0
688 2417 11066 0
-6024 -14031 0
-6024 -15222 0
-14031 -15222 0
6024 14031 15222 0
-14083 -14633 0
-14083 -15300 0
-14633 -15300 0
14083 14633 15300 0
-839 -3064 0
-839 -5584 0
-3064 -5584 0
839 3064 5584 0
-1376 -6611 0
-1376 -13553 0
-6611 -13553 0
1376 6611 13553 0
-2089 -8214 0
-2089 -15301 0
-8214 -15301 0
2089 8214 15301 0
-4054 -12931 0
-4054 -14644 0
-12931 -14644 0
4054 12931 14644 0
-13934 -14605 0
-13934 -15189 0
-14605 -15189 0
13934 14605 15189 0
-13370 -13629 0
-13370 -15177 0
-13629 -15177 0
13370 13629 15177 0
-7964 -10383 0
-7964 -11237 0
-10383 -11237 0
7964 10383 11237 0
-9029 -12635 0
-9029 -12938 0
-12635 -12938 0
9029 12635 12938 0
-722 -4121 0
-722 -12407 0
-4121 -12407 0
722 4121 12407 0
-5456 -9706 0
-5456 -13554 0
-9706 -13554 0
5456 9706 13554 0
-3683 -6836 0
-3683 -13489 0
-6836 -13489 0
3683 6836 13489 0
-2357 -3220 0
-2357 -15191 0
-3220 -15191 0
2357 3220 15191 0
-14161 -14631 0
-14161 -14704 0
-14631 -14704 0
14161 14631 14704 0
-7905 -13269 0
-7905 -14928 0
-13269 -14928 0
7905 13269 14928 0
-5105 -14592 0
-5105 -15116 0
-14592 -15116 0
5105 14592 15116 0
-13884 -14942 0
-13884 -15302 0
-14942 -15302 0
13884 14942 15302 0
-4390 -10160 0
-4390 -13048 0
-10160 -13048 0
4390 10160 13048 0
-8811 -10225 0
-8811 -12106 0
-10225 -12106 0
8811 10225 12106 0
-4133 -9137 0
-4133 -14295 0
-9137 -14295 0
4133 9137 14295 0
-5678 -9403 0
-5678 -15303 0
-9403 -15303 0
5678 9403 15303 0
-11902 -12717 0
-11902 -15038 0
-12717 -15038 0
11902 12717 15038 0
-2614 -11182 0
-2614 -15261 0
-11182 -15261 0
2614 11182 15261 0
-586 -6830 0
-586 -9056 0
-6830 -9056 0
586 6830 9056 0
-2090 -11361 0
-2090 -15287 0
-11361 -15287 0
2090 11361 15287 0
-11254 -13598 0
-11254 -14477 0
-13598 -14477 0
11254 13598 14477 0
-14816 -15240 0
-14816 -15304 0
-15240 -15304 0
14816 15240 15304 0
-3998 -5266 0
-3998 -11742 0
-5266 -11742 0
3998 5266 11742 0
-5898 -10836 0
-5898 -15302 0
-10836 -15302 0
5898 10836 15302 0
-12074 -14249 0
-12074 -14996 0
-14249 -14996 0
12074 14249 14996 0
-8097 -15021 0
-8097 -15251 0
-15021 -15251 0
8097 15021 15251 0
-2684 -4723 0
-2684 -8800 0
-4723 -8800 0
2684 4723 8800 0
-2749 -11731 0
-2749 -14991 0
-11731 -14991 0
2749 11731 14991 0
-4474 -10179 0
-4474 -15305 0
-10179 -15305 0
4474 10179 15305 0
-13388 -13755 0
-13388 -14692 0
-13755 -14692 0
13388 13755 14692 0
-5091 -8371 0
-5091 -12461 0
-8371 -12461 0
5091 8371 12461 0
-7408 -10155 0
-7408 -14709 0
-10155 -14709 0
7408 10155 14709 0
-4660 -15141 0
-4660 -15303 0
-15141 -15303 0
4660 15141 15303 0
-4612 -12601 0
-4612 -15167 0
-12601 -15167 0
4612 12601 15167 0
-386 -13255 0
-386 -14898 0
-13255 -14898 0
386 13255 14898 0
-423 -4506 0
-423 -12015 0
-4506 -12015 0
423 4506 12015 0
-9654 -10615 0
-9654 -13550 0
-10615 -13550 0
9654 10615 13550 0
-978 -1346 0
-978 -5470 0
-1346 -5470 0
978 1346 5470 0
-10058 -13899 0
-10058 -15306 0
-13899 -15306 0
10058 13899 15306 0
-12184 -12808 0
-12184 -13497 0
-12808 -13497 0
12184 12808 13497 0
-12476 -14503 0
-12476 -14597 0
-14503 -14597 0
12476 14503 14597 0
-1989 -13088 0
-1989 -15307 0
-13088 -15307 0
1989 13088 15307 0
-5075 -9682 0
-5075 -14311 0
-9682 -14311 0
5075 9682 14311 0
-8435 -14764 0
-8435 -15308 0
-14764 -15308 0
8435 14764 15308 0
-4382 -7696 0
-4382 -12875 0
-7696 -12875 0
4382 7696 12875 0
-6429 -13620 0
-6429 -14649 0
-13620 -14649 0
6429 13620 14649 0
-3662 -14167 0
-3662 -15309 0
-14167 -15309 0
3662 14167 15309 0
-12477 -13363 0
-12477 -13653 0
-13363 -13653 0
12477 13363 13653 0
-7470 -7884 0
-7470 -14125 0
-7884 -14125 0
7470 7884 14125 0
-9453 -14094 0
-9453 -14933 0
-14094 -14933 0
9453 14094 14933 0
-9459 -9865 0
-9459 -11271 0
-9865 -11271 0
9459 9865 11271 0
-3072 -10270 0
-3072 -10360 0
-10270 -10360 0
3072 10270 10360 0
-10657 -11907 0
-10657 -13481 0
-11907 -13481 0
10657 11907 13481 0
-8428 -15310 0
-8428 -15311 0
-15310 -15311 0
8428 15310 15311 0
-253 -7899 0
-253 -14897 0
-7899 -14897 0
253 7899 14897 0
-10512 -11665 0
-10512 -14873 0
-11665 -14873 0
10512 11665 14873 0
-961 -2221 0
-961 -8052 0
-2221 -8052 0
961 2221 8052 0
-11404 -11619 0
-11404 -13642 0
-11619 -13642 0
11404 11619 13642 0
-1537 -7521 0
-1537 -7916 0
-7521 -7916 0
1537 7521 7916 0
-4246 -9616 0
-4246 -11886 0
-9616 -11886 0
4246 9616 11886 0
-5647 -9353 0
-5647 -15312 0
-9353 -15312 0
5647 9353 15312 0
-13931 -14406 0
-13931 -15034 0
-14406 -15034 0
13931 14406 15034 0
-2980 -3348 0
-2980 -15175 0
-3348 -15175 0
2980 3348 15175 0
-12542 -12876 0
-12542 -15313 0
-12876 -15313 0
12542 12876 15313 0
-10706 -13946 0
-10706 -14751 0
-13946 -14751 0
10706 13946 14751 0
-10292 -14399 0
-10292 -14744 0
-14399 -14744 0
10292 14399 14744 0
-4184 -11681 0
-4184 -15312 0
-11681 -15312 0
4184 11681 15312 0
-13136 -15074 0
-13136 -15090 0
-15074 -15090 0
13136 15074 15090 0
-1999 -3186 0
-1999 -12246 0
-3186 -12246 0
1999 3186 12246 0
-4455 -12692 0
-4455 -15314 0
-12692 -15314 0
4455 12692 15314 0
-8498 -10349 0
-8498 -14576 0
-10349 -14576 0
8498 10349 14576 0
-9671 -10809 0
-9671 -14667 0
-10809 -14667 0
9671 10809 14667 0
-4416 -9139 0
-4416 -12963 0
-9139 -12963 0
4416 9139 12963 0
-13953 -15265 0
-13953 -15315 0
-15265 -15315 0
13953 15265 15315 0
-2000 -4356 0
-2000 -15316 0
-4356 -15316 0
2000 4356 15316 0
-2223 -14365 0
-2223 -15271 0
-14365 -15271 0
2223 14365 15271 0
-5607 -11743 0
-5607 -15308 0
-11743 -15308 0
5607 11743 15308 0
-5067 -6596 0
-5067 -14385 0
-6596 -14385 0
5067 6596 14385 0
-2880 -11522 0
-2880 -15317 0
-11522 -15317 0
2880 11522 15317 0
-7526 -7809 0
-7526 -14082 0
-7809 -14082 0
7526 7809 14082 0
-6030 -9996 0
-6030 -15318 0
-9996 -15318 0
6030 9996 15318 0
-9628 -11740 0
-9628 -15280 0
-11740 -15280 0
9628 11740 15280 0
-14397 -14510 0
-14397 -15289 0
-14510 -15289 0
14397 14510 15289 0
-4643 -14302 0
-4643 -15108 0
-14302 -15108 0
4643 14302 15108 0
-9551 -13807 0
-9551 -15319 0
-13807 -15319 0
9551 13807 15319 0
-654 -6180 0
-654 -7050 0
-6180 -7050 0
654 6180 7050 0
-5275 -12700 0
-5275 -14250 0
-12700 -14250 0
5275 12700 14250 0
-182 -12882 0
-182 -14969 0
-12882 -14969 0
182 12882 14969 0
-1441 -2198 0
-1441 -3652 0
-2198 -3652 0
1441 2198 3652 0
-7823 -10762 0
-7823 -11873 0
-10762 -11873 0
7823 10762 11873 0
-11352 -12133 0
-11352 -14615 0
-12133 -14615 0
11352 12133 14615 0
-12243 -14127 0
-12243 -14860 0
-14127 -14860 0
12243 14127 14860 0
-2582 -12390 0
-2582 -15284 0
-12390 -15284 0
2582 12390 15284 0
-875 -3318 0
-875 -14899 0
-3318 -14899 0
875 3318 14899 0
-917 -9059 0
-917 -14626 0
-9059 -14626 0
917 9059 14626 0
-3026 -9866 0
-3026 -11208 0
-9866 -11208 0
3026 9866 11208 0
-12267 -13848 0
-12267 -15026 0
-13848 -15026 0
12267 13848 15026 0
-4333 -9496 0
-4333 -15149 0
-9496 -15149 0
4333 9496 15149 0
-8710 -13757 0
-8710 -14799 0
-13757 -14799 0
8710 13757 14799 0
-6000 -8882 0
-6000 -15320 0
-8882 -15320 0
6000 8882 15320 0
-13827 -14239 0
-13827 -15215 0
-14239 -15215 0
13827 14239 15215 0
-7385 -9911 0
-7385 -11058 0
-9911 -11058 0
7385 9911 11058 0
-2308 -7840 0
-2308 -15013 0
-7840 -15013 0
2308 7840 15013 0
-4621 -8966 0
-4621 -12960 0
-8966 -12960 0
4621 8966 12960 0
-1708 -6522 0
-1708 -9995 0
-6522 -9995 0
1708 6522 9995 0
-8477 -12708 0
-8477 -14277 0
-12708 -14277 0
8477 12708 14277 0
-3783 -9672 0
-3783 -14030 0
-9672 -14030 0
3783 9672 14030 0
-2943 -6825 0
-2943 -15321 0
-6825 -15321 0
2943 6825 15321 0
-5980 -6807 0
-5980 -7482 0
-6807 -7482 0
5980 6807 7482 0
-2981 -6814 0
-2981 -9890 0
-6814 -9890 0
2981 6814 9890 0
-10222 -13053 0
-10222 -15228 0
-13053 -15228 0
10222 13053 15228 0
-825 -1897 0
-825 -15105 0
-1897 -15105 0
825 1897 15105 0
-568 -5405 0
-568 -9685 0
-5405 -9685 0
568 5405 9685 0
-7396 -13936 0
-7396 -14338 0
-13936 -14338 0
7396 13936 14338 0
-3067 -12510 0
-3067 -13984 0
-12510 -13984 0
3067 12510 13984 0
-290 -1284 0
-290 -11304 0
-1284 -11304 0
290 1284 11304 0
-7430 -12958 0
-7430 -13104 0
-12958 -13104 0
7430 12958 13104 0
-410 -13690 0
-410 -15027 0
-13690 -15027 0
410 13690 15027 0
-1702 -6730 0
-1702 -8866 0
-6730 -8866 0
1702 6730 8866 0
-857 -9893 0
-857 -11921 0
-9893 -11921 0
857 9893 11921 0
-287 -9479 0
-287 -15235 0
-9479 -15235 0
287 9479 15235 0
-3363 -3460 0
-3363 -11312 0
-3460 -11312 0
3363 3460 11312 0
-7304 -8817 0
-7304 -15299 0
-8817 -15299 0
7304 8817 15299 0
-4615 -14823 0
-4615 -14948 0
-14823 -14948 0
4615 14823 14948 0
-368 -7872 0
-368 -11353 0
-7872 -11353 0
368 7872 11353 0
-4253 -12252 0
-4253 -12819 0
-12252 -12819 0
4253 12252 12819 0
-10584 -14869 0
-10584 -15239 0
-14869 -15239 0
10584 14869 15239 0
-8011 -9497 0
-8011 -13699 0
-9497 -13699 0
8011 9497 13699 0
-11116 -14340 0
-11116 -15163 0
-14340 -15163 0
11116 14340 15163 0
-9229 -14070 0
-9229 -14122 0
-14070 -14122 0
9229 14070 14122 0
-3354 -12219 0
-3354 -12550 0
-12219 -12550 0
3354 12219 12550 0
-1746 -7993 0
-1746 -14350 0
-7993 -14350 0
1746 7993 14350 0
-273 -6338 0
-273 -10506 0
-6338 -10506 0
273 6338 10506 0
-10486 -14390 0
-10486 -15317 0
-14390 -15317 0
10486 14390 15317 0
-13454 -13965 0
-13454 -15059 0
-13965 -15059 0
13454 13965 15059 0
-2408 -7279 0
-2408 -12576 0
-7279 -12576 0
2408 7279 12576 0
-5427 -5539 0
-5427 -7603 0
-5539 -7603 0
5427 5539 7603 0
-4210 -12733 0
-4210 -15322 0
-12733 -15322 0
4210 12733 15322 0
-11703 -11758 0
-11703 -14080 0
-11758 -14080 0
11703 11758 14080 0
-8378 -14606 0
-8378 -15323 0
-14606 -15323 0
8378 14606 15323 0
-2049 -5100 0
-2049 -12347 0
-5100 -12347 0
2049 5100 12347 0
-7636 -13170 0
-7636 -14801 0
-13170 -14801 0
7636 13170 14801 0
-8313 -11876 0
-8313 -14872 0
-11876 -14872 0
8313 11876 14872 0
-2354 -9061 0
-2354 -10861 0
-9061 -10861 0
2354 9061 10861 0
-8295 -14851 0
-8295 -14894 0
-14851 -14894 0
8295 14851 14894 0
-9067 -12551 0
-9067 -13360 0
-12551 -13360 0
9067 12551 13360 0
-2186 -8149 0
-2186 -12941 0
-8149 -12941 0
2186 8149 12941 0
-4539 -7471 0
-4539 -7581 0
-7471 -7581 0
4539 7471 7581 0
-3195 -15186 0
-3195 -15293 0
-15186 -15293 0
3195 15186 15293 0
-2558 -9460 0
-2558 -13700 0
-9460 -13700 0
2558 9460 13700 0
-10788 -11640 0
-10788 -14955 0
-11640 -14955 0
10788 11640 14955 0
-10822 -13070 0
-10822 -13107 0
-13070 -13107 0
10822 13070 13107 0
-539 -4989 0
-539 -12425 0
-4989 -12425 0
539 4989 12425 0
-2121 -7554 0
-2121 -15190 0
-7554 -15190 0
2121 7554 15190 0
-7638 -14549 0
-7638 -14810 0
-14549 -14810 0
7638 14549 14810 0
-14178 -14765 0
-14178 -15324 0
-14765 -15324 0
14178 14765 15324 0
-9505 -14545 0
-9505 -15176 0
-14545 -15176 0
9505 14545 15176 0
-7181 -14242 0
-7181 -14763 0
-14242 -14763 0
7181 14242 14763 0
-2751 -9965 0
-2751 -10679 0
-9965 -10679 0
2751 9965 10679 0
-8376 -10962 0
-8376 -13155 0
-10962 -13155 0
8376 10962 13155 0
-10180 -12871 0
-10180 -15325 0
-12871 -15325 0
10180 12871 15325 0
-14929 -15075 0
-14929 -15134 0
-15075 -15134 0
14929 15075 15134 0
-8576 -13086 0
-8576 -15283 0
-13086 -15283 0
8576 13086 15283 0
-9272 -9780 0
-9272 -15326 0
-9780 -15326 0
9272 9780 15326 0
-3128 -8926 0
-3128 -15145 0
-8926 -15145 0
3128 8926 15145 0
-1014 -6958 0
-1014 -13202 0
-6958 -13202 0
1014 6958 13202 0
-5367 -7429 0
-5367 -7829 0
-7429 -7829 0
5367 7429 7829 0
-13568 -15281 0
-13568 -15319 0
-15281 -15319 0
13568 15281 15319 0
-7674 -15083 0
-7674 -15315 0
-15083 -15315 0
7674 15083 15315 0
-2145 -9451 0
-2145 -9936 0
-9451 -9936 0
2145 9451 9936 0
-5964 -9620 0
-5964 -13993 0
-9620 -13993 0
5964 9620 13993 0
-1334 -13289 0
-1334 -15327 0
-13289 -15327 0
1334 13289 15327 0
-69 -13973 0
-69 -15328 0
-13973 -15328 0
69 13973 15328 0
-12988 -14698 0
-12988 -15300 0
-14698 -15300 0
12988 14698 15300 0
-8125 -10314 0
-8125 -14925 0
-10314 -14925 0
8125 10314 14925 0
-9533 -14028 0
-9533 -15329 0
-14028 -15329 0
9533 14028 15329 0
-3169 -7479 0
-3169 -15210 0
-7479 -15210 0
3169 7479 15210 0
-15225 -15330 0
-15225 -15331 0
-15330 -15331 0
15225 15330 15331 0
-9773 -11499 0
-9773 -14104 0
-11499 -14104 0
9773 11499 14104 0
-2368 -3795 0
-2368 -7007 0
-3795 -7007 0
2368 3795 7007 0
-12217 -13810 0
-12217 -13994 0
-13810 -13994 0
12217 13810 13994 0
-10736 -13171 0
-10736 -14957 0
-13171 -14957 0
10736 13171 14957 0
-3689 -14332 0
-3689 -15332 0
-14332 -15332 0
3689 14332 15332 0
-4782 -15313 0
-4782 -15333 0
-15313 -15333 0
4782 15313 15333 0
-13114 -14468 0
-13114 -15138 0
-14468 -15138 0
13114 14468 15138 0
-11362 -14876 0
-11362 -15121 0
-14876 -15121 0
11362 14876 15121 0
-10494 -11724 0
-10494 -14155 0
-11724 -14155 0
10494 11724 14155 0
-11895 -12259 0
-11895 -15250 0
-12259 -15250 0
11895 12259 15250 0
-8252 -13835 0
-8252 -15153 0
-13835 -15153 0
8252 13835 15153 0
-3380 -11531 0
-3380 -14521 0
-11531 -14521 0
3380 11531 14521 0
-4357 -13499 0
-4357 -15067 0
-13499 -15067 0
4357 13499 15067 0
-761 -4666 0
-761 -12539 0
-4666 -12539 0
761 4666 12539 0
-2277 -13601 0
-2277 -15231 0
-13601 -15231 0
2277 13601 15231 0
-9201 -12669 0
-9201 -15334 0
-12669 -15334 0
9201 12669 15334 0
-6136 -7582 0
-6136 -14936 0
-7582 -14936 0
6136 7582 14936 0
-6906 -14149 0
-6906 -14456 0
-14149 -14456 0
6906 14149 14456 0
-12655 -13533 0
-12655 -14432 0
-13533 -14432 0
12655 13533 14432 0
-3670 -13246 0
-3670 -14077 0
-13246 -14077 0
3670 13246 14077 0
-8047 -13870 0
-8047 -14512 0
-13870 -14512 0
8047 13870 14512 0
-9534 -10590 0
-9534 -11521 0
-10590 -11521 0
9534 10590 11521 0
-1473 -4650 0
-1473 -12129 0
-4650 -12129 0
1473 4650 12129 0
-179 -4700 0
-179 -14547 0
-4700 -14547 0
179 4700 14547 0
-13182 -15046 0
-13182 -15335 0
-15046 -15335 0
13182 15046 15335 0
-10623 -11753 0
-10623 -14713 0
-11753 -14713 0
10623 11753 14713 0
-63 -7158 0
-63 -7687 0
-7158 -7687 0
63 7158 7687 0
-9426 -9556 0
-9426 -15336 0
-9556 -15336 0
9426 9556 15336 0
-14176 -14449 0
-14176 -14620 0
-14449 -14620 0
14176 14449 14620 0
-6841 -11293 0
-6841 -14355 0
-11293 -14355 0
6841 11293 14355 0
-6108 -9661 0
-6108 -12793 0
-9661 -12793 0
6108 9661 12793 0
-4604 -8406 0
-4604 -13956 0
-8406 -13956 0
4604 8406 13956 0
-1244 -13475 0
-1244 -15337 0
-13475 -15337 0
1244 13475 15337 0
-4689 -13549 0
-4689 -14466 0
-13549 -14466 0
4689 13549 14466 0
-3120 -5506 0
-3120 -10408 0
-5506 -10408 0
3120 5506 10408 0
-14018 -14966 0
-14018 -15338 0
-14966 -15338 0
14018 14966 15338 0
-1787 -11991 0
-1787 -14678 0
-11991 -14678 0
1787 11991 14678 0
-9033 -13386 0
-9033 -15070 0
-13386 -15070 0
9033 13386 15070 0
-9488 -14407 0
-9488 -14777 0
-14407 -14777 0
9488 14407 14777 0
-13281 -13495 0
-13281 -14065 0
-13495 -14065 0
13281 13495 14065 0
-5797 -10363 0
-5797 -14240 0
-10363 -14240 0
5797 10363 14240 0
-11231 -12334 0
-11231 -14429 0
-12334 -14429 0
11231 12334 14429 0
-12666 -13571 0
-12666 -15339 0
-13571 -15339 0
12666 13571 15339 0
-8721 -10715 0
-8721 -15069 0
-10715 -15069 0
8721 10715 15069 0
-5349 -6188 0
-5349 -10456 0
-6188 -10456 0
5349 6188 10456 0
-27 -12555 0
-27 -15049 0
-12555 -15049 0
27 12555 15049 0
-11868 -14784 0
-11868 -14952 0
-14784 -14952 0
11868 14784 14952 0
-247 -8000 0
-247 -15169 0
-8000 -15169 0
247 8000 15169 0
-1793 -1889 0
-1793 -15126 0
-1889 -15126 0
1793 1889 15126 0
-14458 -15172 0
-14458 -15290 0
-15172 -15290 0
14458 15172 15290 0
-5451 -8201 0
-5451 -15219 0
-8201 -15219 0
5451 8201 15219 0
-8870 -14808 0
-8870 -15334 0
-14808 -15334 0
8870 14808 15334 0
-3596 -10390 0
-3596 -10897 0
-10390 -10897 0
3596 10390 10897 0
-5194 -6523 0
-5194 -11275 0
-6523 -11275 0
5194 6523 11275 0
-8468 -9253 0
-8468 -14551 0
-9253 -14551 0
8468 9253 14551 0
-943 -7022 0
-943 -11585 0
-7022 -11585 0
943 7022 11585 0
-8889 -13832 0
-8889 -14213 0
-13832 -14213 0
8889 13832 14213 0
-9720 -13985 0
-9720 -15024 0
-13985 -15024 0
9720 13985 15024 0
-5149 -11560 0
-5149 -13941 0
-11560 -13941 0
5149 11560 13941 0
-11239 -11468 0
-11239 -14883 0
-11468 -14883 0
11239 11468 14883 0
-12610 -13723 0
-12610 -14415 0
-13723 -14415 0
12610 13723 14415 0
-14653 -14921 0
-14653 -15340 0
-14921 -15340 0
14653 14921 15340 0
-463 -12661 0
-463 -15341 0
-12661 -15341 0
463 12661 15341 0
-5267 -8074 0
-5267 -14232 0
-8074 -14232 0
5267 8074 14232 0
-2187 -9126 0
-2187 -15066 0
-9126 -15066 0
2187 9126 15066 0
-3600 -5346 0
-3600 -8589 0
-5346 -8589 0
3600 5346 8589 0
-11241 -12275 0
-11241 -14303 0
-12275 -14303 0
11241 12275 14303 0
-7282 -14536 0
-7282 -14976 0
-14536 -14976 0
7282 14536 14976 0
-7740 -12557 0
-7740 -14632 0
-12557 -14632 0
7740 12557 14632 0
-7980 -10375 0
-7980 -14994 0
-10375 -14994 0
7980 10375 14994 0
-11185 -13253 0
-11185 -14227 0
-13253 -14227 0
11185 13253 14227 0
-4254 -11749 0
-4254 -12615 0
-11749 -12615 0
4254 11749 12615 0
-7070 -14201 0
-7070 -14437 0
-14201 -14437 0
7070 14201 14437 0
-5078 -9121 0
-5078 -10535 0
-9121 -10535 0
5078 9121 10535 0
-9634 -12665 0
-9634 -14974 0
-12665 -14974 0
9634 12665 14974 0
-7717 -8856 0
-7717 -14257 0
-8856 -14257 0
7717 8856 14257 0
-2796 -6102 0
-2796 -14998 0
-6102 -14998 0
2796 6102 14998 0
-2030 -14719 0
-2030 -14773 0
-14719 -14773 0
2030 14719 14773 0
-1011 -2327 0
-1011 -5579 0
-2327 -5579 0
1011 2327 5579 0
-13109 -14701 0
-13109 -15256 0
-14701 -15256 0
13109 14701 15256 0
-1639 -8003 0
-1639 -14707 0
-8003 -14707 0
1639 8003 14707 0
-4509 -14193 0
-4509 -14629 0
-14193 -14629 0
4509 14193 14629 0
-1008 -12075 0
-1008 -15217 0
-12075 -15217 0
1008 12075 15217 0
-9035 -9740 0
-9035 -12288 0
-9740 -12288 0
9035 9740 12288 0
-7213 -12970 0
-7213 -14259 0
-12970 -14259 0
7213 12970 14259 0
-616 -10367 0
-616 -13711 0
-10367 -13711 0
616 10367 13711 0
-11234 -14600 0
-11234 -15263 0
-14600 -15263 0
11234 14600 15263 0
-11170 -12339 0
-11170 -15342 0
-12339 -15342 0
11170 12339 15342 0
-3753 -10274 0
-3753 -14188 0
-10274 -14188 0
3753 10274 14188 0
-2793 -10218 0
-2793 -12536 0
-10218 -12536 0
2793 10218 12536 0
-5260 -11634 0
-5260 -12834 0
-11634 -12834 0
5260 11634 12834 0
-9333 -12478 0
-9333 -13514 0
-12478 -13514 0
9333 12478 13514 0
-5177 -7330 0
-5177 -15171 0
-7330 -15171 0
5177 7330 15171 0
-10070 -15088 0
-10070 -15258 0
-15088 -15258 0
10070 15088 15258 0
-9000 -12756 0
-9000 -13552 0
-12756 -13552 0
9000 12756 13552 0
-10196 -14766 0
-10196 -15278 0
-14766 -15278 0
10196 14766 15278 0
-3707 -6745 0
-3707 -15285 0
-6745 -15285 0
3707 6745 15285 0
-4185 -5452 0
-4185 -6716 0
-5452 -6716 0
4185 5452 6716 0
-7814 -9547 0
-7814 -14255 0
-9547 -14255 0
7814 9547 14255 0
-6303 -7681 0
-6303 -15213 0
-7681 -15213 0
6303 7681 15213 0
-4316 -11313 0
-4316 -14546 0
-11313 -14546 0
4316 11313 14546 0
-7594 -11409 0
-7594 -12051 0
-11409 -12051 0
7594 11409 12051 0
-3201 -12261 0
-3201 -14033 0
-12261 -14033 0
3201 12261 14033 0
-5119 -13175 0
-5119 -15039 0
-13175 -15039 0
5119 13175 15039 0
-7997 -11255 0
-7997 -12718 0
-11255 -12718 0
7997 11255 12718 0
-13005 -13684 0
-13005 -14317 0
-13684 -14317 0
13005 13684 14317 0
-5770 -15044 0
-5770 -15343 0
-15044 -15343 0
5770 15044 15343 0
-8637 -9309 0
-8637 -10094 0
-9309 -10094 0
8637 9309 10094 0
-1572 -3597 0
-1572 -14382 0
-3597 -14382 0
1572 3597 14382 0
-3810 -6111 0
-3810 -10498 0
-6111 -10498 0
3810 6111 10498 0
-725 -3675 0
-725 -10677 0
-3675 -10677 0
725 3675 10677 0
-5178 -10737 0
-5178 -14074 0
-10737 -14074 0
5178 10737 14074 0
-9912 -14731 0
-9912 -15242 0
-14731 -15242 0
9912 14731 15242 0
-11532 -12772 0
-11532 -15246 0
-12772 -15246 0
11532 12772 15246 0
-3157 -4585 0
-3157 -4775 0
-4585 -4775 0
3157 4585 4775 0
-13068 -14738 0
-13068 -15344 0
-14738 -15344 0
13068 14738 15344 0
-3972 -8993 0
-3972 -15345 0
-8993 -15345 0
3972 8993 15345 0
-12983 -15262 0
-12983 -15346 0
-15262 -15346 0
12983 15262 15346 0
-1405 -3287 0
-1405 -9640 0
-3287 -9640 0
1405 3287 9640 0
-4138 -10867 0
-4138 -15127 0
-10867 -15127 0
4138 10867 15127 0
-1598 -8853 0
-1598 -13683 0
-8853 -13683 0
1598 8853 13683 0
-7454 -13817 0
-7454 -15187 0
-13817 -15187 0
7454 13817 15187 0
-7518 -10071 0
-7518 -14418 0
-10071 -14418 0
7518 10071 14418 0
-6401 -15295 0
-6401 -15310 0
-15295 -15310 0
6401 15295 15310 0
-9969 -15086 0
-9969 -15286 0
-15086 -15286 0
9969 15086 15286 0
-1421 -7488 0
-1421 -13773 0
-7488 -13773 0
1421 7488 13773 0
-1216 -11209 0
-1216 -15197 0
-11209 -15197 0
1216 11209 15197 0
-6336 -8235 0
-6336 -15304 0
-8235 -15304 0
6336 8235 15304 0
-3456 -10882 0
-3456 -12009 0
-10882 -12009 0
3456 10882 12009 0
-5416 -6767 0
-5416 -15347 0
-6767 -15347 0
5416 6767 15347 0
-1924 -13176 0
-1924 -14052 0
-13176 -14052 0
1924 13176 14052 0
-2274 -9541 0
-2274 -13823 0
-9541 -13823 0
2274 9541 13823 0
-8387 -12491 0
-8387 -14055 0
-12491 -14055 0
8387 12491 14055 0
-2752 -5373 0
-2752 -10163 0
-5373 -10163 0
2752 5373 10163 0
-12831 -13482 0
-12831 -13525 0
-13482 -13525 0
12831 13482 13525 0
-752 -11073 0
-752 -12579 0
-11073 -12579 0
752 11073 12579 0
-1569 -10837 0
-1569 -15330 0
-10837 -15330 0
1569 10837 15330 0
-10258 -14815 0
-10258 -15232 0
-14815 -15232 0
10258 14815 15232 0
-7820 -8950 0
-7820 -15253 0
-8950 -15253 0
7820 8950 15253 0
-483 -1221 0
-483 -8562 0
-1221 -8562 0
483 1221 8562 0
-11348 -14221 0
-11348 -14347 0
-14221 -14347 0
11348 14221 14347 0
-8695 -14729 0
-8695 -15348 0
-14729 -15348 0
8695 14729 15348 0
-1322 -15068 0
-1322 -15106 0
-15068 -15106 0
1322 15068 15106 0
-1496 -13774 0
-1496 -15112 0
-13774 -15112 0
1496 13774 15112 0
-10632 -11202 0
-10632 -13954 0
-11202 -13954 0
10632 11202 13954 0
-3151 -12384 0
-3151 -15349 0
-12384 -15349 0
3151 12384 15349 0
-7662 -9418 0
-7662 -12388 0
-9418 -12388 0
7662 9418 12388 0
-9396 -14089 0
-9396 -15204 0
-14089 -15204 0
9396 14089 15204 0
-7623 -8396 0
-7623 -15224 0
-8396 -15224 0
7623 8396 15224 0
-8296 -12472 0
-8296 -15301 0
-12472 -15301 0
8296 12472 15301 0
-48 -3742 0
-48 -13811 0
-3742 -13811 0
48 3742 13811 0
-13565 -14053 0
-13565 -15350 0
-14053 -15350 0
13565 14053 15350 0
-1343 -13536 0
-1343 -14796 0
-13536 -14796 0
1343 13536 14796 0
-9254 -14783 0
-9254 -15332 0
-14783 -15332 0
9254 14783 15332 0
-7059 -9947 0
-7059 -10700 0
-9947 -10700 0
7059 9947 10700 0
-10066 -10959 0
-10066 -15192 0
-10959 -15192 0
10066 10959 15192 0
-4762 -8535 0
-4762 -14905 0
-8535 -14905 0
4762 8535 14905 0
-7956 -12862 0
-7956 -15275 0
-12862 -15275 0
7956 12862 15275 0
-14042 -15199 0
-14042 -15316 0
-15199 -15316 0
14042 15199 15316 0
-5863 -13906 0
-5863 -15155 0
-13906 -15155 0
5863 13906 15155 0
-9702 -10449 0
-9702 -14497 0
-10449 -14497 0
9702 10449 14497 0
-10768 -12113 0
-10768 -15161 0
-12113 -15161 0
10768 12113 15161 0
-12633 -12850 0
-12633 -15140 0
-12850 -15140 0
12633 12850 15140 0
-4048 -8635 0
-4048 -12119 0
-8635 -12119 0
4048 8635 12119 0
-13785 -14268 0
-13785 -14272 0
-14268 -14272 0
13785 14268 14272 0
-9713 -10261 0
-9713 -14817 0
-10261 -14817 0
9713 10261 14817 0
-1753 -15248 0
-1753 -15340 0
-15248 -15340 0
1753 15248 15340 0
-9708 -9843 0
-9708 -14973 0
-9843 -14973 0
9708 9843 14973 0
-11990 -14318 0
-11990 -15351 0
-14318 -15351 0
11990 14318 15351 0
-7881 -15065 0
-7881 -15348 0
-15065 -15348 0
7881 15065 15348 0
-4172 -14274 0
-4172 -15297 0
-14274 -15297 0
4172 14274 15297 0
-3433 -10461 0
-3433 -10833 0
-10461 -10833 0
3433 10461 10833 0
-1290 -10513 0
-1290 -15322 0
-10513 -15322 0
1290 10513 15322 0
-2913 -12283 0
-2913 -14526 0
-12283 -14526 0
2913 12283 14526 0
-2168 -11014 0
-2168 -15109 0
-11014 -15109 0
2168 11014 15109 0
-8846 -9811 0
-8846 -15352 0
-9811 -15352 0
8846 9811 15352 0
-236 -5007 0
-236 -13838 0
-5007 -13838 0
236 5007 13838 0
-14870 -15005 0
-14870 -15341 0
-15005 -15341 0
14870 15005 15341 0
-42 -14688 0
-42 -15143 0
-14688 -15143 0
42 14688 15143 0
-3492 -4021 0
-3492 -13850 0
-4021 -13850 0
3492 4021 13850 0
-10403 -10518 0
-10403 -15321 0
-10518 -15321 0
10403 10518 15321 0
-5435 -10780 0
-5435 -15076 0
-10780 -15076 0
5435 10780 15076 0
-5585 -14244 0
-5585 -14757 0
-14244 -14757 0
5585 14244 14757 0
-7637 -8307 0
-7637 -11340 0
-8307 -11340 0
7637 8307 11340 0
-3004 -4716 0
-3004 -8526 0
-4716 -8526 0
3004 4716 8526 0
-1631 -15259 0
-1631 -15345 0
-15259 -15345 0
1631 15259 15345 0
-5121 -8895 0
-5121 -12077 0
-8895 -12077 0
5121 8895 12077 0
-9399 -11431 0
-9399 -15196 0
-11431 -15196 0
9399 11431 15196 0
-11414 -11460 0
-11414 -12527 0
-11460 -12527 0
11414 11460 12527 0
-6616 -11912 0
-6616 -15096 0
-11912 -15096 0
6616 11912 15096 0
-5171 -14695 0
-5171 -15077 0
-14695 -15077 0
5171 14695 15077 0
-10599 -12944 0
-10599 -15331 0
-12944 -15331 0
10599 12944 15331 0
-9243 -11789 0
-9243 -13902 0
-11789 -13902 0
9243 11789 13902 0
-1091 -7111 0
-1091 -10640 0
-7111 -10640 0
1091 7111 10640 0
-13406 -14111 0
-13406 -14553 0
-14111 -14553 0
13406 14111 14553 0
-1453 -1592 0
-1453 -14983 0
-1592 -14983 0
1453 1592 14983 0
-5559 -11816 0
-5559 -14677 0
-11816 -14677 0
5559 11816 14677 0
-276 -9196 0
-276 -11369 0
-9196 -11369 0
276 9196 11369 0
-3909 -8628 0
-3909 -10539 0
-8628 -10539 0
3909 8628 10539 0
-7234 -9404 0
-7234 -14165 0
-9404 -14165 0
7234 9404 14165 0
-12728 -13203 0
-12728 -15353 0
-13203 -15353 0
12728 13203 15353 0
-9068 -14183 0
-9068 -15041 0
-14183 -15041 0
9068 14183 15041 0
-10846 -13992 0
-10846 -15151 0
-13992 -15151 0
10846 13992 15151 0
-1186 -15306 0
-1186 -15335 0
-15306 -15335 0
1186 15306 15335 0
-7588 -14743 0
-7588 -14774 0
-14743 -14774 0
7588 14743 14774 0
-9122 -13849 0
-9122 -14413 0
-13849 -14413 0
9122 13849 14413 0
-8693 -13247 0
-8693 -15354 0
-13247 -15354 0
8693 13247 15354 0
-3558 -7227 0
-3558 -11131 0
-7227 -11131 0
3558 7227 11131 0
-2694 -11001 0
-2694 -14518 0
-11001 -14518 0
2694 11001 14518 0
-10086 -10121 0
-10086 -14761 0
-10121 -14761 0
10086 10121 14761 0
-9838 -11588 0
-9838 -14931 0
-11588 -14931 0
9838 11588 14931 0
-3405 -9781 0
-3405 -12362 0
-9781 -12362 0
3405 9781 12362 0
-5676 -8867 0
-5676 -15035 0
-8867 -15035 0
5676 8867 15035 0
-2619 -13924 0
-2619 -15063 0
-13924 -15063 0
2619 13924 15063 0
-4937 -11136 0
-4937 -15327 0
-11136 -15327 0
4937 11136 15327 0
-3660 -5917 0
-3660 -12457 0
-5917 -12457 0
3660 5917 12457 0
-4737 -4849 0
-4737 -15139 0
-4849 -15139 0
4737 4849 15139 0
-5460 -7421 0
-5460 -15100 0
-7421 -15100 0
5460 7421 15100 0
-5081 -9925 0
-5081 -15257 0
-9925 -15257 0
5081 9925 15257 0
-13881 -14489 0
-13881 -14686 0
-14489 -14686 0
13881 14489 14686 0
-6844 -14861 0
-6844 -15274 0
-14861 -15274 0
6844 14861 15274 0
-2329 -12493 0
-2329 -14572 0
-12493 -14572 0
2329 12493 14572 0
-1165 -11400 0
-1165 -15292 0
-11400 -15292 0
1165 11400 15292 0
-9372 -12494 0
-9372 -12587 0
-12494 -12587 0
9372 12494 12587 0
-10090 -14515 0
-10090 -15355 0
-14515 -15355 0
10090 14515 15355 0
-9826 -12573 0
-9826 -15020 0
-12573 -15020 0
9826 12573 15020 0
-7317 -9233 0
-7317 -15269 0
-9233 -15269 0
7317 9233 15269 0
-1016 -13383 0
-1016 -15351 0
-13383 -15351 0
1016 13383 15351 0
-10503 -12297 0
-10503 -15229 0
-12297 -15229 0
10503 12297 15229 0
-401 -3754 0
-401 -9328 0
-3754 -9328 0
401 3754 9328 0
-13420 -13963 0
-13420 -15318 0
-13963 -15318 0
13420 13963 15318 0
-7590 -11126 0
-7590 -15158 0
-11126 -15158 0
7590 11126 15158 0
-1017 -2453 0
-1017 -15356 0
-2453 -15356 0
1017 2453 15356 0
-4921 -9742 0
-4921 -15291 0
-9742 -15291 0
4921 9742 15291 0
-10413 -12497 0
-10413 -15131 0
-12497 -15131 0
10413 12497 15131 0
-4964 -11590 0
-4964 -11925 0
-11590 -11925 0
4964 11590 11925 0
-3035 -14233 0
-3035 -15198 0
-14233 -15198 0
3035 14233 15198 0
-2444 -10242 0
-2444 -10324 0
-10242 -10324 0
2444 10242 10324 0
-9725 -14315 0
-9725 -14460 0
-14315 -14460 0
9725 14315 14460 0
-7363 -9597 0
-7363 -12853 0
-9597 -12853 0
7363 9597 12853 0
-6183 -13512 0
-6183 -14768 0
-13512 -14768 0
6183 13512 14768 0
-9001 -11851 0
-9001 -13487 0
-11851 -13487 0
9001 11851 13487 0
-4183 -7509 0
-4183 -15296 0
-7509 -15296 0
4183 7509 15296 0
-13647 -14961 0
-13647 -15260 0
-14961 -15260 0
13647 14961 15260 0
-4545 -8329 0
-4545 -13819 0
-8329 -13819 0
4545 8329 13819 0
-1462 -4153 0
-1462 -7527 0
-4153 -7527 0
1462 4153 7527 0
-10219 -15159 0
-10219 -15200 0
-15159 -15200 0
10219 15159 15200 0
-441 -13411 0
-441 -15357 0
-13411 -15357 0
441 13411 15357 0
-2162 -3132 0
-2162 -10936 0
-3132 -10936 0
2162 3132 10936 0
-1340 -8113 0
-1340 -15314 0
-8113 -15314 0
1340 8113 15314 0
-8859 -14218 0
-8859 -15342 0
-14218 -15342 0
8859 14218 15342 0
-14708 -15144 0
-14708 -15343 0
-15144 -15343 0
14708 15144 15343 0
-362 -2262 0
-362 -11539 0
-2262 -11539 0
362 2262 11539 0
-14072 -14604 0
-14072 -15099 0
-14604 -15099 0
14072 14604 15099 0
-7944 -14211 0
-7944 -15350 0
-14211 -15350 0
7944 14211 15350 0
-3504 -6077 0
-3504 -10029 0
-6077 -10029 0
3504 6077 10029 0
-6408 -9829 0
-6408 -10753 0
-9829 -10753 0
6408 9829 10753 0
-6464 -15195 0
-6464 -15354 0
-15195 -15354 0
6464 15195 15354 0
-11055 -13656 0
-11055 -14723 0
-13656 -14723 0
11055 13656 14723 0
-6086 -12415 0
-6086 -13589 0
-12415 -13589 0
6086 12415 13589 0
-6445 -14722 0
-6445 -15336 0
-14722 -15336 0
6445 14722 15336 0
-12659 -14298 0
-12659 -15333 0
-14298 -15333 0
12659 14298 15333 0
-7465 -9412 0
-7465 -10806 0
-9412 -10806 0
7465 9412 10806 0
-8024 -13144 0
-8024 -15323 0
-13144 -15323 0
8024 13144 15323 0
-11883 -11992 0
-11883 -15244 0
-11992 -15244 0
11883 11992 15244 0
-6592 -11697 0
-6592 -15305 0
-11697 -15305 0
6592 11697 15305 0
-13496 -14912 0
-13496 -15032 0
-14912 -15032 0
13496 14912 15032 0
-3784 -14584 0
-3784 -15147 0
-14584 -15147 0
3784 14584 15147 0
-2263 -11659 0
-2263 -14153 0
-11659 -14153 0
2263 11659 14153 0
-3768 -4080 0
-3768 -10351 0
-4080 -10351 0
3768 4080 10351 0
-3029 -7853 0
-3029 -11955 0
-7853 -11955 0
3029 7853 11955 0
-13871 -14001 0
-13871 -15156 0
-14001 -15156 0
13871 14001 15156 0
-7154 -7957 0
-7154 -12005 0
-7957 -12005 0
7154 7957 12005 0
-6496 -9968 0
-6496 -11504 0
-9968 -11504 0
6496 9968 11504 0
-7094 -11365 0
-7094 -15238 0
-11365 -15238 0
7094 11365 15238 0
-1143 -10004 0
-1143 -12301 0
-10004 -12301 0
1143 10004 12301 0
-3792 -13720 0
-3792 -15358 0
-13720 -15358 0
3792 13720 15358 0
-6989 -9728 0
-6989 -13864 0
-9728 -13864 0
6989 9728 13864 0
-4421 -11471 0
-4421 -15272 0
-11471 -15272 0
4421 11471 15272 0
-4435 -4622 0
-4435 -14827 0
-4622 -14827 0
4435 4622 14827 0
-2862 -12172 0
-2862 -14565 0
-12172 -14565 0
2862 12172 14565 0
-469 -8209 0
-469 -14481 0
-8209 -14481 0
469 8209 14481 0
-1659 -3830 0
-1659 -8158 0
-3830 -8158 0
1659 3830 8158 0
-8398 -12568 0
-8398 -13324 0
-12568 -13324 0
8398 12568 13324 0
-10875 -12978 0
-10875 -13491 0
-12978 -13491 0
10875 12978 13491 0
-804 -4901 0
-804 -10015 0
-4901 -10015 0
804 4901 10015 0
-377 -6054 0
-377 -12146 0
-6054 -12146 0
377 6054 12146 0
-4994 -7043 0
-4994 -10610 0
-7043 -10610 0
4994 7043 10610 0
-4398 -4769 0
-4398 -12667 0
-4769 -12667 0
4398 4769 12667 0
-7644 -14209 0
-7644 -14849 0
-14209 -14849 0
7644 14209 14849 0
-12584 -15245 0
-12584 -15337 0
-15245 -15337 0
12584 15245 15337 0
-743 -6127 0
-743 -7345 0
-6127 -7345 0
743 6127 7345 0
-11115 -12134 0
-11115 -13477 0
-12134 -13477 0
11115 12134 13477 0
-8841 -14393 0
-8841 -14924 0
-14393 -14924 0
8841 14393 14924 0
-11571 -13882 0
-11571 -13929 0
-13882 -13929 0
11571 13882 13929 0
-805 -15181 0
-805 -15359 0
-15181 -15359 0
805 15181 15359 0
-12329 -14494 0
-12329 -15173 0
-14494 -15173 0
12329 14494 15173 0
-3133 -12181 0
-3133 -12445 0
-12181 -12445 0
3133 12181 12445 0
-9582 -13003 0
-9582 -14555 0
-13003 -14555 0
9582 13003 14555 0
-13020 -14096 0
-13020 -15359 0
-14096 -15359 0
13020 14096 15359 0
-4173 -10858 0
-4173 -14467 0
-10858 -14467 0
4173 10858 14467 0
-11475 -14940 0
-11475 -15203 0
-14940 -15203 0
11475 14940 15203 0
-8303 -14097 0
-8303 -15338 0
-14097 -15338 0
8303 14097 15338 0
-288 -13282 0
-288 -15255 0
-13282 -15255 0
288 13282 15255 0
-7145 -9673 0
-7145 -12722 0
-9673 -12722 0
7145 9673 12722 0
-250 -13459 0
-250 -14993 0
-13459 -14993 0
250 13459 14993 0
-12194 -14101 0
-12194 -15309 0
-14101 -15309 0
12194 14101 15309 0
-9322 -12148 0
-9322 -13790 0
-12148 -13790 0
9322 12148 13790 0
-3204 -9886 0
-3204 -14640 0
-9886 -14640 0
3204 9886 14640 0
-5088 -11833 0
-5088 -15170 0
-11833 -15170 0
5088 11833 15170 0
-460 -12403 0
-460 -13726 0
-12403 -13726 0
460 12403 13726 0
-3086 -10851 0
-3086 -12149 0
-10851 -12149 0
3086 10851 12149 0
-2104 -7908 0
-2104 -15324 0
-7908 -15324 0
2104 7908 15324 0
-4083 -10386 0
-4083 -13756 0
-10386 -13756 0
4083 10386 13756 0
-3487 -11721 0
-3487 -15349 0
-11721 -15349 0
3487 11721 15349 0
-6804 -14981 0
-6804 -15282 0
-14981 -15282 0
6804 14981 15282 0
-5441 -12436 0
-5441 -15355 0
-12436 -15355 0
5441 12436 15355 0
-12226 -12236 0
-12226 -14999 0
-12236 -14999 0
12226 12236 14999 0
-776 -13943 0
-776 -14214 0
-13943 -14214 0
776 13943 14214 0
-3183 -8606 0
-3183 -12413 0
-8606 -12413 0
3183 8606 12413 0
-6055 -13640 0
-6055 -14904 0
-13640 -14904 0
6055 13640 14904 0
-2122 -5633 0
-2122 -15137 0
-5633 -15137 0
2122 5633 15137 0
-7851 -10288 0
-7851 -11596 0
-10288 -11596 0
7851 10288 11596 0
-3241 -5146 0
-3241 -8792 0
-5146 -8792 0
3241 5146 8792 0
-4478 -4714 0
-4478 -7311 0
-4714 -7311 0
4478 4714 7311 0
-3538 -13878 0
-3538 -15117 0
-13878 -15117 0
3538 13878 15117 0
-1482 -11682 0
-1482 -15352 0
-11682 -15352 0
1482 11682 15352 0
-11391 -15168 0
-11391 -15360 0
-15168 -15360 0
11391 15168 15360 0
-13613 -14215 0
-13613 -14324 0
-14215 -14324 0
13613 14215 14324 0
-1747 -13172 0
-1747 -15298 0
-13172 -15298 0
1747 13172 15298 0
-1384 -14179 0
-1384 -15202 0
-14179 -15202 0
1384 14179 15202 0
-424 -504 0
-424 -7645 0
-504 -7645 0
424 504 7645 0
-6145 -11981 0
-6145 -13732 0
-11981 -13732 0
6145 11981 13732 0
-6019 -15031 0
-6019 -15347 0
-15031 -15347 0
6019 15031 15347 0
-6711 -8554 0
-6711 -14498 0
-8554 -14498 0
6711 8554 14498 0
-972 -5358 0
-972 -13304 0
-5358 -13304 0
972 5358 13304 0
-5424 -12199 0
-5424 -14879 0
-12199 -14879 0
5424 12199 14879 0
-314 -5920 0
-314 -14840 0
-5920 -14840 0
314 5920 14840 0
-4196 -14307 0
-4196 -15311 0
-14307 -15311 0
4196 14307 15311 0
-2553 -9030 0
-2553 -11485 0
-9030 -11485 0
2553 9030 11485 0
-5627 -5930 0
-5627 -13854 0
-5930 -13854 0
5627 5930 13854 0
-3572 -9036 0
-3572 -11533 0
-9036 -11533 0
3572 9036 11533 0
-779 -7983 0
-779 -11636 0
-7983 -11636 0
779 7983 11636 0
-9239 -13717 0
-9239 -14366 0
-13717 -14366 0
9239 13717 14366 0
-12460 -13017 0
-12460 -15007 0
-13017 -15007 0
12460 13017 15007 0
-3719 -4703 0
-3719 -7730 0
-4703 -7730 0
3719 4703 7730 0
-6542 -15346 0
-6542 -15360 0
-15346 -15360 0
6542 15346 15360 0
-5652 -6361 0
-5652 -11632 0
-6361 -11632 0
5652 6361 11632 0
-1519 -10895 0
-1519 -15164 0
-10895 -15164 0
1519 10895 15164 0
-6231 -7902 0
-6231 -7994 0
-7902 -7994 0
6231 7902 7994 0
-6529 -6579 0
-6529 -11341 0
-6579 -11341 0
6529 6579 11341 0
-12529 -13498 0
-12529 -15344 0
-13498 -15344 0
12529 13498 15344 0
-4141 -7008 0
-4141 -7185 0
-7008 -7185 0
4141 7008 7185 0
-4918 -14919 0
-4918 -15288 0
-14919 -15288 0
4918 14919 15288 0
-8256 -14334 0
-8256 -14830 0
-14334 -14830 0
8256 14334 14830 0
-7264 -14007 0
-7264 -15307 0
-14007 -15307 0
7264 14007 15307 0
-6047 -6992 0
-6047 -10734 0
-6992 -10734 0
6047 6992 10734 0
-9769 -12115 0
-9769 -15328 0
-12115 -15328 0
9769 12115 15328 0
-6587 -7656 0
-6587 -9448 0
-7656 -9448 0
6587 7656 9448 0
-8715 -11762 0
-8715 -15042 0
-11762 -15042 0
8715 11762 15042 0
-9692 -10216 0
-9692 -14471 0
-10216 -14471 0
9692 10216 14471 0
-2534 -6153 0
-2534 -6514 0
-6153 -6514 0
2534 6153 6514 0
-5409 -7845 0
-5409 -15054 0
-7845 -15054 0
5409 7845 15054 0
-11961 -12867 0
-11961 -15214 0
-12867 -15214 0
11961 12867 15214 0
-9 -12676 0
-9 -15124 0
-12676 -15124 0
9 12676 15124 0
-2484 -3058 0
-2484 -8320 0
-3058 -8320 0
2484 3058 8320 0
-8694 -12844 0
-8694 -14469 0
-12844 -14469 0
8694 12844 14469 0
-1117 -15325 0
-1117 -15356 0
-15325 -15356 0
1117 15325 15356 0
-802 -12328 0
-802 -13240 0
-12328 -13240 0
802 12328 13240 0
-1898 -10625 0
-1898 -15212 0
-10625 -15212 0
1898 10625 15212 0
-7990 -14285 0
-7990 -15115 0
-14285 -15115 0
7990 14285 15115 0
-9298 -11164 0
-9298 -14614 0
-11164 -14614 0
9298 11164 14614 0
-442 -8908 0
-442 -14261 0
-8908 -14261 0
442 8908 14261 0
-990 -4961 0
-990 -14118 0
-4961 -14118 0
990 4961 14118 0
-11338 -12316 0
-11338 -13579 0
-12316 -13579 0
11338 12316 13579 0
-4151 -10037 0
-4151 -11203 0
-10037 -11203 0
4151 10037 11203 0
-7431 -13657 0
-7431 -15326 0
-13657 -15326 0
7431 13657 15326 0
-7326 -9834 0
-7326 -15017 0
-9834 -15017 0
7326 9834 15017 0
-1505 -9854 0
-1505 -14284 0
-9854 -14284 0
1505 9854 14284 0
-11158 -13927 0
-11158 -14891 0
-13927 -14891 0
11158 13927 14891 0
-6584 -9610 0
-6584 -13334 0
-9610 -13334 0
6584 9610 13334 0
-10325 -10665 0
-10325 -14363 0
-10665 -14363 0
10325 10665 14363 0
-4567 -10305 0
-4567 -15279 0
-10305 -15279 0
4567 10305 15279 0
-10892 -14288 0
-10892 -15152 0
-14288 -15152 0
10892 14288 15152 0
-5560 -14552 0
-5560 -14562 0
-14552 -14562 0
5560 14552 14562 0
-1936 -14263 0
-1936 -14674 0
-14263 -14674 0
1936 14263 14674 0
-2139 -2590 0
-2139 -8196 0
-2590 -8196 0
2139 2590 8196 0
-9153 -12379 0
-9153 -14269 0
-12379 -14269 0
9153 12379 14269 0
-5438 -11699 0
-5438 -15329 0
-11699 -15329 0
5438 11699 15329 0
-4456 -7166 0
-4456 -14918 0
-7166 -14918 0
4456 7166 14918 0
-758 -3312 0
-758 -12956 0
-3312 -12956 0
758 3312 12956 0
-1621 -11948 0
-1621 -15294 0
-11948 -15294 0
1621 11948 15294 0
-3493 -10876 0
-3493 -13885 0
-10876 -13885 0
3493 10876 13885 0
-689 -14902 0
-689 -15266 0
-14902 -15266 0
689 14902 15266 0
-12321 -14411 0
-12321 -15101 0
-14411 -15101 0
12321 14411 15101 0
-8924 -14865 0
-8924 -14877 0
-14865 -14877 0
8924 14865 14877 0
-9529 -10931 0
-9529 -15015 0
-10931 -15015 0
9529 10931 15015 0
-5223 -14794 0
-5223 -14956 0
-14794 -14956 0
5223 14794 14956 0
-522 -6702 0
-522 -15320 0
-6702 -15320 0
522 6702 15320 0
-5143 -10838 0
-5143 -13920 0
-10838 -13920 0
5143 10838 13920 0
-291 -2904 0
-291 -15230 0
-2904 -15230 0
291 2904 15230 0
-2224 -11759 0
-2224 -14225 0
-11759 -14225 0
2224 11759 14225 0
-5946 -6227 0
-5946 -15353 0
-6227 -15353 0
5946 6227 15353 0
-5269 -13387 0
-5269 -13786 0
-13387 -13786 0
5269 13387 13786 0
-9435 -9540 0
-9435 -10763 0
-9540 -10763 0
9435 9540 10763 0
-6148 -7218 0
-6148 -15201 0
-7218 -15201 0
6148 7218 15201 0
-3780 -8422 0
-3780 -14790 0
-8422 -14790 0
3780 8422 14790 0
-2746 -2928 0
-2746 -15043 0
-2928 -15043 0
2746 2928 15043 0
-5330 -8489 0
-5330 -15226 0
-8489 -15226 0
5330 8489 15226 0
-15146 -15339 0
-15146 -15358 0
-15339 -15358 0
15146 15339 15358 0
-8798 -14110 0
-8798 -15267 0
-14110 -15267 0
8798 14110 15267 0
-1108 -6974 0
-1108 -15357 0
-6974 -15357 0
1108 6974 15357 0
-7496 -10340 0
-7496 -11419 0
-10340 -11419 0
7496 10340 11419 0
