c description: Perfect Matching Principle on random 3-regular graph on 10 verices
c generator: CNFgen (0.9.6)
c copyright: (C) 2012-2026 Massimo Lauria <massimo.lauria@uniroma1.it>
c url: https://massimolauria.net/cnfgen
c command line: cnfgen matching gnd 10 3
c
p cnf 15 40
-1 -2 0
-1 -3 0
-2 -3 0
1 2 3 0
-1 -4 0
-1 -5 0
-4 -5 0
1 4 5 0
-6 -7 0
-6 -8 0
-7 -8 0
6 7 8 0
-9 -10 0
-9 -11 0
-10 -11 0
9 10 11 0
-4 -6 0
-4 -9 0
-6 -9 0
4 6 9 0
-7 -12 0
-7 -13 0
-12 -13 0
7 12 13 0
-10 -12 0
-10 -14 0
-12 -14 0
10 12 14 0
-8 -14 0
-8 -15 0
-14 -15 0
8 14 15 0
-2 -5 0
-2 -11 0
-5 -11 0
2 5 11 0
-3 -13 0
-3 -15 0
-13 -15 0
3 13 15 0
