c description: Perfect Matching Principle on random 3-regular graph on 640 verices
c generator: CNFgen (0.9.6)
c copyright: (C) 2012-2026 Massimo Lauria <massimo.lauria@uniroma1.it>
c url: https://massimolauria.net/cnfgen
c command line: cnfgen matching gnd 640 3
c
p cnf 960 2560
-1 -2 0
-1 -3 0
-2 -3 0
1 2 3 0
-4 -5 0
-4 -6 0
-5 -6 0
4 5 6 0
-7 -8 0
-7 -9 0
-8 -9 0
7 8 9 0
-10 -11 0
-10 -12 0
-11 -12 0
10 11 12 0
-13 -14 0
-13 -15 0
-14 -15 0
13 14 15 0
-16 -17 0
-16 -18 0
-17 -18 0
16 17 18 0
-19 -20 0
-19 -21 0
-20 -21 0
19 20 21 0
-22 -23 0
-22 -24 0
-23 -24 0
22 23 24 0
-25 -26 0
-25 -27 0
-26 -27 0
25 26 27 0
-28 -29 0
-28 -30 0
-29 -30 0
28 29 30 0
-31 -32 0
-31 -33 0
-32 -33 0
31 32 33 0
-34 -35 0
-34 -36 0
-35 -36 0
34 35 36 0
-37 -38 0
-37 -39 0
-38 -39 0
37 38 39 0
-40 -41 0
-40 -42 0
-41 -42 0
40 41 42 0
-43 -44 0
-43 -45 0
-44 -45 0
43 44 45 0
-46 -47 0
-46 -48 0
-47 -48 0
46 47 48 0
-49 -50 0
-49 -51 0
-50 -51 0
49 50 51 0
-52 -53 0
-52 -54 0
-53 -54 0
52 53 54 0
-55 -56 0
-55 -57 0
-56 -57 0
55 56 57 0
-58 -59 0
-58 -60 0
-59 -60 0
58 59 60 0
-61 -62 0
-61 -63 0
-62 -63 0
61 62 63 0
-37 -64 0
-37 -65 0
-64 -65 0
37 64 65 0
-66 -67 0
-66 -68 0
-67 -68 0
66 67 68 0
-69 -70 0
-69 -71 0
-70 -71 0
69 70 71 0
-40 -72 0
-40 -73 0
-72 -73 0
40 72 73 0
-61 -74 0
-61 -75 0
-74 -75 0
61 74 75 0
-76 -77 0
-76 -78 0
-77 -78 0
76 77 78 0
-79 -80 0
-79 -81 0
-80 -81 0
79 80 81 0
-82 -83 0
-82 -84 0
-83 -84 0
82 83 84 0
-69 -85 0
-69 -86 0
-85 -86 0
69 85 86 0
-87 -88 0
-87 -89 0
-88 -89 0
87 88 89 0
-90 -91 0
-90 -92 0
-91 -92 0
90 91 92 0
-93 -94 0
-93 -95 0
-94 -95 0
93 94 95 0
-96 -97 0
-96 -98 0
-97 -98 0
96 97 98 0
-99 -100 0
-99 -101 0
-100 -101 0
99 100 101 0
-102 -103 0
-102 -104 0
-103 -104 0
102 103 104 0
-105 -106 0
-105 -107 0
-106 -107 0
105 106 107 0
-108 -109 0
-108 -110 0
-109 -110 0
108 109 110 0
-7 -111 0
-7 -112 0
-111 -112 0
7 111 112 0
-113 -114 0
-113 -115 0
-114 -115 0
113 114 115 0
-16 -116 0
-16 -117 0
-116 -117 0
16 116 117 0
-118 -119 0
-118 -120 0
-119 -120 0
118 119 120 0
-121 -122 0
-121 -123 0
-122 -123 0
121 122 123 0
-124 -125 0
-124 -126 0
-125 -126 0
124 125 126 0
-127 -128 0
-127 -129 0
-128 -129 0
127 128 129 0
-130 -131 0
-130 -132 0
-131 -132 0
130 131 132 0
-22 -133 0
-22 -134 0
-133 -134 0
22 133 134 0
-135 -136 0
-135 -137 0
-136 -137 0
135 136 137 0
-138 -139 0
-138 -140 0
-139 -140 0
138 139 140 0
-43 -141 0
-43 -142 0
-141 -142 0
43 141 142 0
-76 -143 0
-76 -144 0
-143 -144 0
76 143 144 0
-145 -146 0
-145 -147 0
-146 -147 0
145 146 147 0
-148 -149 0
-148 -150 0
-149 -150 0
148 149 150 0
-151 -152 0
-151 -153 0
-152 -153 0
151 152 153 0
-99 -154 0
-99 -155 0
-154 -155 0
99 154 155 0
-156 -157 0
-156 -158 0
-157 -158 0
156 157 158 0
-159 -160 0
-159 -161 0
-160 -161 0
159 160 161 0
-10 -162 0
-10 -163 0
-162 -163 0
10 162 163 0
-164 -165 0
-164 -166 0
-165 -166 0
164 165 166 0
-167 -168 0
-167 -169 0
-168 -169 0
167 168 169 0
-170 -171 0
-170 -172 0
-171 -172 0
170 171 172 0
-55 -116 0
-55 -173 0
-116 -173 0
55 116 173 0
-174 -175 0
-174 -176 0
-175 -176 0
174 175 176 0
-19 -177 0
-19 -178 0
-177 -178 0
19 177 178 0
-127 -179 0
-127 -180 0
-179 -180 0
127 179 180 0
-148 -181 0
-148 -182 0
-181 -182 0
148 181 182 0
-162 -183 0
-162 -184 0
-183 -184 0
162 183 184 0
-185 -186 0
-185 -187 0
-186 -187 0
185 186 187 0
-188 -189 0
-188 -190 0
-189 -190 0
188 189 190 0
-191 -192 0
-191 -193 0
-192 -193 0
191 192 193 0
-194 -195 0
-194 -196 0
-195 -196 0
194 195 196 0
-194 -197 0
-194 -198 0
-197 -198 0
194 197 198 0
-199 -200 0
-199 -201 0
-200 -201 0
199 200 201 0
-202 -203 0
-202 -204 0
-203 -204 0
202 203 204 0
-205 -206 0
-205 -207 0
-206 -207 0
205 206 207 0
-208 -209 0
-208 -210 0
-209 -210 0
208 209 210 0
-135 -211 0
-135 -212 0
-211 -212 0
135 211 212 0
-213 -214 0
-213 -215 0
-214 -215 0
213 214 215 0
-216 -217 0
-216 -218 0
-217 -218 0
216 217 218 0
-219 -220 0
-219 -221 0
-220 -221 0
219 220 221 0
-222 -223 0
-222 -224 0
-223 -224 0
222 223 224 0
-225 -226 0
-225 -227 0
-226 -227 0
225 226 227 0
-228 -229 0
-228 -230 0
-229 -230 0
228 229 230 0
-231 -232 0
-231 -233 0
-232 -233 0
231 232 233 0
-234 -235 0
-234 -236 0
-235 -236 0
234 235 236 0
-237 -238 0
-237 -239 0
-238 -239 0
237 238 239 0
-240 -241 0
-240 -242 0
-241 -242 0
240 241 242 0
-243 -244 0
-243 -245 0
-244 -245 0
243 244 245 0
-246 -247 0
-246 -248 0
-247 -248 0
246 247 248 0
-1 -249 0
-1 -250 0
-249 -250 0
1 249 250 0
-251 -252 0
-251 -253 0
-252 -253 0
251 252 253 0
-254 -255 0
-254 -256 0
-255 -256 0
254 255 256 0
-257 -258 0
-257 -259 0
-258 -259 0
257 258 259 0
-260 -261 0
-260 -262 0
-261 -262 0
260 261 262 0
-263 -264 0
-263 -265 0
-264 -265 0
263 264 265 0
-31 -266 0
-31 -267 0
-266 -267 0
31 266 267 0
-70 -268 0
-70 -269 0
-268 -269 0
70 268 269 0
-205 -270 0
-205 -271 0
-270 -271 0
205 270 271 0
-272 -273 0
-272 -274 0
-273 -274 0
272 273 274 0
-275 -276 0
-275 -277 0
-276 -277 0
275 276 277 0
-278 -279 0
-278 -280 0
-279 -280 0
278 279 280 0
-281 -282 0
-281 -283 0
-282 -283 0
281 282 283 0
-38 -284 0
-38 -285 0
-284 -285 0
38 284 285 0
-286 -287 0
-286 -288 0
-287 -288 0
286 287 288 0
-289 -290 0
-289 -291 0
-290 -291 0
289 290 291 0
-263 -292 0
-263 -293 0
-292 -293 0
263 292 293 0
-294 -295 0
-294 -296 0
-295 -296 0
294 295 296 0
-121 -297 0
-121 -298 0
-297 -298 0
121 297 298 0
-299 -300 0
-299 -301 0
-300 -301 0
299 300 301 0
-272 -302 0
-272 -303 0
-302 -303 0
272 302 303 0
-90 -174 0
-90 -304 0
-174 -304 0
90 174 304 0
-23 -305 0
-23 -306 0
-305 -306 0
23 305 306 0
-307 -308 0
-307 -309 0
-308 -309 0
307 308 309 0
-310 -311 0
-310 -312 0
-311 -312 0
310 311 312 0
-313 -314 0
-313 -315 0
-314 -315 0
313 314 315 0
-297 -316 0
-297 -317 0
-316 -317 0
297 316 317 0
-117 -318 0
-117 -319 0
-318 -319 0
117 318 319 0
-225 -320 0
-225 -321 0
-320 -321 0
225 320 321 0
-85 -322 0
-85 -323 0
-322 -323 0
85 322 323 0
-324 -325 0
-324 -326 0
-325 -326 0
324 325 326 0
-327 -328 0
-327 -329 0
-328 -329 0
327 328 329 0
-330 -331 0
-330 -332 0
-331 -332 0
330 331 332 0
-333 -334 0
-333 -335 0
-334 -335 0
333 334 335 0
-11 -226 0
-11 -336 0
-226 -336 0
11 226 336 0
-337 -338 0
-337 -339 0
-338 -339 0
337 338 339 0
-340 -341 0
-340 -342 0
-341 -342 0
340 341 342 0
-324 -336 0
-324 -343 0
-336 -343 0
324 336 343 0
-344 -345 0
-344 -346 0
-345 -346 0
344 345 346 0
-52 -347 0
-52 -348 0
-347 -348 0
52 347 348 0
-349 -350 0
-349 -351 0
-350 -351 0
349 350 351 0
-237 -352 0
-237 -353 0
-352 -353 0
237 352 353 0
-292 -354 0
-292 -355 0
-354 -355 0
292 354 355 0
-356 -357 0
-356 -358 0
-357 -358 0
356 357 358 0
-359 -360 0
-359 -361 0
-360 -361 0
359 360 361 0
-337 -362 0
-337 -363 0
-362 -363 0
337 362 363 0
-364 -365 0
-364 -366 0
-365 -366 0
364 365 366 0
-367 -368 0
-367 -369 0
-368 -369 0
367 368 369 0
-93 -179 0
-93 -246 0
-179 -246 0
93 179 246 0
-370 -371 0
-370 -372 0
-371 -372 0
370 371 372 0
-373 -374 0
-373 -375 0
-374 -375 0
373 374 375 0
-340 -376 0
-340 -377 0
-376 -377 0
340 376 377 0
-378 -379 0
-378 -380 0
-379 -380 0
378 379 380 0
-381 -382 0
-381 -383 0
-382 -383 0
381 382 383 0
-364 -384 0
-364 -385 0
-384 -385 0
364 384 385 0
-386 -387 0
-386 -388 0
-387 -388 0
386 387 388 0
-275 -389 0
-275 -390 0
-389 -390 0
275 389 390 0
-384 -391 0
-384 -392 0
-391 -392 0
384 391 392 0
-393 -394 0
-393 -395 0
-394 -395 0
393 394 395 0
-341 -396 0
-341 -397 0
-396 -397 0
341 396 397 0
-398 -399 0
-398 -400 0
-399 -400 0
398 399 400 0
-401 -402 0
-401 -403 0
-402 -403 0
401 402 403 0
-404 -405 0
-404 -406 0
-405 -406 0
404 405 406 0
-407 -408 0
-407 -409 0
-408 -409 0
407 408 409 0
-278 -320 0
-278 -410 0
-320 -410 0
278 320 410 0
-411 -412 0
-411 -413 0
-412 -413 0
411 412 413 0
-289 -414 0
-289 -415 0
-414 -415 0
289 414 415 0
-416 -417 0
-416 -418 0
-417 -418 0
416 417 418 0
-257 -419 0
-257 -420 0
-419 -420 0
257 419 420 0
-421 -422 0
-421 -423 0
-422 -423 0
421 422 423 0
-177 -424 0
-177 -425 0
-424 -425 0
177 424 425 0
-426 -427 0
-426 -428 0
-427 -428 0
426 427 428 0
-429 -430 0
-429 -431 0
-430 -431 0
429 430 431 0
-87 -175 0
-87 -432 0
-175 -432 0
87 175 432 0
-433 -434 0
-433 -435 0
-434 -435 0
433 434 435 0
-202 -436 0
-202 -437 0
-436 -437 0
202 436 437 0
-333 -416 0
-333 -438 0
-416 -438 0
333 416 438 0
-138 -439 0
-138 -440 0
-439 -440 0
138 439 440 0
-105 -441 0
-105 -442 0
-441 -442 0
105 441 442 0
-443 -444 0
-443 -445 0
-444 -445 0
443 444 445 0
-446 -447 0
-446 -448 0
-447 -448 0
446 447 448 0
-449 -450 0
-449 -451 0
-450 -451 0
449 450 451 0
-452 -453 0
-452 -454 0
-453 -454 0
452 453 454 0
-82 -455 0
-82 -456 0
-455 -456 0
82 455 456 0
-457 -458 0
-457 -459 0
-458 -459 0
457 458 459 0
-359 -460 0
-359 -461 0
-460 -461 0
359 460 461 0
-462 -463 0
-462 -464 0
-463 -464 0
462 463 464 0
-465 -466 0
-465 -467 0
-466 -467 0
465 466 467 0
-41 -468 0
-41 -469 0
-468 -469 0
41 468 469 0
-470 -471 0
-470 -472 0
-471 -472 0
470 471 472 0
-318 -473 0
-318 -474 0
-473 -474 0
318 473 474 0
-475 -476 0
-475 -477 0
-476 -477 0
475 476 477 0
-478 -479 0
-478 -480 0
-479 -480 0
478 479 480 0
-254 -481 0
-254 -482 0
-481 -482 0
254 481 482 0
-234 -264 0
-234 -483 0
-264 -483 0
234 264 483 0
-231 -484 0
-231 -485 0
-484 -485 0
231 484 485 0
-12 -486 0
-12 -487 0
-486 -487 0
12 486 487 0
-240 -488 0
-240 -489 0
-488 -489 0
240 488 489 0
-429 -490 0
-429 -491 0
-490 -491 0
429 490 491 0
-492 -493 0
-492 -494 0
-493 -494 0
492 493 494 0
-327 -495 0
-327 -496 0
-495 -496 0
327 495 496 0
-211 -497 0
-211 -498 0
-497 -498 0
211 497 498 0
-310 -499 0
-310 -500 0
-499 -500 0
310 499 500 0
-501 -502 0
-501 -503 0
-502 -503 0
501 502 503 0
-151 -504 0
-151 -505 0
-504 -505 0
151 504 505 0
-96 -506 0
-96 -507 0
-506 -507 0
96 506 507 0
-159 -508 0
-159 -509 0
-508 -509 0
159 508 509 0
-321 -510 0
-321 -511 0
-510 -511 0
321 510 511 0
-219 -512 0
-219 -513 0
-512 -513 0
219 512 513 0
-156 -514 0
-156 -515 0
-514 -515 0
156 514 515 0
-367 -516 0
-367 -517 0
-516 -517 0
367 516 517 0
-518 -519 0
-518 -520 0
-519 -520 0
518 519 520 0
-521 -522 0
-521 -523 0
-522 -523 0
521 522 523 0
-58 -524 0
-58 -525 0
-524 -525 0
58 524 525 0
-206 -512 0
-206 -526 0
-512 -526 0
206 512 526 0
-62 -470 0
-62 -527 0
-470 -527 0
62 470 527 0
-49 -471 0
-49 -528 0
-471 -528 0
49 471 528 0
-316 -529 0
-316 -530 0
-529 -530 0
316 529 530 0
-173 -531 0
-173 -532 0
-531 -532 0
173 531 532 0
-77 -368 0
-77 -391 0
-368 -391 0
77 368 391 0
-533 -534 0
-533 -535 0
-534 -535 0
533 534 535 0
-220 -441 0
-220 -492 0
-441 -492 0
220 441 492 0
-536 -537 0
-536 -538 0
-537 -538 0
536 537 538 0
-122 -539 0
-122 -540 0
-539 -540 0
122 539 540 0
-281 -356 0
-281 -541 0
-356 -541 0
281 356 541 0
-468 -542 0
-468 -543 0
-542 -543 0
468 542 543 0
-544 -545 0
-544 -546 0
-545 -546 0
544 545 546 0
-185 -547 0
-185 -548 0
-547 -548 0
185 547 548 0
-44 -501 0
-44 -549 0
-501 -549 0
44 501 549 0
-550 -551 0
-550 -552 0
-551 -552 0
550 551 552 0
-113 -553 0
-113 -554 0
-553 -554 0
113 553 554 0
-354 -555 0
-354 -556 0
-555 -556 0
354 555 556 0
-118 -557 0
-118 -558 0
-557 -558 0
118 557 558 0
-72 -559 0
-72 -560 0
-559 -560 0
72 559 560 0
-561 -562 0
-561 -563 0
-562 -563 0
561 562 563 0
-13 -170 0
-13 -564 0
-170 -564 0
13 170 564 0
-221 -565 0
-221 -566 0
-565 -566 0
221 565 566 0
-130 -567 0
-130 -568 0
-567 -568 0
130 567 568 0
-452 -569 0
-452 -570 0
-569 -570 0
452 569 570 0
-247 -249 0
-247 -571 0
-249 -571 0
247 249 571 0
-78 -414 0
-78 -553 0
-414 -553 0
78 414 553 0
-102 -243 0
-102 -572 0
-243 -572 0
102 243 572 0
-328 -453 0
-328 -573 0
-453 -573 0
328 453 573 0
-349 -527 0
-349 -574 0
-527 -574 0
349 527 574 0
-94 -575 0
-94 -576 0
-575 -576 0
94 575 576 0
-577 -578 0
-577 -579 0
-578 -579 0
577 578 579 0
-580 -581 0
-580 -582 0
-581 -582 0
580 581 582 0
-17 -583 0
-17 -584 0
-583 -584 0
17 583 584 0
-160 -199 0
-160 -585 0
-199 -585 0
160 199 585 0
-462 -557 0
-462 -586 0
-557 -586 0
462 557 586 0
-392 -587 0
-392 -588 0
-587 -588 0
392 587 588 0
-589 -590 0
-589 -591 0
-590 -591 0
589 590 591 0
-592 -593 0
-592 -594 0
-593 -594 0
592 593 594 0
-411 -595 0
-411 -596 0
-595 -596 0
411 595 596 0
-91 -597 0
-91 -598 0
-597 -598 0
91 597 598 0
-66 -164 0
-66 -599 0
-164 -599 0
66 164 599 0
-360 -493 0
-360 -600 0
-493 -600 0
360 493 600 0
-601 -602 0
-601 -603 0
-602 -603 0
601 602 603 0
-465 -604 0
-465 -605 0
-604 -605 0
465 604 605 0
-542 -606 0
-542 -607 0
-606 -607 0
542 606 607 0
-330 -433 0
-330 -608 0
-433 -608 0
330 433 608 0
-167 -415 0
-167 -609 0
-415 -609 0
167 415 609 0
-286 -514 0
-286 -610 0
-514 -610 0
286 514 610 0
-188 -426 0
-188 -611 0
-426 -611 0
188 426 611 0
-473 -612 0
-473 -613 0
-612 -613 0
473 612 613 0
-83 -614 0
-83 -615 0
-614 -615 0
83 614 615 0
-154 -616 0
-154 -617 0
-616 -617 0
154 616 617 0
-518 -618 0
-518 -619 0
-618 -619 0
518 618 619 0
-620 -621 0
-620 -622 0
-621 -622 0
620 621 622 0
-238 -361 0
-238 -623 0
-361 -623 0
238 361 623 0
-302 -624 0
-302 -625 0
-624 -625 0
302 624 625 0
-516 -626 0
-516 -627 0
-626 -627 0
516 626 627 0
-628 -629 0
-628 -630 0
-629 -630 0
628 629 630 0
-592 -631 0
-592 -632 0
-631 -632 0
592 631 632 0
-298 -446 0
-298 -633 0
-446 -633 0
298 446 633 0
-634 -635 0
-634 -636 0
-635 -636 0
634 635 636 0
-378 -637 0
-378 -638 0
-637 -638 0
378 637 638 0
-427 -639 0
-427 -640 0
-639 -640 0
427 639 640 0
-74 -136 0
-74 -641 0
-136 -641 0
74 136 641 0
-64 -386 0
-64 -642 0
-386 -642 0
64 386 642 0
-643 -644 0
-643 -645 0
-644 -645 0
643 644 645 0
-42 -279 0
-42 -646 0
-279 -646 0
42 279 646 0
-46 -647 0
-46 -648 0
-647 -648 0
46 647 648 0
-381 -649 0
-381 -650 0
-649 -650 0
381 649 650 0
-239 -251 0
-239 -639 0
-251 -639 0
239 251 639 0
-14 -460 0
-14 -651 0
-460 -651 0
14 460 651 0
-370 -439 0
-370 -652 0
-439 -652 0
370 439 652 0
-404 -653 0
-404 -654 0
-653 -654 0
404 653 654 0
-28 -143 0
-28 -655 0
-143 -655 0
28 143 655 0
-447 -656 0
-447 -657 0
-656 -657 0
447 656 657 0
-428 -658 0
-428 -659 0
-658 -659 0
428 658 659 0
-495 -660 0
-495 -661 0
-660 -661 0
495 660 661 0
-662 -663 0
-662 -664 0
-663 -664 0
662 663 664 0
-200 -244 0
-200 -665 0
-244 -665 0
200 244 665 0
-666 -667 0
-666 -668 0
-667 -668 0
666 667 668 0
-157 -628 0
-157 -669 0
-628 -669 0
157 628 669 0
-396 -670 0
-396 -671 0
-670 -671 0
396 670 671 0
-672 -673 0
-672 -674 0
-673 -674 0
672 673 674 0
-649 -675 0
-649 -676 0
-675 -676 0
649 675 676 0
-79 -604 0
-79 -646 0
-604 -646 0
79 604 646 0
-176 -677 0
-176 -678 0
-677 -678 0
176 677 678 0
-88 -108 0
-88 -679 0
-108 -679 0
88 108 679 0
-631 -680 0
-631 -681 0
-680 -681 0
631 680 681 0
-573 -660 0
-573 -682 0
-660 -682 0
573 660 682 0
-203 -683 0
-203 -684 0
-683 -684 0
203 683 684 0
-484 -685 0
-484 -686 0
-685 -686 0
484 685 686 0
-213 -419 0
-213 -687 0
-419 -687 0
213 419 687 0
-114 -688 0
-114 -689 0
-688 -689 0
114 688 689 0
-677 -690 0
-677 -691 0
-690 -691 0
677 690 691 0
-268 -692 0
-268 -693 0
-692 -693 0
268 692 693 0
-694 -695 0
-694 -696 0
-695 -696 0
694 695 696 0
-531 -697 0
-531 -698 0
-697 -698 0
531 697 698 0
-420 -488 0
-420 -699 0
-488 -699 0
420 488 699 0
-214 -700 0
-214 -701 0
-700 -701 0
214 700 701 0
-24 -569 0
-24 -702 0
-569 -702 0
24 569 702 0
-131 -675 0
-131 -703 0
-675 -703 0
131 675 703 0
-73 -550 0
-73 -704 0
-550 -704 0
73 550 704 0
-67 -338 0
-67 -407 0
-338 -407 0
67 338 407 0
-526 -705 0
-526 -706 0
-705 -706 0
526 705 706 0
-53 -539 0
-53 -707 0
-539 -707 0
53 539 707 0
-103 -708 0
-103 -709 0
-708 -709 0
103 708 709 0
-508 -577 0
-508 -710 0
-577 -710 0
508 577 710 0
-382 -653 0
-382 -711 0
-653 -711 0
382 653 711 0
-241 -656 0
-241 -683 0
-656 -683 0
241 656 683 0
-95 -712 0
-95 -713 0
-712 -713 0
95 712 713 0
-485 -561 0
-485 -714 0
-561 -714 0
485 561 714 0
-128 -715 0
-128 -716 0
-715 -716 0
128 715 716 0
-558 -717 0
-558 -718 0
-717 -718 0
558 717 718 0
-124 -694 0
-124 -719 0
-694 -719 0
124 694 719 0
-165 -685 0
-165 -720 0
-685 -720 0
165 685 720 0
-700 -721 0
-700 -722 0
-721 -722 0
700 721 722 0
-4 -389 0
-4 -723 0
-389 -723 0
4 389 723 0
-494 -724 0
-494 -725 0
-724 -725 0
494 724 725 0
-376 -544 0
-376 -726 0
-544 -726 0
376 544 726 0
-307 -448 0
-307 -510 0
-448 -510 0
307 448 510 0
-45 -308 0
-45 -727 0
-308 -727 0
45 308 727 0
-155 -506 0
-155 -728 0
-506 -728 0
155 506 728 0
-171 -248 0
-171 -729 0
-248 -729 0
171 248 729 0
-618 -730 0
-618 -731 0
-730 -731 0
618 730 731 0
-166 -732 0
-166 -733 0
-732 -733 0
166 732 733 0
-684 -734 0
-684 -735 0
-734 -735 0
684 734 735 0
-149 -362 0
-149 -736 0
-362 -736 0
149 362 736 0
-580 -583 0
-580 -737 0
-583 -737 0
580 583 737 0
-343 -383 0
-343 -738 0
-383 -738 0
343 383 738 0
-97 -371 0
-97 -511 0
-371 -511 0
97 371 511 0
-640 -739 0
-640 -740 0
-739 -740 0
640 739 740 0
-741 -742 0
-741 -743 0
-742 -743 0
741 742 743 0
-197 -744 0
-197 -745 0
-744 -745 0
197 744 745 0
-652 -746 0
-652 -747 0
-746 -747 0
652 746 747 0
-273 -748 0
-273 -749 0
-748 -749 0
273 748 749 0
-734 -750 0
-734 -751 0
-750 -751 0
734 750 751 0
-178 -752 0
-178 -753 0
-752 -753 0
178 752 753 0
-551 -754 0
-551 -755 0
-754 -755 0
551 754 755 0
-672 -756 0
-672 -757 0
-756 -757 0
672 756 757 0
-255 -589 0
-255 -606 0
-589 -606 0
255 589 606 0
-463 -758 0
-463 -759 0
-758 -759 0
463 758 759 0
-252 -347 0
-252 -676 0
-347 -676 0
252 347 676 0
-401 -661 0
-401 -760 0
-661 -760 0
401 661 760 0
-25 -212 0
-25 -398 0
-212 -398 0
25 212 398 0
-145 -502 0
-145 -761 0
-502 -761 0
145 502 761 0
-762 -763 0
-762 -764 0
-763 -764 0
762 763 764 0
-496 -765 0
-496 -766 0
-765 -766 0
496 765 766 0
-265 -767 0
-265 -768 0
-767 -768 0
265 767 768 0
-365 -481 0
-365 -769 0
-481 -769 0
365 481 769 0
-195 -770 0
-195 -771 0
-770 -771 0
195 770 771 0
-455 -549 0
-455 -772 0
-549 -772 0
455 549 772 0
-32 -260 0
-32 -507 0
-260 -507 0
32 260 507 0
-464 -726 0
-464 -773 0
-726 -773 0
464 726 773 0
-736 -774 0
-736 -775 0
-774 -775 0
736 774 775 0
-245 -276 0
-245 -746 0
-276 -746 0
245 276 746 0
-141 -350 0
-141 -737 0
-350 -737 0
141 350 737 0
-304 -319 0
-304 -637 0
-319 -637 0
304 319 637 0
-129 -776 0
-129 -777 0
-776 -777 0
129 776 777 0
-723 -778 0
-723 -779 0
-778 -779 0
723 778 779 0
-620 -780 0
-620 -781 0
-780 -781 0
620 780 781 0
-601 -782 0
-601 -783 0
-782 -783 0
601 782 783 0
-642 -784 0
-642 -785 0
-784 -785 0
642 784 785 0
-50 -402 0
-50 -786 0
-402 -786 0
50 402 786 0
-123 -399 0
-123 -787 0
-399 -787 0
123 399 787 0
-106 -144 0
-106 -788 0
-144 -788 0
106 144 788 0
-294 -789 0
-294 -790 0
-789 -790 0
294 789 790 0
-791 -792 0
-791 -793 0
-792 -793 0
791 792 793 0
-521 -528 0
-521 -794 0
-528 -794 0
521 528 794 0
-180 -513 0
-180 -602 0
-513 -602 0
180 513 602 0
-313 -795 0
-313 -796 0
-795 -796 0
313 795 796 0
-405 -478 0
-405 -797 0
-478 -797 0
405 478 797 0
-710 -788 0
-710 -798 0
-788 -798 0
710 788 798 0
-75 -299 0
-75 -799 0
-299 -799 0
75 299 799 0
-443 -572 0
-443 -665 0
-572 -665 0
443 572 665 0
-800 -801 0
-800 -802 0
-801 -802 0
800 801 802 0
-20 -269 0
-20 -803 0
-269 -803 0
20 269 803 0
-479 -524 0
-479 -804 0
-524 -804 0
479 524 804 0
-80 -261 0
-80 -373 0
-261 -373 0
80 261 373 0
-744 -760 0
-744 -805 0
-760 -805 0
744 760 805 0
-417 -587 0
-417 -806 0
-587 -806 0
417 587 806 0
-712 -807 0
-712 -808 0
-807 -808 0
712 807 808 0
-39 -189 0
-39 -809 0
-189 -809 0
39 189 809 0
-724 -810 0
-724 -811 0
-810 -811 0
724 810 811 0
-809 -812 0
-809 -813 0
-812 -813 0
809 812 813 0
-810 -814 0
-810 -815 0
-814 -815 0
810 814 815 0
-172 -688 0
-172 -816 0
-688 -816 0
172 688 816 0
-432 -457 0
-432 -811 0
-457 -811 0
432 457 811 0
-190 -669 0
-190 -767 0
-669 -767 0
190 669 767 0
-449 -748 0
-449 -817 0
-748 -817 0
449 748 817 0
-282 -791 0
-282 -818 0
-791 -818 0
282 791 818 0
-216 -331 0
-216 -697 0
-331 -697 0
216 331 697 0
-616 -819 0
-616 -820 0
-819 -820 0
616 819 820 0
-33 -489 0
-33 -821 0
-489 -821 0
33 489 821 0
-232 -450 0
-232 -822 0
-450 -822 0
232 450 822 0
-421 -687 0
-421 -823 0
-687 -823 0
421 687 823 0
-758 -772 0
-758 -824 0
-772 -824 0
758 772 824 0
-584 -593 0
-584 -719 0
-593 -719 0
584 593 719 0
-8 -647 0
-8 -825 0
-647 -825 0
8 647 825 0
-287 -795 0
-287 -826 0
-795 -826 0
287 795 826 0
-673 -827 0
-673 -828 0
-827 -828 0
673 827 828 0
-107 -355 0
-107 -829 0
-355 -829 0
107 355 829 0
-15 -191 0
-15 -830 0
-191 -830 0
15 191 830 0
-300 -466 0
-300 -586 0
-466 -586 0
300 466 586 0
-59 -253 0
-59 -831 0
-253 -831 0
59 253 831 0
-111 -832 0
-111 -833 0
-832 -833 0
111 832 833 0
-9 -467 0
-9 -834 0
-467 -834 0
9 467 834 0
-142 -201 0
-142 -517 0
-201 -517 0
142 201 517 0
-715 -789 0
-715 -835 0
-789 -835 0
715 789 835 0
-274 -651 0
-274 -836 0
-651 -836 0
274 651 836 0
-258 -497 0
-258 -837 0
-497 -837 0
258 497 837 0
-503 -838 0
-503 -839 0
-838 -839 0
503 838 839 0
-483 -634 0
-483 -840 0
-634 -840 0
483 634 840 0
-181 -344 0
-181 -434 0
-344 -434 0
181 344 434 0
-635 -841 0
-635 -842 0
-841 -842 0
635 841 842 0
-227 -843 0
-227 -844 0
-843 -844 0
227 843 844 0
-658 -823 0
-658 -845 0
-823 -845 0
658 823 845 0
-430 -612 0
-430 -846 0
-612 -846 0
430 612 846 0
-351 -698 0
-351 -818 0
-698 -818 0
351 698 818 0
-270 -738 0
-270 -847 0
-738 -847 0
270 738 847 0
-198 -786 0
-198 -797 0
-786 -797 0
198 786 797 0
-475 -848 0
-475 -849 0
-848 -849 0
475 848 849 0
-575 -613 0
-575 -850 0
-613 -850 0
575 613 850 0
-332 -666 0
-332 -727 0
-666 -727 0
332 666 727 0
-186 -196 0
-186 -851 0
-196 -851 0
186 196 851 0
-431 -629 0
-431 -841 0
-629 -841 0
431 629 841 0
-34 -752 0
-34 -806 0
-752 -806 0
34 752 806 0
-146 -536 0
-146 -807 0
-536 -807 0
146 536 807 0
-686 -717 0
-686 -852 0
-717 -852 0
686 717 852 0
-571 -621 0
-571 -689 0
-621 -689 0
571 621 689 0
-619 -782 0
-619 -853 0
-782 -853 0
619 782 853 0
-109 -345 0
-109 -780 0
-345 -780 0
109 345 780 0
-26 -458 0
-26 -762 0
-458 -762 0
26 458 762 0
-305 -765 0
-305 -854 0
-765 -854 0
305 765 854 0
-790 -855 0
-790 -856 0
-855 -856 0
790 855 856 0
-207 -754 0
-207 -800 0
-754 -800 0
207 754 800 0
-498 -822 0
-498 -857 0
-822 -857 0
498 822 857 0
-47 -100 0
-47 -334 0
-100 -334 0
47 100 334 0
-182 -858 0
-182 -859 0
-858 -859 0
182 858 859 0
-233 -311 0
-233 -667 0
-311 -667 0
233 311 667 0
-564 -853 0
-564 -860 0
-853 -860 0
564 853 860 0
-545 -756 0
-545 -769 0
-756 -769 0
545 756 769 0
-565 -861 0
-565 -862 0
-861 -862 0
565 861 862 0
-266 -393 0
-266 -403 0
-393 -403 0
266 393 403 0
-256 -745 0
-256 -863 0
-745 -863 0
256 745 863 0
-576 -864 0
-576 -865 0
-864 -865 0
576 864 865 0
-271 -509 0
-271 -866 0
-509 -866 0
271 509 866 0
-325 -529 0
-325 -720 0
-529 -720 0
325 529 720 0
-139 -662 0
-139 -867 0
-662 -867 0
139 662 867 0
-412 -422 0
-412 -868 0
-422 -868 0
412 422 868 0
-267 -761 0
-267 -869 0
-761 -869 0
267 761 869 0
-655 -826 0
-655 -868 0
-826 -868 0
655 826 868 0
-48 -843 0
-48 -870 0
-843 -870 0
48 843 870 0
-844 -871 0
-844 -872 0
-871 -872 0
844 871 872 0
-192 -451 0
-192 -873 0
-451 -873 0
192 451 873 0
-614 -874 0
-614 -875 0
-874 -875 0
614 874 875 0
-574 -838 0
-574 -876 0
-838 -876 0
574 838 876 0
-346 -590 0
-346 -626 0
-590 -626 0
346 590 626 0
-326 -877 0
-326 -878 0
-877 -878 0
326 877 878 0
-729 -879 0
-729 -880 0
-879 -880 0
729 879 880 0
-728 -881 0
-728 -882 0
-881 -882 0
728 881 882 0
-342 -385 0
-342 -819 0
-385 -819 0
342 385 819 0
-377 -605 0
-377 -883 0
-605 -883 0
377 605 883 0
-56 -86 0
-56 -486 0
-86 -486 0
56 86 486 0
-119 -410 0
-119 -663 0
-410 -663 0
119 410 663 0
-168 -884 0
-168 -885 0
-884 -885 0
168 884 885 0
-295 -798 0
-295 -870 0
-798 -870 0
295 798 870 0
-228 -840 0
-228 -886 0
-840 -886 0
228 840 886 0
-617 -887 0
-617 -888 0
-887 -888 0
617 887 888 0
-229 -314 0
-229 -741 0
-314 -741 0
229 314 741 0
-504 -827 0
-504 -889 0
-827 -889 0
504 827 889 0
-193 -570 0
-193 -837 0
-570 -837 0
193 570 837 0
-487 -692 0
-487 -850 0
-692 -850 0
487 692 850 0
-607 -699 0
-607 -890 0
-699 -890 0
607 699 890 0
-71 -801 0
-71 -891 0
-801 -891 0
71 801 891 0
-303 -352 0
-303 -718 0
-352 -718 0
303 352 718 0
-690 -892 0
-690 -893 0
-892 -893 0
690 892 893 0
-533 -834 0
-533 -894 0
-834 -894 0
533 834 894 0
-293 -423 0
-293 -670 0
-423 -670 0
293 423 670 0
-444 -674 0
-444 -774 0
-674 -774 0
444 674 774 0
-778 -895 0
-778 -896 0
-895 -896 0
778 895 896 0
-101 -339 0
-101 -499 0
-339 -499 0
101 339 499 0
-98 -408 0
-98 -866 0
-408 -866 0
98 408 866 0
-132 -472 0
-132 -897 0
-472 -897 0
132 472 897 0
-436 -739 0
-436 -898 0
-739 -898 0
436 739 898 0
-147 -306 0
-147 -753 0
-306 -753 0
147 306 753 0
-125 -208 0
-125 -230 0
-208 -230 0
125 208 230 0
-476 -678 0
-476 -899 0
-678 -899 0
476 678 899 0
-5 -366 0
-5 -900 0
-366 -900 0
5 366 900 0
-615 -881 0
-615 -901 0
-881 -901 0
615 881 901 0
-29 -543 0
-29 -874 0
-543 -874 0
29 543 874 0
-35 -406 0
-35 -902 0
-406 -902 0
35 406 902 0
-372 -903 0
-372 -904 0
-903 -904 0
372 903 904 0
-369 -585 0
-369 -799 0
-585 -799 0
369 585 799 0
-18 -608 0
-18 -701 0
-608 -701 0
18 608 701 0
-81 -609 0
-81 -721 0
-609 -721 0
81 609 721 0
-693 -873 0
-693 -905 0
-873 -905 0
693 873 905 0
-250 -906 0
-250 -907 0
-906 -907 0
250 906 907 0
-54 -578 0
-54 -812 0
-578 -812 0
54 578 812 0
-581 -848 0
-581 -908 0
-848 -908 0
581 848 908 0
-222 -857 0
-222 -877 0
-857 -877 0
222 857 877 0
-722 -839 0
-722 -909 0
-839 -909 0
722 839 909 0
-763 -910 0
-763 -911 0
-910 -911 0
763 910 911 0
-296 -825 0
-296 -912 0
-825 -912 0
296 825 912 0
-284 -766 0
-284 -902 0
-766 -902 0
284 766 902 0
-27 -187 0
-27 -913 0
-187 -913 0
27 187 913 0
-456 -537 0
-456 -914 0
-537 -914 0
456 537 914 0
-280 -915 0
-280 -916 0
-915 -916 0
280 915 916 0
-374 -435 0
-374 -917 0
-435 -917 0
374 435 917 0
-379 -552 0
-379 -910 0
-552 -910 0
379 552 910 0
-624 -768 0
-624 -918 0
-768 -918 0
624 768 918 0
-664 -691 0
-664 -755 0
-691 -755 0
664 691 755 0
-622 -633 0
-622 -864 0
-633 -864 0
622 633 864 0
-63 -702 0
-63 -784 0
-702 -784 0
63 702 784 0
-657 -695 0
-657 -919 0
-695 -919 0
657 695 919 0
-445 -708 0
-445 -920 0
-708 -920 0
445 708 920 0
-829 -921 0
-829 -922 0
-921 -922 0
829 921 922 0
-562 -923 0
-562 -924 0
-923 -924 0
562 923 924 0
-603 -792 0
-603 -925 0
-792 -925 0
603 792 925 0
-57 -353 0
-57 -793 0
-353 -793 0
57 353 793 0
-169 -424 0
-169 -779 0
-424 -779 0
169 424 779 0
-217 -813 0
-217 -909 0
-813 -909 0
217 813 909 0
-566 -595 0
-566 -650 0
-595 -650 0
566 595 650 0
-215 -878 0
-215 -887 0
-878 -887 0
215 878 887 0
-636 -714 0
-636 -926 0
-714 -926 0
636 714 926 0
-459 -836 0
-459 -927 0
-836 -927 0
459 836 927 0
-394 -630 0
-394 -926 0
-630 -926 0
394 630 926 0
-567 -588 0
-567 -915 0
-588 -915 0
567 588 915 0
-375 -845 0
-375 -928 0
-845 -928 0
375 845 928 0
-787 -898 0
-787 -929 0
-898 -929 0
787 898 929 0
-418 -648 0
-418 -930 0
-648 -930 0
418 648 930 0
-21 -884 0
-21 -919 0
-884 -919 0
21 884 919 0
-846 -913 0
-846 -931 0
-913 -931 0
846 913 931 0
-30 -89 0
-30 -775 0
-89 -775 0
30 89 775 0
-932 -933 0
-932 -934 0
-933 -934 0
932 933 934 0
-817 -921 0
-817 -935 0
-921 -935 0
817 921 935 0
-568 -824 0
-568 -936 0
-824 -936 0
568 824 936 0
-387 -899 0
-387 -937 0
-899 -937 0
387 899 937 0
-317 -851 0
-317 -938 0
-851 -938 0
317 851 938 0
-540 -911 0
-540 -936 0
-911 -936 0
540 911 936 0
-390 -750 0
-390 -867 0
-750 -867 0
390 750 867 0
-732 -814 0
-732 -854 0
-814 -854 0
732 814 854 0
-713 -742 0
-713 -886 0
-742 -886 0
713 742 886 0
-440 -861 0
-440 -923 0
-861 -923 0
440 861 923 0
-832 -932 0
-832 -939 0
-932 -939 0
832 932 939 0
-133 -163 0
-133 -940 0
-163 -940 0
133 163 940 0
-515 -563 0
-515 -941 0
-563 -941 0
515 563 941 0
-158 -183 0
-158 -547 0
-183 -547 0
158 183 547 0
-671 -781 0
-671 -933 0
-781 -933 0
671 781 933 0
-150 -522 0
-150 -820 0
-522 -820 0
150 522 820 0
-312 -842 0
-312 -865 0
-842 -865 0
312 842 865 0
-413 -705 0
-413 -903 0
-705 -903 0
413 705 903 0
-161 -235 0
-161 -815 0
-235 -815 0
161 235 815 0
-120 -725 0
-120 -869 0
-725 -869 0
120 725 869 0
-454 -555 0
-454 -942 0
-555 -942 0
454 555 942 0
-773 -914 0
-773 -920 0
-914 -920 0
773 914 920 0
-51 -409 0
-51 -930 0
-409 -930 0
51 409 930 0
-623 -805 0
-623 -905 0
-805 -905 0
623 805 905 0
-747 -882 0
-747 -943 0
-882 -943 0
747 882 943 0
-437 -802 0
-437 -944 0
-802 -944 0
437 802 944 0
-668 -863 0
-668 -906 0
-863 -906 0
668 863 906 0
-525 -541 0
-525 -654 0
-541 -654 0
525 541 654 0
-60 -534 0
-60 -610 0
-534 -610 0
60 534 610 0
-733 -740 0
-733 -885 0
-740 -885 0
733 740 885 0
-596 -597 0
-596 -929 0
-597 -929 0
596 597 929 0
-523 -703 0
-523 -711 0
-703 -711 0
523 703 711 0
-794 -860 0
-794 -945 0
-860 -945 0
794 860 945 0
-242 -931 0
-242 -946 0
-931 -946 0
242 931 946 0
-283 -559 0
-283 -947 0
-559 -947 0
283 559 947 0
-600 -894 0
-600 -948 0
-894 -948 0
600 894 948 0
-309 -388 0
-309 -949 0
-388 -949 0
309 388 949 0
-395 -469 0
-395 -935 0
-469 -935 0
395 469 935 0
-315 -322 0
-315 -889 0
-322 -889 0
315 322 889 0
-68 -348 0
-68 -871 0
-348 -871 0
68 348 871 0
-2 -716 0
-2 -875 0
-716 -875 0
2 716 875 0
-126 -730 0
-126 -770 0
-730 -770 0
126 730 770 0
-883 -922 0
-883 -927 0
-922 -927 0
883 922 927 0
-546 -680 0
-546 -731 0
-680 -731 0
546 680 731 0
-259 -828 0
-259 -892 0
-828 -892 0
259 828 892 0
-862 -925 0
-862 -941 0
-925 -941 0
862 925 941 0
-134 -950 0
-134 -951 0
-950 -951 0
134 950 951 0
-110 -641 0
-110 -918 0
-641 -918 0
110 641 918 0
-706 -879 0
-706 -952 0
-879 -952 0
706 879 952 0
-425 -474 0
-425 -505 0
-474 -505 0
425 474 505 0
-380 -643 0
-380 -847 0
-643 -847 0
380 643 847 0
-236 -638 0
-236 -947 0
-638 -947 0
236 638 947 0
-357 -538 0
-357 -816 0
-538 -816 0
357 538 816 0
-152 -358 0
-152 -855 0
-358 -855 0
152 358 855 0
-709 -804 0
-709 -895 0
-804 -895 0
709 804 895 0
-519 -682 0
-519 -953 0
-682 -953 0
519 682 953 0
-92 -530 0
-92 -771 0
-530 -771 0
92 530 771 0
-65 -940 0
-65 -948 0
-940 -948 0
65 940 948 0
-852 -897 0
-852 -938 0
-897 -938 0
852 897 938 0
-104 -594 0
-104 -757 0
-594 -757 0
104 594 757 0
-696 -949 0
-696 -954 0
-949 -954 0
696 949 954 0
-704 -808 0
-704 -939 0
-808 -939 0
704 808 939 0
-397 -707 0
-397 -821 0
-707 -821 0
397 707 821 0
-184 -363 0
-184 -644 0
-363 -644 0
184 363 644 0
-277 -480 0
-277 -942 0
-480 -942 0
277 480 942 0
-764 -916 0
-764 -955 0
-916 -955 0
764 916 955 0
-625 -645 0
-625 -956 0
-645 -956 0
625 645 956 0
-749 -856 0
-749 -957 0
-856 -957 0
749 856 957 0
-218 -223 0
-218 -900 0
-223 -900 0
218 223 900 0
-335 -950 0
-335 -958 0
-950 -958 0
335 950 958 0
-3 -776 0
-3 -831 0
-776 -831 0
3 776 831 0
-500 -554 0
-500 -796 0
-554 -796 0
500 554 796 0
-891 -946 0
-891 -959 0
-946 -959 0
891 946 959 0
-849 -858 0
-849 -960 0
-858 -960 0
849 858 960 0
-153 -912 0
-153 -959 0
-912 -959 0
153 912 959 0
-659 -880 0
-659 -958 0
-880 -958 0
659 880 958 0
-461 -783 0
-461 -955 0
-783 -955 0
461 783 955 0
-224 -859 0
-224 -952 0
-859 -952 0
224 859 952 0
-137 -548 0
-137 -582 0
-548 -582 0
137 548 582 0
-490 -830 0
-490 -835 0
-830 -835 0
490 830 835 0
-6 -532 0
-6 -908 0
-532 -908 0
6 532 908 0
-115 -579 0
-115 -611 0
-579 -611 0
115 579 611 0
-209 -520 0
-209 -957 0
-520 -957 0
209 520 957 0
-598 -917 0
-598 -924 0
-917 -924 0
598 917 924 0
-140 -901 0
-140 -944 0
-901 -944 0
140 901 944 0
-84 -329 0
-84 -888 0
-329 -888 0
84 329 888 0
-112 -759 0
-112 -872 0
-759 -872 0
112 759 872 0
-627 -777 0
-627 -945 0
-777 -945 0
627 777 945 0
-323 -907 0
-323 -956 0
-907 -956 0
323 907 956 0
-477 -491 0
-477 -928 0
-491 -928 0
477 491 928 0
-290 -560 0
-290 -960 0
-560 -960 0
290 560 960 0
-204 -262 0
-204 -943 0
-262 -943 0
204 262 943 0
-438 -442 0
-438 -556 0
-442 -556 0
438 442 556 0
-210 -591 0
-210 -632 0
-591 -632 0
210 591 632 0
-890 -893 0
-890 -953 0
-893 -953 0
890 893 953 0
-482 -599 0
-482 -934 0
-599 -934 0
482 599 934 0
-400 -535 0
-400 -785 0
-535 -785 0
400 535 785 0
-301 -679 0
-301 -951 0
-679 -951 0
301 679 951 0
-291 -743 0
-291 -904 0
-743 -904 0
291 743 904 0
-751 -937 0
-751 -954 0
-937 -954 0
751 937 954 0
-803 -876 0
-803 -896 0
-876 -896 0
803 876 896 0
-288 -735 0
-288 -833 0
-735 -833 0
288 735 833 0
-36 -285 0
-36 -681 0
-285 -681 0
36 285 681 0
