c description: Perfect Matching Principle on random 3-regular graph on 5120 verices
c generator: CNFgen (0.9.6)
c copyright: (C) 2012-2026 Massimo Lauria <massimo.lauria@uniroma1.it>
c url: https://massimolauria.net/cnfgen
c command line: cnfgen matching gnd 5120 3
c
p cnf 7680 20480
-1 -2 0
-1 -3 0
-2 -3 0
1 2 3 0
-4 -5 0
-4 -6 0
-5 -6 0
4 5 6 0
-7 -8 0
-7 -9 0
-8 -9 0
7 8 9 0
-10 -11 0
-10 -12 0
-11 -12 0
10 11 12 0
-13 -14 0
-13 -15 0
-14 -15 0
13 14 15 0
-16 -17 0
-16 -18 0
-17 -18 0
16 17 18 0
-19 -20 0
-19 -21 0
-20 -21 0
19 20 21 0
-22 -23 0
-22 -24 0
-23 -24 0
22 23 24 0
-25 -26 0
-25 -27 0
-26 -27 0
25 26 27 0
-28 -29 0
-28 -30 0
-29 -30 0
28 29 30 0
-31 -32 0
-31 -33 0
-32 -33 0
31 32 33 0
-34 -35 0
-34 -36 0
-35 -36 0
34 35 36 0
-37 -38 0
-37 -39 0
-38 -39 0
37 38 39 0
-40 -41 0
-40 -42 0
-41 -42 0
40 41 42 0
-34 -43 0
-34 -44 0
-43 -44 0
34 43 44 0
-45 -46 0
-45 -47 0
-46 -47 0
45 46 47 0
-48 -49 0
-48 -50 0
-49 -50 0
48 49 50 0
-51 -52 0
-51 -53 0
-52 -53 0
51 52 53 0
-54 -55 0
-54 -56 0
-55 -56 0
54 55 56 0
-57 -58 0
-57 -59 0
-58 -59 0
57 58 59 0
-60 -61 0
-60 -62 0
-61 -62 0
60 61 62 0
-63 -64 0
-63 -65 0
-64 -65 0
63 64 65 0
-66 -67 0
-66 -68 0
-67 -68 0
66 67 68 0
-69 -70 0
-69 -71 0
-70 -71 0
69 70 71 0
-72 -73 0
-72 -74 0
-73 -74 0
72 73 74 0
-75 -76 0
-75 -77 0
-76 -77 0
75 76 77 0
-78 -79 0
-78 -80 0
-79 -80 0
78 79 80 0
-81 -82 0
-81 -83 0
-82 -83 0
81 82 83 0
-84 -85 0
-84 -86 0
-85 -86 0
84 85 86 0
-87 -88 0
-87 -89 0
-88 -89 0
87 88 89 0
-90 -91 0
-90 -92 0
-91 -92 0
90 91 92 0
-93 -94 0
-93 -95 0
-94 -95 0
93 94 95 0
-96 -97 0
-96 -98 0
-97 -98 0
96 97 98 0
-99 -100 0
-99 -101 0
-100 -101 0
99 100 101 0
-102 -103 0
-102 -104 0
-103 -104 0
102 103 104 0
-105 -106 0
-105 -107 0
-106 -107 0
105 106 107 0
-108 -109 0
-108 -110 0
-109 -110 0
108 109 110 0
-111 -112 0
-111 -113 0
-112 -113 0
111 112 113 0
-114 -115 0
-114 -116 0
-115 -116 0
114 115 116 0
-117 -118 0
-117 -119 0
-118 -119 0
117 118 119 0
-120 -121 0
-120 -122 0
-121 -122 0
120 121 122 0
-123 -124 0
-123 -125 0
-124 -125 0
123 124 125 0
-126 -127 0
-126 -128 0
-127 -128 0
126 127 128 0
-129 -130 0
-129 -131 0
-130 -131 0
129 130 131 0
-132 -133 0
-132 -134 0
-133 -134 0
132 133 134 0
-135 -136 0
-135 -137 0
-136 -137 0
135 136 137 0
-138 -139 0
-138 -140 0
-139 -140 0
138 139 140 0
-141 -142 0
-141 -143 0
-142 -143 0
141 142 143 0
-144 -145 0
-144 -146 0
-145 -146 0
144 145 146 0
-147 -148 0
-147 -149 0
-148 -149 0
147 148 149 0
-150 -151 0
-150 -152 0
-151 -152 0
150 151 152 0
-153 -154 0
-153 -155 0
-154 -155 0
153 154 155 0
-156 -157 0
-156 -158 0
-157 -158 0
156 157 158 0
-159 -160 0
-159 -161 0
-160 -161 0
159 160 161 0
-162 -163 0
-162 -164 0
-163 -164 0
162 163 164 0
-165 -166 0
-165 -167 0
-166 -167 0
165 166 167 0
-168 -169 0
-168 -170 0
-169 -170 0
168 169 170 0
-171 -172 0
-171 -173 0
-172 -173 0
171 172 173 0
-174 -175 0
-174 -176 0
-175 -176 0
174 175 176 0
-177 -178 0
-177 -179 0
-178 -179 0
177 178 179 0
-156 -180 0
-156 -181 0
-180 -181 0
156 180 181 0
-182 -183 0
-182 -184 0
-183 -184 0
182 183 184 0
-185 -186 0
-185 -187 0
-186 -187 0
185 186 187 0
-188 -189 0
-188 -190 0
-189 -190 0
188 189 190 0
-191 -192 0
-191 -193 0
-192 -193 0
191 192 193 0
-194 -195 0
-194 -196 0
-195 -196 0
194 195 196 0
-197 -198 0
-197 -199 0
-198 -199 0
197 198 199 0
-200 -201 0
-200 -202 0
-201 -202 0
200 201 202 0
-203 -204 0
-203 -205 0
-204 -205 0
203 204 205 0
-206 -207 0
-206 -208 0
-207 -208 0
206 207 208 0
-209 -210 0
-209 -211 0
-210 -211 0
209 210 211 0
-212 -213 0
-212 -214 0
-213 -214 0
212 213 214 0
-215 -216 0
-215 -217 0
-216 -217 0
215 216 217 0
-218 -219 0
-218 -220 0
-219 -220 0
218 219 220 0
-221 -222 0
-221 -223 0
-222 -223 0
221 222 223 0
-224 -225 0
-224 -226 0
-225 -226 0
224 225 226 0
-227 -228 0
-227 -229 0
-228 -229 0
227 228 229 0
-230 -231 0
-230 -232 0
-231 -232 0
230 231 232 0
-233 -234 0
-233 -235 0
-234 -235 0
233 234 235 0
-236 -237 0
-236 -238 0
-237 -238 0
236 237 238 0
-239 -240 0
-239 -241 0
-240 -241 0
239 240 241 0
-242 -243 0
-242 -244 0
-243 -244 0
242 243 244 0
-245 -246 0
-245 -247 0
-246 -247 0
245 246 247 0
-248 -249 0
-248 -250 0
-249 -250 0
248 249 250 0
-251 -252 0
-251 -253 0
-252 -253 0
251 252 253 0
-254 -255 0
-254 -256 0
-255 -256 0
254 255 256 0
-257 -258 0
-257 -259 0
-258 -259 0
257 258 259 0
-260 -261 0
-260 -262 0
-261 -262 0
260 261 262 0
-263 -264 0
-263 -265 0
-264 -265 0
263 264 265 0
-266 -267 0
-266 -268 0
-267 -268 0
266 267 268 0
-269 -270 0
-269 -271 0
-270 -271 0
269 270 271 0
-272 -273 0
-272 -274 0
-273 -274 0
272 273 274 0
-275 -276 0
-275 -277 0
-276 -277 0
275 276 277 0
-278 -279 0
-278 -280 0
-279 -280 0
278 279 280 0
-281 -282 0
-281 -283 0
-282 -283 0
281 282 283 0
-284 -285 0
-284 -286 0
-285 -286 0
284 285 286 0
-287 -288 0
-287 -289 0
-288 -289 0
287 288 289 0
-290 -291 0
-290 -292 0
-291 -292 0
290 291 292 0
-293 -294 0
-293 -295 0
-294 -295 0
293 294 295 0
-296 -297 0
-296 -298 0
-297 -298 0
296 297 298 0
-299 -300 0
-299 -301 0
-300 -301 0
299 300 301 0
-302 -303 0
-302 -304 0
-303 -304 0
302 303 304 0
-305 -306 0
-305 -307 0
-306 -307 0
305 306 307 0
-308 -309 0
-308 -310 0
-309 -310 0
308 309 310 0
-311 -312 0
-311 -313 0
-312 -313 0
311 312 313 0
-314 -315 0
-314 -316 0
-315 -316 0
314 315 316 0
-317 -318 0
-317 -319 0
-318 -319 0
317 318 319 0
-320 -321 0
-320 -322 0
-321 -322 0
320 321 322 0
-323 -324 0
-323 -325 0
-324 -325 0
323 324 325 0
-326 -327 0
-326 -328 0
-327 -328 0
326 327 328 0
-329 -330 0
-329 -331 0
-330 -331 0
329 330 331 0
-332 -333 0
-332 -334 0
-333 -334 0
332 333 334 0
-335 -336 0
-335 -337 0
-336 -337 0
335 336 337 0
-338 -339 0
-338 -340 0
-339 -340 0
338 339 340 0
-341 -342 0
-341 -343 0
-342 -343 0
341 342 343 0
-344 -345 0
-344 -346 0
-345 -346 0
344 345 346 0
-347 -348 0
-347 -349 0
-348 -349 0
347 348 349 0
-350 -351 0
-350 -352 0
-351 -352 0
350 351 352 0
-353 -354 0
-353 -355 0
-354 -355 0
353 354 355 0
-356 -357 0
-356 -358 0
-357 -358 0
356 357 358 0
-359 -360 0
-359 -361 0
-360 -361 0
359 360 361 0
-162 -362 0
-162 -363 0
-362 -363 0
162 362 363 0
-364 -365 0
-364 -366 0
-365 -366 0
364 365 366 0
-367 -368 0
-367 -369 0
-368 -369 0
367 368 369 0
-370 -371 0
-370 -372 0
-371 -372 0
370 371 372 0
-373 -374 0
-373 -375 0
-374 -375 0
373 374 375 0
-376 -377 0
-376 -378 0
-377 -378 0
376 377 378 0
-379 -380 0
-379 -381 0
-380 -381 0
379 380 381 0
-382 -383 0
-382 -384 0
-383 -384 0
382 383 384 0
-385 -386 0
-385 -387 0
-386 -387 0
385 386 387 0
-388 -389 0
-388 -390 0
-389 -390 0
388 389 390 0
-391 -392 0
-391 -393 0
-392 -393 0
391 392 393 0
-394 -395 0
-394 -396 0
-395 -396 0
394 395 396 0
-397 -398 0
-397 -399 0
-398 -399 0
397 398 399 0
-332 -400 0
-332 -401 0
-400 -401 0
332 400 401 0
-402 -403 0
-402 -404 0
-403 -404 0
402 403 404 0
-405 -406 0
-405 -407 0
-406 -407 0
405 406 407 0
-408 -409 0
-408 -410 0
-409 -410 0
408 409 410 0
-411 -412 0
-411 -413 0
-412 -413 0
411 412 413 0
-414 -415 0
-414 -416 0
-415 -416 0
414 415 416 0
-417 -418 0
-417 -419 0
-418 -419 0
417 418 419 0
-420 -421 0
-420 -422 0
-421 -422 0
420 421 422 0
-423 -424 0
-423 -425 0
-424 -425 0
423 424 425 0
-426 -427 0
-426 -428 0
-427 -428 0
426 427 428 0
-429 -430 0
-429 -431 0
-430 -431 0
429 430 431 0
-432 -433 0
-432 -434 0
-433 -434 0
432 433 434 0
-233 -435 0
-233 -436 0
-435 -436 0
233 435 436 0
-437 -438 0
-437 -439 0
-438 -439 0
437 438 439 0
-440 -441 0
-440 -442 0
-441 -442 0
440 441 442 0
-417 -443 0
-417 -444 0
-443 -444 0
417 443 444 0
-141 -445 0
-141 -446 0
-445 -446 0
141 445 446 0
-447 -448 0
-447 -449 0
-448 -449 0
447 448 449 0
-450 -451 0
-450 -452 0
-451 -452 0
450 451 452 0
-453 -454 0
-453 -455 0
-454 -455 0
453 454 455 0
-284 -456 0
-284 -457 0
-456 -457 0
284 456 457 0
-458 -459 0
-458 -460 0
-459 -460 0
458 459 460 0
-461 -462 0
-461 -463 0
-462 -463 0
461 462 463 0
-464 -465 0
-464 -466 0
-465 -466 0
464 465 466 0
-467 -468 0
-467 -469 0
-468 -469 0
467 468 469 0
-470 -471 0
-470 -472 0
-471 -472 0
470 471 472 0
-473 -474 0
-473 -475 0
-474 -475 0
473 474 475 0
-476 -477 0
-476 -478 0
-477 -478 0
476 477 478 0
-479 -480 0
-479 -481 0
-480 -481 0
479 480 481 0
-482 -483 0
-482 -484 0
-483 -484 0
482 483 484 0
-485 -486 0
-485 -487 0
-486 -487 0
485 486 487 0
-488 -489 0
-488 -490 0
-489 -490 0
488 489 490 0
-491 -492 0
-491 -493 0
-492 -493 0
491 492 493 0
-494 -495 0
-494 -496 0
-495 -496 0
494 495 496 0
-497 -498 0
-497 -499 0
-498 -499 0
497 498 499 0
-500 -501 0
-500 -502 0
-501 -502 0
500 501 502 0
-503 -504 0
-503 -505 0
-504 -505 0
503 504 505 0
-506 -507 0
-506 -508 0
-507 -508 0
506 507 508 0
-509 -510 0
-509 -511 0
-510 -511 0
509 510 511 0
-512 -513 0
-512 -514 0
-513 -514 0
512 513 514 0
-515 -516 0
-515 -517 0
-516 -517 0
515 516 517 0
-518 -519 0
-518 -520 0
-519 -520 0
518 519 520 0
-521 -522 0
-521 -523 0
-522 -523 0
521 522 523 0
-524 -525 0
-524 -526 0
-525 -526 0
524 525 526 0
-527 -528 0
-527 -529 0
-528 -529 0
527 528 529 0
-530 -531 0
-530 -532 0
-531 -532 0
530 531 532 0
-147 -533 0
-147 -534 0
-533 -534 0
147 533 534 0
-535 -536 0
-535 -537 0
-536 -537 0
535 536 537 0
-538 -539 0
-538 -540 0
-539 -540 0
538 539 540 0
-541 -542 0
-541 -543 0
-542 -543 0
541 542 543 0
-544 -545 0
-544 -546 0
-545 -546 0
544 545 546 0
-547 -548 0
-547 -549 0
-548 -549 0
547 548 549 0
-550 -551 0
-550 -552 0
-551 -552 0
550 551 552 0
-553 -554 0
-553 -555 0
-554 -555 0
553 554 555 0
-556 -557 0
-556 -558 0
-557 -558 0
556 557 558 0
-559 -560 0
-559 -561 0
-560 -561 0
559 560 561 0
-397 -562 0
-397 -563 0
-562 -563 0
397 562 563 0
-564 -565 0
-564 -566 0
-565 -566 0
564 565 566 0
-567 -568 0
-567 -569 0
-568 -569 0
567 568 569 0
-570 -571 0
-570 -572 0
-571 -572 0
570 571 572 0
-573 -574 0
-573 -575 0
-574 -575 0
573 574 575 0
-576 -577 0
-576 -578 0
-577 -578 0
576 577 578 0
-579 -580 0
-579 -581 0
-580 -581 0
579 580 581 0
-582 -583 0
-582 -584 0
-583 -584 0
582 583 584 0
-585 -586 0
-585 -587 0
-586 -587 0
585 586 587 0
-588 -589 0
-588 -590 0
-589 -590 0
588 589 590 0
-591 -592 0
-591 -593 0
-592 -593 0
591 592 593 0
-594 -595 0
-594 -596 0
-595 -596 0
594 595 596 0
-597 -598 0
-597 -599 0
-598 -599 0
597 598 599 0
-600 -601 0
-600 -602 0
-601 -602 0
600 601 602 0
-603 -604 0
-603 -605 0
-604 -605 0
603 604 605 0
-606 -607 0
-606 -608 0
-607 -608 0
606 607 608 0
-609 -610 0
-609 -611 0
-610 -611 0
609 610 611 0
-612 -613 0
-612 -614 0
-613 -614 0
612 613 614 0
-603 -615 0
-603 -616 0
-615 -616 0
603 615 616 0
-617 -618 0
-617 -619 0
-618 -619 0
617 618 619 0
-620 -621 0
-620 -622 0
-621 -622 0
620 621 622 0
-623 -624 0
-623 -625 0
-624 -625 0
623 624 625 0
-144 -626 0
-144 -627 0
-626 -627 0
144 626 627 0
-628 -629 0
-628 -630 0
-629 -630 0
628 629 630 0
-631 -632 0
-631 -633 0
-632 -633 0
631 632 633 0
-634 -635 0
-634 -636 0
-635 -636 0
634 635 636 0
-637 -638 0
-637 -639 0
-638 -639 0
637 638 639 0
-640 -641 0
-640 -642 0
-641 -642 0
640 641 642 0
-643 -644 0
-643 -645 0
-644 -645 0
643 644 645 0
-28 -646 0
-28 -647 0
-646 -647 0
28 646 647 0
-648 -649 0
-648 -650 0
-649 -650 0
648 649 650 0
-651 -652 0
-651 -653 0
-652 -653 0
651 652 653 0
-654 -655 0
-654 -656 0
-655 -656 0
654 655 656 0
-405 -657 0
-405 -658 0
-657 -658 0
405 657 658 0
-659 -660 0
-659 -661 0
-660 -661 0
659 660 661 0
-662 -663 0
-662 -664 0
-663 -664 0
662 663 664 0
-665 -666 0
-665 -667 0
-666 -667 0
665 666 667 0
-57 -668 0
-57 -669 0
-668 -669 0
57 668 669 0
-670 -671 0
-670 -672 0
-671 -672 0
670 671 672 0
-673 -674 0
-673 -675 0
-674 -675 0
673 674 675 0
-676 -677 0
-676 -678 0
-677 -678 0
676 677 678 0
-679 -680 0
-679 -681 0
-680 -681 0
679 680 681 0
-682 -683 0
-682 -684 0
-683 -684 0
682 683 684 0
-685 -686 0
-685 -687 0
-686 -687 0
685 686 687 0
-688 -689 0
-688 -690 0
-689 -690 0
688 689 690 0
-691 -692 0
-691 -693 0
-692 -693 0
691 692 693 0
-694 -695 0
-694 -696 0
-695 -696 0
694 695 696 0
-697 -698 0
-697 -699 0
-698 -699 0
697 698 699 0
-700 -701 0
-700 -702 0
-701 -702 0
700 701 702 0
-703 -704 0
-703 -705 0
-704 -705 0
703 704 705 0
-706 -707 0
-706 -708 0
-707 -708 0
706 707 708 0
-709 -710 0
-709 -711 0
-710 -711 0
709 710 711 0
-712 -713 0
-712 -714 0
-713 -714 0
712 713 714 0
-715 -716 0
-715 -717 0
-716 -717 0
715 716 717 0
-718 -719 0
-718 -720 0
-719 -720 0
718 719 720 0
-721 -722 0
-721 -723 0
-722 -723 0
721 722 723 0
-724 -725 0
-724 -726 0
-725 -726 0
724 725 726 0
-727 -728 0
-727 -729 0
-728 -729 0
727 728 729 0
-730 -731 0
-730 -732 0
-731 -732 0
730 731 732 0
-733 -734 0
-733 -735 0
-734 -735 0
733 734 735 0
-736 -737 0
-736 -738 0
-737 -738 0
736 737 738 0
-739 -740 0
-739 -741 0
-740 -741 0
739 740 741 0
-742 -743 0
-742 -744 0
-743 -744 0
742 743 744 0
-745 -746 0
-745 -747 0
-746 -747 0
745 746 747 0
-597 -748 0
-597 -749 0
-748 -749 0
597 748 749 0
-750 -751 0
-750 -752 0
-751 -752 0
750 751 752 0
-753 -754 0
-753 -755 0
-754 -755 0
753 754 755 0
-756 -757 0
-756 -758 0
-757 -758 0
756 757 758 0
-759 -760 0
-759 -761 0
-760 -761 0
759 760 761 0
-762 -763 0
-762 -764 0
-763 -764 0
762 763 764 0
-765 -766 0
-765 -767 0
-766 -767 0
765 766 767 0
-768 -769 0
-768 -770 0
-769 -770 0
768 769 770 0
-771 -772 0
-771 -773 0
-772 -773 0
771 772 773 0
-774 -775 0
-774 -776 0
-775 -776 0
774 775 776 0
-777 -778 0
-777 -779 0
-778 -779 0
777 778 779 0
-780 -781 0
-780 -782 0
-781 -782 0
780 781 782 0
-783 -784 0
-783 -785 0
-784 -785 0
783 784 785 0
-786 -787 0
-786 -788 0
-787 -788 0
786 787 788 0
-789 -790 0
-789 -791 0
-790 -791 0
789 790 791 0
-792 -793 0
-792 -794 0
-793 -794 0
792 793 794 0
-795 -796 0
-795 -797 0
-796 -797 0
795 796 797 0
-798 -799 0
-798 -800 0
-799 -800 0
798 799 800 0
-801 -802 0
-801 -803 0
-802 -803 0
801 802 803 0
-804 -805 0
-804 -806 0
-805 -806 0
804 805 806 0
-807 -808 0
-807 -809 0
-808 -809 0
807 808 809 0
-810 -811 0
-810 -812 0
-811 -812 0
810 811 812 0
-813 -814 0
-813 -815 0
-814 -815 0
813 814 815 0
-816 -817 0
-816 -818 0
-817 -818 0
816 817 818 0
-819 -820 0
-819 -821 0
-820 -821 0
819 820 821 0
-822 -823 0
-822 -824 0
-823 -824 0
822 823 824 0
-825 -826 0
-825 -827 0
-826 -827 0
825 826 827 0
-828 -829 0
-828 -830 0
-829 -830 0
828 829 830 0
-685 -831 0
-685 -832 0
-831 -832 0
685 831 832 0
-833 -834 0
-833 -835 0
-834 -835 0
833 834 835 0
-836 -837 0
-836 -838 0
-837 -838 0
836 837 838 0
-839 -840 0
-839 -841 0
-840 -841 0
839 840 841 0
-842 -843 0
-842 -844 0
-843 -844 0
842 843 844 0
-845 -846 0
-845 -847 0
-846 -847 0
845 846 847 0
-848 -849 0
-848 -850 0
-849 -850 0
848 849 850 0
-851 -852 0
-851 -853 0
-852 -853 0
851 852 853 0
-606 -854 0
-606 -855 0
-854 -855 0
606 854 855 0
-856 -857 0
-856 -858 0
-857 -858 0
856 857 858 0
-859 -860 0
-859 -861 0
-860 -861 0
859 860 861 0
-862 -863 0
-862 -864 0
-863 -864 0
862 863 864 0
-865 -866 0
-865 -867 0
-866 -867 0
865 866 867 0
-868 -869 0
-868 -870 0
-869 -870 0
868 869 870 0
-871 -872 0
-871 -873 0
-872 -873 0
871 872 873 0
-874 -875 0
-874 -876 0
-875 -876 0
874 875 876 0
-877 -878 0
-877 -879 0
-878 -879 0
877 878 879 0
-880 -881 0
-880 -882 0
-881 -882 0
880 881 882 0
-883 -884 0
-883 -885 0
-884 -885 0
883 884 885 0
-356 -886 0
-356 -887 0
-886 -887 0
356 886 887 0
-165 -888 0
-165 -889 0
-888 -889 0
165 888 889 0
-890 -891 0
-890 -892 0
-891 -892 0
890 891 892 0
-893 -894 0
-893 -895 0
-894 -895 0
893 894 895 0
-896 -897 0
-896 -898 0
-897 -898 0
896 897 898 0
-357 -899 0
-357 -900 0
-899 -900 0
357 899 900 0
-153 -901 0
-153 -902 0
-901 -902 0
153 901 902 0
-903 -904 0
-903 -905 0
-904 -905 0
903 904 905 0
-906 -907 0
-906 -908 0
-907 -908 0
906 907 908 0
-909 -910 0
-909 -911 0
-910 -911 0
909 910 911 0
-912 -913 0
-912 -914 0
-913 -914 0
912 913 914 0
-915 -916 0
-915 -917 0
-916 -917 0
915 916 917 0
-918 -919 0
-918 -920 0
-919 -920 0
918 919 920 0
-921 -922 0
-921 -923 0
-922 -923 0
921 922 923 0
-924 -925 0
-924 -926 0
-925 -926 0
924 925 926 0
-927 -928 0
-927 -929 0
-928 -929 0
927 928 929 0
-930 -931 0
-930 -932 0
-931 -932 0
930 931 932 0
-933 -934 0
-933 -935 0
-934 -935 0
933 934 935 0
-936 -937 0
-936 -938 0
-937 -938 0
936 937 938 0
-939 -940 0
-939 -941 0
-940 -941 0
939 940 941 0
-521 -942 0
-521 -943 0
-942 -943 0
521 942 943 0
-338 -944 0
-338 -945 0
-944 -945 0
338 944 945 0
-946 -947 0
-946 -948 0
-947 -948 0
946 947 948 0
-626 -949 0
-626 -950 0
-949 -950 0
626 949 950 0
-951 -952 0
-951 -953 0
-952 -953 0
951 952 953 0
-954 -955 0
-954 -956 0
-955 -956 0
954 955 956 0
-488 -957 0
-488 -958 0
-957 -958 0
488 957 958 0
-959 -960 0
-959 -961 0
-960 -961 0
959 960 961 0
-962 -963 0
-962 -964 0
-963 -964 0
962 963 964 0
-965 -966 0
-965 -967 0
-966 -967 0
965 966 967 0
-968 -969 0
-968 -970 0
-969 -970 0
968 969 970 0
-833 -971 0
-833 -972 0
-971 -972 0
833 971 972 0
-973 -974 0
-973 -975 0
-974 -975 0
973 974 975 0
-976 -977 0
-976 -978 0
-977 -978 0
976 977 978 0
-979 -980 0
-979 -981 0
-980 -981 0
979 980 981 0
-982 -983 0
-982 -984 0
-983 -984 0
982 983 984 0
-985 -986 0
-985 -987 0
-986 -987 0
985 986 987 0
-988 -989 0
-988 -990 0
-989 -990 0
988 989 990 0
-991 -992 0
-991 -993 0
-992 -993 0
991 992 993 0
-718 -994 0
-718 -995 0
-994 -995 0
718 994 995 0
-996 -997 0
-996 -998 0
-997 -998 0
996 997 998 0
-999 -1000 0
-999 -1001 0
-1000 -1001 0
999 1000 1001 0
-1002 -1003 0
-1002 -1004 0
-1003 -1004 0
1002 1003 1004 0
-1005 -1006 0
-1005 -1007 0
-1006 -1007 0
1005 1006 1007 0
-1008 -1009 0
-1008 -1010 0
-1009 -1010 0
1008 1009 1010 0
-1011 -1012 0
-1011 -1013 0
-1012 -1013 0
1011 1012 1013 0
-1014 -1015 0
-1014 -1016 0
-1015 -1016 0
1014 1015 1016 0
-479 -1017 0
-479 -1018 0
-1017 -1018 0
479 1017 1018 0
-1019 -1020 0
-1019 -1021 0
-1020 -1021 0
1019 1020 1021 0
-1022 -1023 0
-1022 -1024 0
-1023 -1024 0
1022 1023 1024 0
-60 -1025 0
-60 -1026 0
-1025 -1026 0
60 1025 1026 0
-657 -1027 0
-657 -1028 0
-1027 -1028 0
657 1027 1028 0
-1029 -1030 0
-1029 -1031 0
-1030 -1031 0
1029 1030 1031 0
-582 -1032 0
-582 -1033 0
-1032 -1033 0
582 1032 1033 0
-1034 -1035 0
-1034 -1036 0
-1035 -1036 0
1034 1035 1036 0
-1037 -1038 0
-1037 -1039 0
-1038 -1039 0
1037 1038 1039 0
-1040 -1041 0
-1040 -1042 0
-1041 -1042 0
1040 1041 1042 0
-1043 -1044 0
-1043 -1045 0
-1044 -1045 0
1043 1044 1045 0
-1046 -1047 0
-1046 -1048 0
-1047 -1048 0
1046 1047 1048 0
-1049 -1050 0
-1049 -1051 0
-1050 -1051 0
1049 1050 1051 0
-1052 -1053 0
-1052 -1054 0
-1053 -1054 0
1052 1053 1054 0
-1052 -1055 0
-1052 -1056 0
-1055 -1056 0
1052 1055 1056 0
-1057 -1058 0
-1057 -1059 0
-1058 -1059 0
1057 1058 1059 0
-1060 -1061 0
-1060 -1062 0
-1061 -1062 0
1060 1061 1062 0
-1063 -1064 0
-1063 -1065 0
-1064 -1065 0
1063 1064 1065 0
-1066 -1067 0
-1066 -1068 0
-1067 -1068 0
1066 1067 1068 0
-1069 -1070 0
-1069 -1071 0
-1070 -1071 0
1069 1070 1071 0
-1072 -1073 0
-1072 -1074 0
-1073 -1074 0
1072 1073 1074 0
-1075 -1076 0
-1075 -1077 0
-1076 -1077 0
1075 1076 1077 0
-1078 -1079 0
-1078 -1080 0
-1079 -1080 0
1078 1079 1080 0
-1081 -1082 0
-1081 -1083 0
-1082 -1083 0
1081 1082 1083 0
-1084 -1085 0
-1084 -1086 0
-1085 -1086 0
1084 1085 1086 0
-1087 -1088 0
-1087 -1089 0
-1088 -1089 0
1087 1088 1089 0
-1090 -1091 0
-1090 -1092 0
-1091 -1092 0
1090 1091 1092 0
-1093 -1094 0
-1093 -1095 0
-1094 -1095 0
1093 1094 1095 0
-358 -1096 0
-358 -1097 0
-1096 -1097 0
358 1096 1097 0
-1098 -1099 0
-1098 -1100 0
-1099 -1100 0
1098 1099 1100 0
-1101 -1102 0
-1101 -1103 0
-1102 -1103 0
1101 1102 1103 0
-1104 -1105 0
-1104 -1106 0
-1105 -1106 0
1104 1105 1106 0
-1107 -1108 0
-1107 -1109 0
-1108 -1109 0
1107 1108 1109 0
-1110 -1111 0
-1110 -1112 0
-1111 -1112 0
1110 1111 1112 0
-1113 -1114 0
-1113 -1115 0
-1114 -1115 0
1113 1114 1115 0
-333 -1116 0
-333 -1117 0
-1116 -1117 0
333 1116 1117 0
-1118 -1119 0
-1118 -1120 0
-1119 -1120 0
1118 1119 1120 0
-1121 -1122 0
-1121 -1123 0
-1122 -1123 0
1121 1122 1123 0
-1124 -1125 0
-1124 -1126 0
-1125 -1126 0
1124 1125 1126 0
-7 -1127 0
-7 -1128 0
-1127 -1128 0
7 1127 1128 0
-326 -1129 0
-326 -1130 0
-1129 -1130 0
326 1129 1130 0
-1131 -1132 0
-1131 -1133 0
-1132 -1133 0
1131 1132 1133 0
-1134 -1135 0
-1134 -1136 0
-1135 -1136 0
1134 1135 1136 0
-1002 -1137 0
-1002 -1138 0
-1137 -1138 0
1002 1137 1138 0
-359 -1139 0
-359 -1140 0
-1139 -1140 0
359 1139 1140 0
-1141 -1142 0
-1141 -1143 0
-1142 -1143 0
1141 1142 1143 0
-1144 -1145 0
-1144 -1146 0
-1145 -1146 0
1144 1145 1146 0
-1147 -1148 0
-1147 -1149 0
-1148 -1149 0
1147 1148 1149 0
-1150 -1151 0
-1150 -1152 0
-1151 -1152 0
1150 1151 1152 0
-1153 -1154 0
-1153 -1155 0
-1154 -1155 0
1153 1154 1155 0
-556 -634 0
-556 -1156 0
-634 -1156 0
556 634 1156 0
-126 -1157 0
-126 -1158 0
-1157 -1158 0
126 1157 1158 0
-1159 -1160 0
-1159 -1161 0
-1160 -1161 0
1159 1160 1161 0
-1162 -1163 0
-1162 -1164 0
-1163 -1164 0
1162 1163 1164 0
-1165 -1166 0
-1165 -1167 0
-1166 -1167 0
1165 1166 1167 0
-1168 -1169 0
-1168 -1170 0
-1169 -1170 0
1168 1169 1170 0
-1171 -1172 0
-1171 -1173 0
-1172 -1173 0
1171 1172 1173 0
-739 -1174 0
-739 -1175 0
-1174 -1175 0
739 1174 1175 0
-1176 -1177 0
-1176 -1178 0
-1177 -1178 0
1176 1177 1178 0
-1179 -1180 0
-1179 -1181 0
-1180 -1181 0
1179 1180 1181 0
-1182 -1183 0
-1182 -1184 0
-1183 -1184 0
1182 1183 1184 0
-1185 -1186 0
-1185 -1187 0
-1186 -1187 0
1185 1186 1187 0
-1188 -1189 0
-1188 -1190 0
-1189 -1190 0
1188 1189 1190 0
-1191 -1192 0
-1191 -1193 0
-1192 -1193 0
1191 1192 1193 0
-1194 -1195 0
-1194 -1196 0
-1195 -1196 0
1194 1195 1196 0
-1197 -1198 0
-1197 -1199 0
-1198 -1199 0
1197 1198 1199 0
-1200 -1201 0
-1200 -1202 0
-1201 -1202 0
1200 1201 1202 0
-1203 -1204 0
-1203 -1205 0
-1204 -1205 0
1203 1204 1205 0
-1206 -1207 0
-1206 -1208 0
-1207 -1208 0
1206 1207 1208 0
-1209 -1210 0
-1209 -1211 0
-1210 -1211 0
1209 1210 1211 0
-1212 -1213 0
-1212 -1214 0
-1213 -1214 0
1212 1213 1214 0
-1215 -1216 0
-1215 -1217 0
-1216 -1217 0
1215 1216 1217 0
-1218 -1219 0
-1218 -1220 0
-1219 -1220 0
1218 1219 1220 0
-66 -148 0
-66 -1221 0
-148 -1221 0
66 148 1221 0
-813 -1222 0
-813 -1223 0
-1222 -1223 0
813 1222 1223 0
-1224 -1225 0
-1224 -1226 0
-1225 -1226 0
1224 1225 1226 0
-1227 -1228 0
-1227 -1229 0
-1228 -1229 0
1227 1228 1229 0
-1230 -1231 0
-1230 -1232 0
-1231 -1232 0
1230 1231 1232 0
-1233 -1234 0
-1233 -1235 0
-1234 -1235 0
1233 1234 1235 0
-780 -1236 0
-780 -1237 0
-1236 -1237 0
780 1236 1237 0
-564 -1238 0
-564 -1239 0
-1238 -1239 0
564 1238 1239 0
-1240 -1241 0
-1240 -1242 0
-1241 -1242 0
1240 1241 1242 0
-1243 -1244 0
-1243 -1245 0
-1244 -1245 0
1243 1244 1245 0
-1246 -1247 0
-1246 -1248 0
-1247 -1248 0
1246 1247 1248 0
-1249 -1250 0
-1249 -1251 0
-1250 -1251 0
1249 1250 1251 0
-1252 -1253 0
-1252 -1254 0
-1253 -1254 0
1252 1253 1254 0
-1255 -1256 0
-1255 -1257 0
-1256 -1257 0
1255 1256 1257 0
-1258 -1259 0
-1258 -1260 0
-1259 -1260 0
1258 1259 1260 0
-1261 -1262 0
-1261 -1263 0
-1262 -1263 0
1261 1262 1263 0
-1264 -1265 0
-1264 -1266 0
-1265 -1266 0
1264 1265 1266 0
-132 -1267 0
-132 -1268 0
-1267 -1268 0
132 1267 1268 0
-1269 -1270 0
-1269 -1271 0
-1270 -1271 0
1269 1270 1271 0
-1272 -1273 0
-1272 -1274 0
-1273 -1274 0
1272 1273 1274 0
-924 -1275 0
-924 -1276 0
-1275 -1276 0
924 1275 1276 0
-1277 -1278 0
-1277 -1279 0
-1278 -1279 0
1277 1278 1279 0
-1008 -1280 0
-1008 -1281 0
-1280 -1281 0
1008 1280 1281 0
-87 -482 0
-87 -1282 0
-482 -1282 0
87 482 1282 0
-1283 -1284 0
-1283 -1285 0
-1284 -1285 0
1283 1284 1285 0
-1286 -1287 0
-1286 -1288 0
-1287 -1288 0
1286 1287 1288 0
-1289 -1290 0
-1289 -1291 0
-1290 -1291 0
1289 1290 1291 0
-1292 -1293 0
-1292 -1294 0
-1293 -1294 0
1292 1293 1294 0
-1295 -1296 0
-1295 -1297 0
-1296 -1297 0
1295 1296 1297 0
-1298 -1299 0
-1298 -1300 0
-1299 -1300 0
1298 1299 1300 0
-1301 -1302 0
-1301 -1303 0
-1302 -1303 0
1301 1302 1303 0
-105 -1304 0
-105 -1305 0
-1304 -1305 0
105 1304 1305 0
-1306 -1307 0
-1306 -1308 0
-1307 -1308 0
1306 1307 1308 0
-1309 -1310 0
-1309 -1311 0
-1310 -1311 0
1309 1310 1311 0
-1312 -1313 0
-1312 -1314 0
-1313 -1314 0
1312 1313 1314 0
-1315 -1316 0
-1315 -1317 0
-1316 -1317 0
1315 1316 1317 0
-1318 -1319 0
-1318 -1320 0
-1319 -1320 0
1318 1319 1320 0
-1321 -1322 0
-1321 -1323 0
-1322 -1323 0
1321 1322 1323 0
-936 -1324 0
-936 -1325 0
-1324 -1325 0
936 1324 1325 0
-1326 -1327 0
-1326 -1328 0
-1327 -1328 0
1326 1327 1328 0
-1329 -1330 0
-1329 -1331 0
-1330 -1331 0
1329 1330 1331 0
-1332 -1333 0
-1332 -1334 0
-1333 -1334 0
1332 1333 1334 0
-370 -1335 0
-370 -1336 0
-1335 -1336 0
370 1335 1336 0
-682 -1337 0
-682 -1338 0
-1337 -1338 0
682 1337 1338 0
-1339 -1340 0
-1339 -1341 0
-1340 -1341 0
1339 1340 1341 0
-1168 -1342 0
-1168 -1343 0
-1342 -1343 0
1168 1342 1343 0
-406 -1344 0
-406 -1345 0
-1344 -1345 0
406 1344 1345 0
-1346 -1347 0
-1346 -1348 0
-1347 -1348 0
1346 1347 1348 0
-1349 -1350 0
-1349 -1351 0
-1350 -1351 0
1349 1350 1351 0
-1352 -1353 0
-1352 -1354 0
-1353 -1354 0
1352 1353 1354 0
-1355 -1356 0
-1355 -1357 0
-1356 -1357 0
1355 1356 1357 0
-1358 -1359 0
-1358 -1360 0
-1359 -1360 0
1358 1359 1360 0
-429 -1361 0
-429 -1362 0
-1361 -1362 0
429 1361 1362 0
-1093 -1363 0
-1093 -1364 0
-1363 -1364 0
1093 1363 1364 0
-1365 -1366 0
-1365 -1367 0
-1366 -1367 0
1365 1366 1367 0
-1027 -1368 0
-1027 -1369 0
-1368 -1369 0
1027 1368 1369 0
-1370 -1371 0
-1370 -1372 0
-1371 -1372 0
1370 1371 1372 0
-1373 -1374 0
-1373 -1375 0
-1374 -1375 0
1373 1374 1375 0
-1376 -1377 0
-1376 -1378 0
-1377 -1378 0
1376 1377 1378 0
-1379 -1380 0
-1379 -1381 0
-1380 -1381 0
1379 1380 1381 0
-1382 -1383 0
-1382 -1384 0
-1383 -1384 0
1382 1383 1384 0
-1385 -1386 0
-1385 -1387 0
-1386 -1387 0
1385 1386 1387 0
-1388 -1389 0
-1388 -1390 0
-1389 -1390 0
1388 1389 1390 0
-1391 -1392 0
-1391 -1393 0
-1392 -1393 0
1391 1392 1393 0
-1394 -1395 0
-1394 -1396 0
-1395 -1396 0
1394 1395 1396 0
-1011 -1397 0
-1011 -1398 0
-1397 -1398 0
1011 1397 1398 0
-1399 -1400 0
-1399 -1401 0
-1400 -1401 0
1399 1400 1401 0
-1365 -1402 0
-1365 -1403 0
-1402 -1403 0
1365 1402 1403 0
-1176 -1404 0
-1176 -1405 0
-1404 -1405 0
1176 1404 1405 0
-1406 -1407 0
-1406 -1408 0
-1407 -1408 0
1406 1407 1408 0
-1409 -1410 0
-1409 -1411 0
-1410 -1411 0
1409 1410 1411 0
-1412 -1413 0
-1412 -1414 0
-1413 -1414 0
1412 1413 1414 0
-1415 -1416 0
-1415 -1417 0
-1416 -1417 0
1415 1416 1417 0
-1418 -1419 0
-1418 -1420 0
-1419 -1420 0
1418 1419 1420 0
-1421 -1422 0
-1421 -1423 0
-1422 -1423 0
1421 1422 1423 0
-1424 -1425 0
-1424 -1426 0
-1425 -1426 0
1424 1425 1426 0
-1090 -1427 0
-1090 -1428 0
-1427 -1428 0
1090 1427 1428 0
-1429 -1430 0
-1429 -1431 0
-1430 -1431 0
1429 1430 1431 0
-1318 -1432 0
-1318 -1433 0
-1432 -1433 0
1318 1432 1433 0
-759 -1434 0
-759 -1435 0
-1434 -1435 0
759 1434 1435 0
-1436 -1437 0
-1436 -1438 0
-1437 -1438 0
1436 1437 1438 0
-918 -1439 0
-918 -1440 0
-1439 -1440 0
918 1439 1440 0
-1441 -1442 0
-1441 -1443 0
-1442 -1443 0
1441 1442 1443 0
-1444 -1445 0
-1444 -1446 0
-1445 -1446 0
1444 1445 1446 0
-1447 -1448 0
-1447 -1449 0
-1448 -1449 0
1447 1448 1449 0
-1450 -1451 0
-1450 -1452 0
-1451 -1452 0
1450 1451 1452 0
-1453 -1454 0
-1453 -1455 0
-1454 -1455 0
1453 1454 1455 0
-1456 -1457 0
-1456 -1458 0
-1457 -1458 0
1456 1457 1458 0
-1459 -1460 0
-1459 -1461 0
-1460 -1461 0
1459 1460 1461 0
-1040 -1462 0
-1040 -1463 0
-1462 -1463 0
1040 1462 1463 0
-1224 -1464 0
-1224 -1465 0
-1464 -1465 0
1224 1464 1465 0
-1466 -1467 0
-1466 -1468 0
-1467 -1468 0
1466 1467 1468 0
-1469 -1470 0
-1469 -1471 0
-1470 -1471 0
1469 1470 1471 0
-329 -1472 0
-329 -1473 0
-1472 -1473 0
329 1472 1473 0
-111 -1474 0
-111 -1475 0
-1474 -1475 0
111 1474 1475 0
-1476 -1477 0
-1476 -1478 0
-1477 -1478 0
1476 1477 1478 0
-1289 -1479 0
-1289 -1480 0
-1479 -1480 0
1289 1479 1480 0
-1481 -1482 0
-1481 -1483 0
-1482 -1483 0
1481 1482 1483 0
-81 -1484 0
-81 -1485 0
-1484 -1485 0
81 1484 1485 0
-1486 -1487 0
-1486 -1488 0
-1487 -1488 0
1486 1487 1488 0
-254 -1489 0
-254 -1490 0
-1489 -1490 0
254 1489 1490 0
-1491 -1492 0
-1491 -1493 0
-1492 -1493 0
1491 1492 1493 0
-1494 -1495 0
-1494 -1496 0
-1495 -1496 0
1494 1495 1496 0
-1497 -1498 0
-1497 -1499 0
-1498 -1499 0
1497 1498 1499 0
-856 -1500 0
-856 -1501 0
-1500 -1501 0
856 1500 1501 0
-1055 -1502 0
-1055 -1503 0
-1502 -1503 0
1055 1502 1503 0
-1504 -1505 0
-1504 -1506 0
-1505 -1506 0
1504 1505 1506 0
-1507 -1508 0
-1507 -1509 0
-1508 -1509 0
1507 1508 1509 0
-1510 -1511 0
-1510 -1512 0
-1511 -1512 0
1510 1511 1512 0
-937 -1513 0
-937 -1514 0
-1513 -1514 0
937 1513 1514 0
-1515 -1516 0
-1515 -1517 0
-1516 -1517 0
1515 1516 1517 0
-1518 -1519 0
-1518 -1520 0
-1519 -1520 0
1518 1519 1520 0
-293 -1521 0
-293 -1522 0
-1521 -1522 0
293 1521 1522 0
-1523 -1524 0
-1523 -1525 0
-1524 -1525 0
1523 1524 1525 0
-272 -1526 0
-272 -1527 0
-1526 -1527 0
272 1526 1527 0
-1528 -1529 0
-1528 -1530 0
-1529 -1530 0
1528 1529 1530 0
-1531 -1532 0
-1531 -1533 0
-1532 -1533 0
1531 1532 1533 0
-1534 -1535 0
-1534 -1536 0
-1535 -1536 0
1534 1535 1536 0
-1537 -1538 0
-1537 -1539 0
-1538 -1539 0
1537 1538 1539 0
-1540 -1541 0
-1540 -1542 0
-1541 -1542 0
1540 1541 1542 0
-1543 -1544 0
-1543 -1545 0
-1544 -1545 0
1543 1544 1545 0
-1546 -1547 0
-1546 -1548 0
-1547 -1548 0
1546 1547 1548 0
-1549 -1550 0
-1549 -1551 0
-1550 -1551 0
1549 1550 1551 0
-1552 -1553 0
-1552 -1554 0
-1553 -1554 0
1552 1553 1554 0
-1555 -1556 0
-1555 -1557 0
-1556 -1557 0
1555 1556 1557 0
-1558 -1559 0
-1558 -1560 0
-1559 -1560 0
1558 1559 1560 0
-1561 -1562 0
-1561 -1563 0
-1562 -1563 0
1561 1562 1563 0
-1564 -1565 0
-1564 -1566 0
-1565 -1566 0
1564 1565 1566 0
-1567 -1568 0
-1567 -1569 0
-1568 -1569 0
1567 1568 1569 0
-1046 -1570 0
-1046 -1571 0
-1570 -1571 0
1046 1570 1571 0
-670 -1572 0
-670 -1573 0
-1572 -1573 0
670 1572 1573 0
-1574 -1575 0
-1574 -1576 0
-1575 -1576 0
1574 1575 1576 0
-1577 -1578 0
-1577 -1579 0
-1578 -1579 0
1577 1578 1579 0
-1577 -1580 0
-1577 -1581 0
-1580 -1581 0
1577 1580 1581 0
-1582 -1583 0
-1582 -1584 0
-1583 -1584 0
1582 1583 1584 0
-1585 -1586 0
-1585 -1587 0
-1586 -1587 0
1585 1586 1587 0
-1588 -1589 0
-1588 -1590 0
-1589 -1590 0
1588 1589 1590 0
-1591 -1592 0
-1591 -1593 0
-1592 -1593 0
1591 1592 1593 0
-1594 -1595 0
-1594 -1596 0
-1595 -1596 0
1594 1595 1596 0
-1597 -1598 0
-1597 -1599 0
-1598 -1599 0
1597 1598 1599 0
-1600 -1601 0
-1600 -1602 0
-1601 -1602 0
1600 1601 1602 0
-1603 -1604 0
-1603 -1605 0
-1604 -1605 0
1603 1604 1605 0
-1606 -1607 0
-1606 -1608 0
-1607 -1608 0
1606 1607 1608 0
-1609 -1610 0
-1609 -1611 0
-1610 -1611 0
1609 1610 1611 0
-906 -1612 0
-906 -1613 0
-1612 -1613 0
906 1612 1613 0
-1614 -1615 0
-1614 -1616 0
-1615 -1616 0
1614 1615 1616 0
-1342 -1617 0
-1342 -1618 0
-1617 -1618 0
1342 1617 1618 0
-1619 -1620 0
-1619 -1621 0
-1620 -1621 0
1619 1620 1621 0
-1622 -1623 0
-1622 -1624 0
-1623 -1624 0
1622 1623 1624 0
-1625 -1626 0
-1625 -1627 0
-1626 -1627 0
1625 1626 1627 0
-996 -1200 0
-996 -1628 0
-1200 -1628 0
996 1200 1628 0
-1629 -1630 0
-1629 -1631 0
-1630 -1631 0
1629 1630 1631 0
-1552 -1632 0
-1552 -1633 0
-1632 -1633 0
1552 1632 1633 0
-1634 -1635 0
-1634 -1636 0
-1635 -1636 0
1634 1635 1636 0
-1637 -1638 0
-1637 -1639 0
-1638 -1639 0
1637 1638 1639 0
-1640 -1641 0
-1640 -1642 0
-1641 -1642 0
1640 1641 1642 0
-1643 -1644 0
-1643 -1645 0
-1644 -1645 0
1643 1644 1645 0
-67 -1646 0
-67 -1647 0
-1646 -1647 0
67 1646 1647 0
-1648 -1649 0
-1648 -1650 0
-1649 -1650 0
1648 1649 1650 0
-1651 -1652 0
-1651 -1653 0
-1652 -1653 0
1651 1652 1653 0
-1654 -1655 0
-1654 -1656 0
-1655 -1656 0
1654 1655 1656 0
-1657 -1658 0
-1657 -1659 0
-1658 -1659 0
1657 1658 1659 0
-1660 -1661 0
-1660 -1662 0
-1661 -1662 0
1660 1661 1662 0
-1177 -1663 0
-1177 -1664 0
-1663 -1664 0
1177 1663 1664 0
-1665 -1666 0
-1665 -1667 0
-1666 -1667 0
1665 1666 1667 0
-1668 -1669 0
-1668 -1670 0
-1669 -1670 0
1668 1669 1670 0
-1203 -1671 0
-1203 -1672 0
-1671 -1672 0
1203 1671 1672 0
-1673 -1674 0
-1673 -1675 0
-1674 -1675 0
1673 1674 1675 0
-1617 -1676 0
-1617 -1677 0
-1676 -1677 0
1617 1676 1677 0
-1678 -1679 0
-1678 -1680 0
-1679 -1680 0
1678 1679 1680 0
-1681 -1682 0
-1681 -1683 0
-1682 -1683 0
1681 1682 1683 0
-1684 -1685 0
-1684 -1686 0
-1685 -1686 0
1684 1685 1686 0
-266 -1687 0
-266 -1688 0
-1687 -1688 0
266 1687 1688 0
-1689 -1690 0
-1689 -1691 0
-1690 -1691 0
1689 1690 1691 0
-420 -930 0
-420 -1692 0
-930 -1692 0
420 930 1692 0
-1693 -1694 0
-1693 -1695 0
-1694 -1695 0
1693 1694 1695 0
-1696 -1697 0
-1696 -1698 0
-1697 -1698 0
1696 1697 1698 0
-1699 -1700 0
-1699 -1701 0
-1700 -1701 0
1699 1700 1701 0
-1702 -1703 0
-1702 -1704 0
-1703 -1704 0
1702 1703 1704 0
-1705 -1706 0
-1705 -1707 0
-1706 -1707 0
1705 1706 1707 0
-1708 -1709 0
-1708 -1710 0
-1709 -1710 0
1708 1709 1710 0
-1711 -1712 0
-1711 -1713 0
-1712 -1713 0
1711 1712 1713 0
-1714 -1715 0
-1714 -1716 0
-1715 -1716 0
1714 1715 1716 0
-1717 -1718 0
-1717 -1719 0
-1718 -1719 0
1717 1718 1719 0
-1720 -1721 0
-1720 -1722 0
-1721 -1722 0
1720 1721 1722 0
-1144 -1723 0
-1144 -1724 0
-1723 -1724 0
1144 1723 1724 0
-1725 -1726 0
-1725 -1727 0
-1726 -1727 0
1725 1726 1727 0
-1728 -1729 0
-1728 -1730 0
-1729 -1730 0
1728 1729 1730 0
-694 -1731 0
-694 -1732 0
-1731 -1732 0
694 1731 1732 0
-1733 -1734 0
-1733 -1735 0
-1734 -1735 0
1733 1734 1735 0
-658 -1415 0
-658 -1736 0
-1415 -1736 0
658 1415 1736 0
-1737 -1738 0
-1737 -1739 0
-1738 -1739 0
1737 1738 1739 0
-1740 -1741 0
-1740 -1742 0
-1741 -1742 0
1740 1741 1742 0
-1743 -1744 0
-1743 -1745 0
-1744 -1745 0
1743 1744 1745 0
-1746 -1747 0
-1746 -1748 0
-1747 -1748 0
1746 1747 1748 0
-1749 -1750 0
-1749 -1751 0
-1750 -1751 0
1749 1750 1751 0
-1752 -1753 0
-1752 -1754 0
-1753 -1754 0
1752 1753 1754 0
-1755 -1756 0
-1755 -1757 0
-1756 -1757 0
1755 1756 1757 0
-123 -1758 0
-123 -1759 0
-1758 -1759 0
123 1758 1759 0
-1760 -1761 0
-1760 -1762 0
-1761 -1762 0
1760 1761 1762 0
-1763 -1764 0
-1763 -1765 0
-1764 -1765 0
1763 1764 1765 0
-1766 -1767 0
-1766 -1768 0
-1767 -1768 0
1766 1767 1768 0
-1769 -1770 0
-1769 -1771 0
-1770 -1771 0
1769 1770 1771 0
-1772 -1773 0
-1772 -1774 0
-1773 -1774 0
1772 1773 1774 0
-842 -1775 0
-842 -1776 0
-1775 -1776 0
842 1775 1776 0
-1777 -1778 0
-1777 -1779 0
-1778 -1779 0
1777 1778 1779 0
-1780 -1781 0
-1780 -1782 0
-1781 -1782 0
1780 1781 1782 0
-1783 -1784 0
-1783 -1785 0
-1784 -1785 0
1783 1784 1785 0
-88 -1786 0
-88 -1787 0
-1786 -1787 0
88 1786 1787 0
-1788 -1789 0
-1788 -1790 0
-1789 -1790 0
1788 1789 1790 0
-843 -1791 0
-843 -1792 0
-1791 -1792 0
843 1791 1792 0
-659 -1385 0
-659 -1793 0
-1385 -1793 0
659 1385 1793 0
-1794 -1795 0
-1794 -1796 0
-1795 -1796 0
1794 1795 1796 0
-1797 -1798 0
-1797 -1799 0
-1798 -1799 0
1797 1798 1799 0
-1800 -1801 0
-1800 -1802 0
-1801 -1802 0
1800 1801 1802 0
-1803 -1804 0
-1803 -1805 0
-1804 -1805 0
1803 1804 1805 0
-117 -1806 0
-117 -1807 0
-1806 -1807 0
117 1806 1807 0
-1808 -1809 0
-1808 -1810 0
-1809 -1810 0
1808 1809 1810 0
-1811 -1812 0
-1811 -1813 0
-1812 -1813 0
1811 1812 1813 0
-1814 -1815 0
-1814 -1816 0
-1815 -1816 0
1814 1815 1816 0
-1817 -1818 0
-1817 -1819 0
-1818 -1819 0
1817 1818 1819 0
-1820 -1821 0
-1820 -1822 0
-1821 -1822 0
1820 1821 1822 0
-1823 -1824 0
-1823 -1825 0
-1824 -1825 0
1823 1824 1825 0
-1826 -1827 0
-1826 -1828 0
-1827 -1828 0
1826 1827 1828 0
-1829 -1830 0
-1829 -1831 0
-1830 -1831 0
1829 1830 1831 0
-1832 -1833 0
-1832 -1834 0
-1833 -1834 0
1832 1833 1834 0
-296 -470 0
-296 -1835 0
-470 -1835 0
296 470 1835 0
-1836 -1837 0
-1836 -1838 0
-1837 -1838 0
1836 1837 1838 0
-1839 -1840 0
-1839 -1841 0
-1840 -1841 0
1839 1840 1841 0
-1526 -1842 0
-1526 -1843 0
-1842 -1843 0
1526 1842 1843 0
-1844 -1845 0
-1844 -1846 0
-1845 -1846 0
1844 1845 1846 0
-1847 -1848 0
-1847 -1849 0
-1848 -1849 0
1847 1848 1849 0
-1850 -1851 0
-1850 -1852 0
-1851 -1852 0
1850 1851 1852 0
-1853 -1854 0
-1853 -1855 0
-1854 -1855 0
1853 1854 1855 0
-1444 -1856 0
-1444 -1857 0
-1856 -1857 0
1444 1856 1857 0
-1858 -1859 0
-1858 -1860 0
-1859 -1860 0
1858 1859 1860 0
-1194 -1861 0
-1194 -1862 0
-1861 -1862 0
1194 1861 1862 0
-1863 -1864 0
-1863 -1865 0
-1864 -1865 0
1863 1864 1865 0
-297 -1866 0
-297 -1867 0
-1866 -1867 0
297 1866 1867 0
-1868 -1869 0
-1868 -1870 0
-1869 -1870 0
1868 1869 1870 0
-1871 -1872 0
-1871 -1873 0
-1872 -1873 0
1871 1872 1873 0
-1874 -1875 0
-1874 -1876 0
-1875 -1876 0
1874 1875 1876 0
-379 -1877 0
-379 -1878 0
-1877 -1878 0
379 1877 1878 0
-411 -1879 0
-411 -1880 0
-1879 -1880 0
411 1879 1880 0
-215 -1881 0
-215 -1882 0
-1881 -1882 0
215 1881 1882 0
-1883 -1884 0
-1883 -1885 0
-1884 -1885 0
1883 1884 1885 0
-1886 -1887 0
-1886 -1888 0
-1887 -1888 0
1886 1887 1888 0
-1889 -1890 0
-1889 -1891 0
-1890 -1891 0
1889 1890 1891 0
-1892 -1893 0
-1892 -1894 0
-1893 -1894 0
1892 1893 1894 0
-1394 -1895 0
-1394 -1896 0
-1895 -1896 0
1394 1895 1896 0
-1897 -1898 0
-1897 -1899 0
-1898 -1899 0
1897 1898 1899 0
-1900 -1901 0
-1900 -1902 0
-1901 -1902 0
1900 1901 1902 0
-1113 -1903 0
-1113 -1904 0
-1903 -1904 0
1113 1903 1904 0
-1246 -1905 0
-1246 -1906 0
-1905 -1906 0
1246 1905 1906 0
-1907 -1908 0
-1907 -1909 0
-1908 -1909 0
1907 1908 1909 0
-1910 -1911 0
-1910 -1912 0
-1911 -1912 0
1910 1911 1912 0
-1689 -1913 0
-1689 -1914 0
-1913 -1914 0
1689 1913 1914 0
-400 -1915 0
-400 -1916 0
-1915 -1916 0
400 1915 1916 0
-1917 -1918 0
-1917 -1919 0
-1918 -1919 0
1917 1918 1919 0
-1920 -1921 0
-1920 -1922 0
-1921 -1922 0
1920 1921 1922 0
-1923 -1924 0
-1923 -1925 0
-1924 -1925 0
1923 1924 1925 0
-814 -1141 0
-814 -1926 0
-1141 -1926 0
814 1141 1926 0
-1927 -1928 0
-1927 -1929 0
-1928 -1929 0
1927 1928 1929 0
-1930 -1931 0
-1930 -1932 0
-1931 -1932 0
1930 1931 1932 0
-1933 -1934 0
-1933 -1935 0
-1934 -1935 0
1933 1934 1935 0
-1255 -1936 0
-1255 -1937 0
-1936 -1937 0
1255 1936 1937 0
-1938 -1939 0
-1938 -1940 0
-1939 -1940 0
1938 1939 1940 0
-979 -1941 0
-979 -1942 0
-1941 -1942 0
979 1941 1942 0
-921 -1943 0
-921 -1944 0
-1943 -1944 0
921 1943 1944 0
-402 -1945 0
-402 -1946 0
-1945 -1946 0
402 1945 1946 0
-1947 -1948 0
-1947 -1949 0
-1948 -1949 0
1947 1948 1949 0
-1950 -1951 0
-1950 -1952 0
-1951 -1952 0
1950 1951 1952 0
-1162 -1953 0
-1162 -1954 0
-1953 -1954 0
1162 1953 1954 0
-1955 -1956 0
-1955 -1957 0
-1956 -1957 0
1955 1956 1957 0
-1361 -1958 0
-1361 -1959 0
-1958 -1959 0
1361 1958 1959 0
-1960 -1961 0
-1960 -1962 0
-1961 -1962 0
1960 1961 1962 0
-1660 -1963 0
-1660 -1964 0
-1963 -1964 0
1660 1963 1964 0
-1965 -1966 0
-1965 -1967 0
-1966 -1967 0
1965 1966 1967 0
-1968 -1969 0
-1968 -1970 0
-1969 -1970 0
1968 1969 1970 0
-194 -1971 0
-194 -1972 0
-1971 -1972 0
194 1971 1972 0
-1973 -1974 0
-1973 -1975 0
-1974 -1975 0
1973 1974 1975 0
-1976 -1977 0
-1976 -1978 0
-1977 -1978 0
1976 1977 1978 0
-1979 -1980 0
-1979 -1981 0
-1980 -1981 0
1979 1980 1981 0
-1982 -1983 0
-1982 -1984 0
-1983 -1984 0
1982 1983 1984 0
-255 -1985 0
-255 -1986 0
-1985 -1986 0
255 1985 1986 0
-1927 -1987 0
-1927 -1988 0
-1987 -1988 0
1927 1987 1988 0
-1989 -1990 0
-1989 -1991 0
-1990 -1991 0
1989 1990 1991 0
-1992 -1993 0
-1992 -1994 0
-1993 -1994 0
1992 1993 1994 0
-1947 -1995 0
-1947 -1996 0
-1995 -1996 0
1947 1995 1996 0
-742 -1572 0
-742 -1997 0
-1572 -1997 0
742 1572 1997 0
-1998 -1999 0
-1998 -2000 0
-1999 -2000 0
1998 1999 2000 0
-1329 -2001 0
-1329 -2002 0
-2001 -2002 0
1329 2001 2002 0
-2003 -2004 0
-2003 -2005 0
-2004 -2005 0
2003 2004 2005 0
-227 -2006 0
-227 -2007 0
-2006 -2007 0
227 2006 2007 0
-1165 -2008 0
-1165 -2009 0
-2008 -2009 0
1165 2008 2009 0
-2010 -2011 0
-2010 -2012 0
-2011 -2012 0
2010 2011 2012 0
-2013 -2014 0
-2013 -2015 0
-2014 -2015 0
2013 2014 2015 0
-893 -2016 0
-893 -2017 0
-2016 -2017 0
893 2016 2017 0
-236 -2018 0
-236 -2019 0
-2018 -2019 0
236 2018 2019 0
-1910 -2020 0
-1910 -2021 0
-2020 -2021 0
1910 2020 2021 0
-2022 -2023 0
-2022 -2024 0
-2023 -2024 0
2022 2023 2024 0
-2025 -2026 0
-2025 -2027 0
-2026 -2027 0
2025 2026 2027 0
-2028 -2029 0
-2028 -2030 0
-2029 -2030 0
2028 2029 2030 0
-541 -2031 0
-541 -2032 0
-2031 -2032 0
541 2031 2032 0
-676 -2033 0
-676 -2034 0
-2033 -2034 0
676 2033 2034 0
-2035 -2036 0
-2035 -2037 0
-2036 -2037 0
2035 2036 2037 0
-437 -2038 0
-437 -2039 0
-2038 -2039 0
437 2038 2039 0
-2040 -2041 0
-2040 -2042 0
-2041 -2042 0
2040 2041 2042 0
-2043 -2044 0
-2043 -2045 0
-2044 -2045 0
2043 2044 2045 0
-1829 -2046 0
-1829 -2047 0
-2046 -2047 0
1829 2046 2047 0
-607 -2048 0
-607 -2049 0
-2048 -2049 0
607 2048 2049 0
-2050 -2051 0
-2050 -2052 0
-2051 -2052 0
2050 2051 2052 0
-2053 -2054 0
-2053 -2055 0
-2054 -2055 0
2053 2054 2055 0
-2056 -2057 0
-2056 -2058 0
-2057 -2058 0
2056 2057 2058 0
-2059 -2060 0
-2059 -2061 0
-2060 -2061 0
2059 2060 2061 0
-1269 -2062 0
-1269 -2063 0
-2062 -2063 0
1269 2062 2063 0
-2064 -2065 0
-2064 -2066 0
-2065 -2066 0
2064 2065 2066 0
-2067 -2068 0
-2067 -2069 0
-2068 -2069 0
2067 2068 2069 0
-1858 -2070 0
-1858 -2071 0
-2070 -2071 0
1858 2070 2071 0
-138 -1436 0
-138 -2072 0
-1436 -2072 0
138 1436 2072 0
-2073 -2074 0
-2073 -2075 0
-2074 -2075 0
2073 2074 2075 0
-939 -1665 0
-939 -2076 0
-1665 -2076 0
939 1665 2076 0
-2077 -2078 0
-2077 -2079 0
-2078 -2079 0
2077 2078 2079 0
-2080 -2081 0
-2080 -2082 0
-2081 -2082 0
2080 2081 2082 0
-2083 -2084 0
-2083 -2085 0
-2084 -2085 0
2083 2084 2085 0
-1084 -2086 0
-1084 -2087 0
-2086 -2087 0
1084 2086 2087 0
-2088 -2089 0
-2088 -2090 0
-2089 -2090 0
2088 2089 2090 0
-2091 -2092 0
-2091 -2093 0
-2092 -2093 0
2091 2092 2093 0
-414 -2094 0
-414 -2095 0
-2094 -2095 0
414 2094 2095 0
-2096 -2097 0
-2096 -2098 0
-2097 -2098 0
2096 2097 2098 0
-2099 -2100 0
-2099 -2101 0
-2100 -2101 0
2099 2100 2101 0
-2022 -2102 0
-2022 -2103 0
-2102 -2103 0
2022 2102 2103 0
-712 -2104 0
-712 -2105 0
-2104 -2105 0
712 2104 2105 0
-2106 -2107 0
-2106 -2108 0
-2107 -2108 0
2106 2107 2108 0
-308 -2109 0
-308 -2110 0
-2109 -2110 0
308 2109 2110 0
-2111 -2112 0
-2111 -2113 0
-2112 -2113 0
2111 2112 2113 0
-2067 -2114 0
-2067 -2115 0
-2114 -2115 0
2067 2114 2115 0
-2116 -2117 0
-2116 -2118 0
-2117 -2118 0
2116 2117 2118 0
-2119 -2120 0
-2119 -2121 0
-2120 -2121 0
2119 2120 2121 0
-756 -2122 0
-756 -2123 0
-2122 -2123 0
756 2122 2123 0
-2124 -2125 0
-2124 -2126 0
-2125 -2126 0
2124 2125 2126 0
-801 -2127 0
-801 -2128 0
-2127 -2128 0
801 2127 2128 0
-157 -1344 0
-157 -2129 0
-1344 -2129 0
157 1344 2129 0
-2130 -2131 0
-2130 -2132 0
-2131 -2132 0
2130 2131 2132 0
-1507 -2133 0
-1507 -2134 0
-2133 -2134 0
1507 2133 2134 0
-2135 -2136 0
-2135 -2137 0
-2136 -2137 0
2135 2136 2137 0
-2138 -2139 0
-2138 -2140 0
-2139 -2140 0
2138 2139 2140 0
-2141 -2142 0
-2141 -2143 0
-2142 -2143 0
2141 2142 2143 0
-1549 -1997 0
-1549 -2144 0
-1997 -2144 0
1549 1997 2144 0
-320 -2145 0
-320 -2146 0
-2145 -2146 0
320 2145 2146 0
-2147 -2148 0
-2147 -2149 0
-2148 -2149 0
2147 2148 2149 0
-600 -2150 0
-600 -2151 0
-2150 -2151 0
600 2150 2151 0
-825 -1777 0
-825 -2152 0
-1777 -2152 0
825 1777 2152 0
-2153 -2154 0
-2153 -2155 0
-2154 -2155 0
2153 2154 2155 0
-2156 -2157 0
-2156 -2158 0
-2157 -2158 0
2156 2157 2158 0
-311 -2159 0
-311 -2160 0
-2159 -2160 0
311 2159 2160 0
-2161 -2162 0
-2161 -2163 0
-2162 -2163 0
2161 2162 2163 0
-2164 -2165 0
-2164 -2166 0
-2165 -2166 0
2164 2165 2166 0
-874 -2167 0
-874 -2168 0
-2167 -2168 0
874 2167 2168 0
-1582 -2169 0
-1582 -2170 0
-2169 -2170 0
1582 2169 2170 0
-2171 -2172 0
-2171 -2173 0
-2172 -2173 0
2171 2172 2173 0
-2174 -2175 0
-2174 -2176 0
-2175 -2176 0
2174 2175 2176 0
-2053 -2177 0
-2053 -2178 0
-2177 -2178 0
2053 2177 2178 0
-2179 -2180 0
-2179 -2181 0
-2180 -2181 0
2179 2180 2181 0
-795 -2182 0
-795 -2183 0
-2182 -2183 0
795 2182 2183 0
-1737 -2184 0
-1737 -2185 0
-2184 -2185 0
1737 2184 2185 0
-2186 -2187 0
-2186 -2188 0
-2187 -2188 0
2186 2187 2188 0
-2189 -2190 0
-2189 -2191 0
-2190 -2191 0
2189 2190 2191 0
-1171 -2192 0
-1171 -2193 0
-2192 -2193 0
1171 2192 2193 0
-886 -2194 0
-886 -2195 0
-2194 -2195 0
886 2194 2195 0
-2196 -2197 0
-2196 -2198 0
-2197 -2198 0
2196 2197 2198 0
-2199 -2200 0
-2199 -2201 0
-2200 -2201 0
2199 2200 2201 0
-2202 -2203 0
-2202 -2204 0
-2203 -2204 0
2202 2203 2204 0
-688 -828 0
-688 -2205 0
-828 -2205 0
688 828 2205 0
-2206 -2207 0
-2206 -2208 0
-2207 -2208 0
2206 2207 2208 0
-2209 -2210 0
-2209 -2211 0
-2210 -2211 0
2209 2210 2211 0
-583 -2212 0
-583 -2213 0
-2212 -2213 0
583 2212 2213 0
-2156 -2214 0
-2156 -2215 0
-2214 -2215 0
2156 2214 2215 0
-290 -2216 0
-290 -2217 0
-2216 -2217 0
290 2216 2217 0
-2218 -2219 0
-2218 -2220 0
-2219 -2220 0
2218 2219 2220 0
-1494 -2221 0
-1494 -2222 0
-2221 -2222 0
1494 2221 2222 0
-745 -2223 0
-745 -2224 0
-2223 -2224 0
745 2223 2224 0
-1459 -2225 0
-1459 -2226 0
-2225 -2226 0
1459 2225 2226 0
-2227 -2228 0
-2227 -2229 0
-2228 -2229 0
2227 2228 2229 0
-2230 -2231 0
-2230 -2232 0
-2231 -2232 0
2230 2231 2232 0
-1643 -2233 0
-1643 -2234 0
-2233 -2234 0
1643 2233 2234 0
-2235 -2236 0
-2235 -2237 0
-2236 -2237 0
2235 2236 2237 0
-1619 -2238 0
-1619 -2239 0
-2238 -2239 0
1619 2238 2239 0
-78 -2240 0
-78 -2241 0
-2240 -2241 0
78 2240 2241 0
-2242 -2243 0
-2242 -2244 0
-2243 -2244 0
2242 2243 2244 0
-2245 -2246 0
-2245 -2247 0
-2246 -2247 0
2245 2246 2247 0
-2248 -2249 0
-2248 -2250 0
-2249 -2250 0
2248 2249 2250 0
-2251 -2252 0
-2251 -2253 0
-2252 -2253 0
2251 2252 2253 0
-2254 -2255 0
-2254 -2256 0
-2255 -2256 0
2254 2255 2256 0
-1209 -2257 0
-1209 -2258 0
-2257 -2258 0
1209 2257 2258 0
-2259 -2260 0
-2259 -2261 0
-2260 -2261 0
2259 2260 2261 0
-2262 -2263 0
-2262 -2264 0
-2263 -2264 0
2262 2263 2264 0
-2265 -2266 0
-2265 -2267 0
-2266 -2267 0
2265 2266 2267 0
-224 -2268 0
-224 -2269 0
-2268 -2269 0
224 2268 2269 0
-2270 -2271 0
-2270 -2272 0
-2271 -2272 0
2270 2271 2272 0
-447 -2273 0
-447 -2274 0
-2273 -2274 0
447 2273 2274 0
-2275 -2276 0
-2275 -2277 0
-2276 -2277 0
2275 2276 2277 0
-588 -2278 0
-588 -2279 0
-2278 -2279 0
588 2278 2279 0
-2280 -2281 0
-2280 -2282 0
-2281 -2282 0
2280 2281 2282 0
-2283 -2284 0
-2283 -2285 0
-2284 -2285 0
2283 2284 2285 0
-2286 -2287 0
-2286 -2288 0
-2287 -2288 0
2286 2287 2288 0
-2289 -2290 0
-2289 -2291 0
-2290 -2291 0
2289 2290 2291 0
-2292 -2293 0
-2292 -2294 0
-2293 -2294 0
2292 2293 2294 0
-2295 -2296 0
-2295 -2297 0
-2296 -2297 0
2295 2296 2297 0
-2298 -2299 0
-2298 -2300 0
-2299 -2300 0
2298 2299 2300 0
-35 -2301 0
-35 -2302 0
-2301 -2302 0
35 2301 2302 0
-968 -2303 0
-968 -2304 0
-2303 -2304 0
968 2303 2304 0
-2305 -2306 0
-2305 -2307 0
-2306 -2307 0
2305 2306 2307 0
-2270 -2308 0
-2270 -2309 0
-2308 -2309 0
2270 2308 2309 0
-859 -2310 0
-859 -2311 0
-2310 -2311 0
859 2310 2311 0
-736 -2312 0
-736 -2313 0
-2312 -2313 0
736 2312 2313 0
-871 -2314 0
-871 -2315 0
-2314 -2315 0
871 2314 2315 0
-2316 -2317 0
-2316 -2318 0
-2317 -2318 0
2316 2317 2318 0
-2319 -2320 0
-2319 -2321 0
-2320 -2321 0
2319 2320 2321 0
-2322 -2323 0
-2322 -2324 0
-2323 -2324 0
2322 2323 2324 0
-547 -2325 0
-547 -2326 0
-2325 -2326 0
547 2325 2326 0
-221 -2327 0
-221 -2328 0
-2327 -2328 0
221 2327 2328 0
-2329 -2330 0
-2329 -2331 0
-2330 -2331 0
2329 2330 2331 0
-2332 -2333 0
-2332 -2334 0
-2333 -2334 0
2332 2333 2334 0
-145 -1222 0
-145 -2335 0
-1222 -2335 0
145 1222 2335 0
-927 -2336 0
-927 -2337 0
-2336 -2337 0
927 2336 2337 0
-2338 -2339 0
-2338 -2340 0
-2339 -2340 0
2338 2339 2340 0
-2035 -2341 0
-2035 -2342 0
-2341 -2342 0
2035 2341 2342 0
-2054 -2343 0
-2054 -2344 0
-2343 -2344 0
2054 2343 2344 0
-2345 -2346 0
-2345 -2347 0
-2346 -2347 0
2345 2346 2347 0
-1456 -2348 0
-1456 -2349 0
-2348 -2349 0
1456 2348 2349 0
-2350 -2351 0
-2350 -2352 0
-2351 -2352 0
2350 2351 2352 0
-2353 -2354 0
-2353 -2355 0
-2354 -2355 0
2353 2354 2355 0
-703 -834 0
-703 -2356 0
-834 -2356 0
703 834 2356 0
-875 -2357 0
-875 -2358 0
-2357 -2358 0
875 2357 2358 0
-106 -2359 0
-106 -2360 0
-2359 -2360 0
106 2359 2360 0
-2361 -2362 0
-2361 -2363 0
-2362 -2363 0
2361 2362 2363 0
-10 -2364 0
-10 -2365 0
-2364 -2365 0
10 2364 2365 0
-2366 -2367 0
-2366 -2368 0
-2367 -2368 0
2366 2367 2368 0
-604 -2369 0
-604 -2370 0
-2369 -2370 0
604 2369 2370 0
-2013 -2371 0
-2013 -2372 0
-2371 -2372 0
2013 2371 2372 0
-376 -2373 0
-376 -2374 0
-2373 -2374 0
376 2373 2374 0
-557 -2375 0
-557 -2376 0
-2375 -2376 0
557 2375 2376 0
-2377 -2378 0
-2377 -2379 0
-2378 -2379 0
2377 2378 2379 0
-1564 -2380 0
-1564 -2381 0
-2380 -2381 0
1564 2380 2381 0
-2382 -2383 0
-2382 -2384 0
-2383 -2384 0
2382 2383 2384 0
-2385 -2386 0
-2385 -2387 0
-2386 -2387 0
2385 2386 2387 0
-2388 -2389 0
-2388 -2390 0
-2389 -2390 0
2388 2389 2390 0
-1096 -2391 0
-1096 -2392 0
-2391 -2392 0
1096 2391 2392 0
-2393 -2394 0
-2393 -2395 0
-2394 -2395 0
2393 2394 2395 0
-2396 -2397 0
-2396 -2398 0
-2397 -2398 0
2396 2397 2398 0
-2399 -2400 0
-2399 -2401 0
-2400 -2401 0
2399 2400 2401 0
-2402 -2403 0
-2402 -2404 0
-2403 -2404 0
2402 2403 2404 0
-2405 -2406 0
-2405 -2407 0
-2406 -2407 0
2405 2406 2407 0
-2408 -2409 0
-2408 -2410 0
-2409 -2410 0
2408 2409 2410 0
-1267 -2411 0
-1267 -2412 0
-2411 -2412 0
1267 2411 2412 0
-548 -2413 0
-548 -2414 0
-2413 -2414 0
548 2413 2414 0
-2415 -2416 0
-2415 -2417 0
-2416 -2417 0
2415 2416 2417 0
-1769 -2418 0
-1769 -2419 0
-2418 -2419 0
1769 2418 2419 0
-620 -2420 0
-620 -2421 0
-2420 -2421 0
620 2420 2421 0
-2422 -2423 0
-2422 -2424 0
-2423 -2424 0
2422 2423 2424 0
-1614 -2425 0
-1614 -2426 0
-2425 -2426 0
1614 2425 2426 0
-631 -2427 0
-631 -2428 0
-2427 -2428 0
631 2427 2428 0
-901 -2429 0
-901 -2430 0
-2429 -2430 0
901 2429 2430 0
-2431 -2432 0
-2431 -2433 0
-2432 -2433 0
2431 2432 2433 0
-2434 -2435 0
-2434 -2436 0
-2435 -2436 0
2434 2435 2436 0
-2437 -2438 0
-2437 -2439 0
-2438 -2439 0
2437 2438 2439 0
-2116 -2440 0
-2116 -2441 0
-2440 -2441 0
2116 2440 2441 0
-2442 -2443 0
-2442 -2444 0
-2443 -2444 0
2442 2443 2444 0
-1808 -2445 0
-1808 -2446 0
-2445 -2446 0
1808 2445 2446 0
-2447 -2448 0
-2447 -2449 0
-2448 -2449 0
2447 2448 2449 0
-2218 -2450 0
-2218 -2451 0
-2450 -2451 0
2218 2450 2451 0
-2452 -2453 0
-2452 -2454 0
-2453 -2454 0
2452 2453 2454 0
-471 -2455 0
-471 -2456 0
-2455 -2456 0
471 2455 2456 0
-2147 -2457 0
-2147 -2458 0
-2457 -2458 0
2147 2457 2458 0
-2459 -2460 0
-2459 -2461 0
-2460 -2461 0
2459 2460 2461 0
-2206 -2462 0
-2206 -2463 0
-2462 -2463 0
2206 2462 2463 0
-1832 -2194 0
-1832 -2464 0
-2194 -2464 0
1832 2194 2464 0
-2465 -2466 0
-2465 -2467 0
-2466 -2467 0
2465 2466 2467 0
-2468 -2469 0
-2468 -2470 0
-2469 -2470 0
2468 2469 2470 0
-2471 -2472 0
-2471 -2473 0
-2472 -2473 0
2471 2472 2473 0
-200 -2474 0
-200 -2475 0
-2474 -2475 0
200 2474 2475 0
-2050 -2476 0
-2050 -2477 0
-2476 -2477 0
2050 2476 2477 0
-1225 -1252 0
-1225 -2478 0
-1252 -2478 0
1225 1252 2478 0
-2479 -2480 0
-2479 -2481 0
-2480 -2481 0
2479 2480 2481 0
-2373 -2482 0
-2373 -2483 0
-2482 -2483 0
2373 2482 2483 0
-22 -781 0
-22 -2484 0
-781 -2484 0
22 781 2484 0
-2485 -2486 0
-2485 -2487 0
-2486 -2487 0
2485 2486 2487 0
-1603 -2488 0
-1603 -2489 0
-2488 -2489 0
1603 2488 2489 0
-61 -1137 0
-61 -2490 0
-1137 -2490 0
61 1137 2490 0
-697 -2431 0
-697 -2491 0
-2431 -2491 0
697 2431 2491 0
-2492 -2493 0
-2492 -2494 0
-2493 -2494 0
2492 2493 2494 0
-2495 -2496 0
-2495 -2497 0
-2496 -2497 0
2495 2496 2497 0
-2498 -2499 0
-2498 -2500 0
-2499 -2500 0
2498 2499 2500 0
-2501 -2502 0
-2501 -2503 0
-2502 -2503 0
2501 2502 2503 0
-90 -2504 0
-90 -2505 0
-2504 -2505 0
90 2504 2505 0
-2506 -2507 0
-2506 -2508 0
-2507 -2508 0
2506 2507 2508 0
-1101 -2509 0
-1101 -2510 0
-2509 -2510 0
1101 2509 2510 0
-2511 -2512 0
-2511 -2513 0
-2512 -2513 0
2511 2512 2513 0
-2345 -2514 0
-2345 -2515 0
-2514 -2515 0
2345 2514 2515 0
-403 -2516 0
-403 -2517 0
-2516 -2517 0
403 2516 2517 0
-2518 -2519 0
-2518 -2520 0
-2519 -2520 0
2518 2519 2520 0
-2521 -2522 0
-2521 -2523 0
-2522 -2523 0
2521 2522 2523 0
-2524 -2525 0
-2524 -2526 0
-2525 -2526 0
2524 2525 2526 0
-951 -2527 0
-951 -2528 0
-2527 -2528 0
951 2527 2528 0
-1588 -2529 0
-1588 -2530 0
-2529 -2530 0
1588 2529 2530 0
-553 -1933 0
-553 -2531 0
-1933 -2531 0
553 1933 2531 0
-415 -2532 0
-415 -2533 0
-2532 -2533 0
415 2532 2533 0
-2534 -2535 0
-2534 -2536 0
-2535 -2536 0
2534 2535 2536 0
-1447 -2537 0
-1447 -2538 0
-2537 -2538 0
1447 2537 2538 0
-2539 -2540 0
-2539 -2541 0
-2540 -2541 0
2539 2540 2541 0
-2542 -2543 0
-2542 -2544 0
-2543 -2544 0
2542 2543 2544 0
-2545 -2546 0
-2545 -2547 0
-2546 -2547 0
2545 2546 2547 0
-2548 -2549 0
-2548 -2550 0
-2549 -2550 0
2548 2549 2550 0
-1337 -2551 0
-1337 -2552 0
-2551 -2552 0
1337 2551 2552 0
-2553 -2554 0
-2553 -2555 0
-2554 -2555 0
2553 2554 2555 0
-2556 -2557 0
-2556 -2558 0
-2557 -2558 0
2556 2557 2558 0
-558 -2559 0
-558 -2560 0
-2559 -2560 0
558 2559 2560 0
-2561 -2562 0
-2561 -2563 0
-2562 -2563 0
2561 2562 2563 0
-2564 -2565 0
-2564 -2566 0
-2565 -2566 0
2564 2565 2566 0
-527 -1625 0
-527 -2567 0
-1625 -2567 0
527 1625 2567 0
-2568 -2569 0
-2568 -2570 0
-2569 -2570 0
2568 2569 2570 0
-2571 -2572 0
-2571 -2573 0
-2572 -2573 0
2571 2572 2573 0
-2574 -2575 0
-2574 -2576 0
-2575 -2576 0
2574 2575 2576 0
-2577 -2578 0
-2577 -2579 0
-2578 -2579 0
2577 2578 2579 0
-2580 -2581 0
-2580 -2582 0
-2581 -2582 0
2580 2581 2582 0
-251 -2583 0
-251 -2584 0
-2583 -2584 0
251 2583 2584 0
-2585 -2586 0
-2585 -2587 0
-2586 -2587 0
2585 2586 2587 0
-2588 -2589 0
-2588 -2590 0
-2589 -2590 0
2588 2589 2590 0
-2591 -2592 0
-2591 -2593 0
-2592 -2593 0
2591 2592 2593 0
-1743 -2594 0
-1743 -2595 0
-2594 -2595 0
1743 2594 2595 0
-435 -576 0
-435 -2596 0
-576 -2596 0
435 576 2596 0
-2597 -2598 0
-2597 -2599 0
-2598 -2599 0
2597 2598 2599 0
-909 -2600 0
-909 -2601 0
-2600 -2601 0
909 2600 2601 0
-1540 -1749 0
-1540 -2602 0
-1749 -2602 0
1540 1749 2602 0
-1508 -2073 0
-1508 -2603 0
-2073 -2603 0
1508 2073 2603 0
-2604 -2605 0
-2604 -2606 0
-2605 -2606 0
2604 2605 2606 0
-483 -2607 0
-483 -2608 0
-2607 -2608 0
483 2607 2608 0
-2609 -2610 0
-2609 -2611 0
-2610 -2611 0
2609 2610 2611 0
-2612 -2613 0
-2612 -2614 0
-2613 -2614 0
2612 2613 2614 0
-2615 -2616 0
-2615 -2617 0
-2616 -2617 0
2615 2616 2617 0
-912 -2018 0
-912 -2618 0
-2018 -2618 0
912 2018 2618 0
-704 -1657 0
-704 -2619 0
-1657 -2619 0
704 1657 2619 0
-2620 -2621 0
-2620 -2622 0
-2621 -2622 0
2620 2621 2622 0
-2548 -2623 0
-2548 -2624 0
-2623 -2624 0
2548 2623 2624 0
-1651 -2625 0
-1651 -2626 0
-2625 -2626 0
1651 2625 2626 0
-287 -2627 0
-287 -2628 0
-2627 -2628 0
287 2627 2628 0
-2629 -2630 0
-2629 -2631 0
-2630 -2631 0
2629 2630 2631 0
-854 -2632 0
-854 -2633 0
-2632 -2633 0
854 2632 2633 0
-1388 -1481 0
-1388 -2634 0
-1481 -2634 0
1388 1481 2634 0
-2635 -2636 0
-2635 -2637 0
-2636 -2637 0
2635 2636 2637 0
-2638 -2639 0
-2638 -2640 0
-2639 -2640 0
2638 2639 2640 0
-2641 -2642 0
-2641 -2643 0
-2642 -2643 0
2641 2642 2643 0
-762 -1495 0
-762 -2644 0
-1495 -2644 0
762 1495 2644 0
-1853 -2645 0
-1853 -2646 0
-2645 -2646 0
1853 2645 2646 0
-2298 -2647 0
-2298 -2648 0
-2647 -2648 0
2298 2647 2648 0
-407 -1537 0
-407 -2649 0
-1537 -2649 0
407 1537 2649 0
-1019 -2650 0
-1019 -2651 0
-2650 -2651 0
1019 2650 2651 0
-2202 -2214 0
-2202 -2652 0
-2214 -2652 0
2202 2214 2652 0
-2653 -2654 0
-2653 -2655 0
-2654 -2655 0
2653 2654 2655 0
-2380 -2656 0
-2380 -2657 0
-2656 -2657 0
2380 2656 2657 0
-730 -2658 0
-730 -2659 0
-2658 -2659 0
730 2658 2659 0
-2660 -2661 0
-2660 -2662 0
-2661 -2662 0
2660 2661 2662 0
-2186 -2585 0
-2186 -2663 0
-2585 -2663 0
2186 2585 2663 0
-567 -2664 0
-567 -2665 0
-2664 -2665 0
567 2664 2665 0
-2666 -2667 0
-2666 -2668 0
-2667 -2668 0
2666 2667 2668 0
-2669 -2670 0
-2669 -2671 0
-2670 -2671 0
2669 2670 2671 0
-2077 -2672 0
-2077 -2673 0
-2672 -2673 0
2077 2672 2673 0
-2674 -2675 0
-2674 -2676 0
-2675 -2676 0
2674 2675 2676 0
-2677 -2678 0
-2677 -2679 0
-2678 -2679 0
2677 2678 2679 0
-218 -1897 0
-218 -2680 0
-1897 -2680 0
218 1897 2680 0
-2415 -2681 0
-2415 -2682 0
-2681 -2682 0
2415 2681 2682 0
-2683 -2684 0
-2683 -2685 0
-2684 -2685 0
2683 2684 2685 0
-2686 -2687 0
-2686 -2688 0
-2687 -2688 0
2686 2687 2688 0
-1053 -2689 0
-1053 -2690 0
-2689 -2690 0
1053 2689 2690 0
-1290 -2691 0
-1290 -2692 0
-2691 -2692 0
1290 2691 2692 0
-2693 -2694 0
-2693 -2695 0
-2694 -2695 0
2693 2694 2695 0
-2696 -2697 0
-2696 -2698 0
-2697 -2698 0
2696 2697 2698 0
-2699 -2700 0
-2699 -2701 0
-2700 -2701 0
2699 2700 2701 0
-2702 -2703 0
-2702 -2704 0
-2703 -2704 0
2702 2703 2704 0
-1760 -2705 0
-1760 -2706 0
-2705 -2706 0
1760 2705 2706 0
-2707 -2708 0
-2707 -2709 0
-2708 -2709 0
2707 2708 2709 0
-2710 -2711 0
-2710 -2712 0
-2711 -2712 0
2710 2711 2712 0
-896 -2713 0
-896 -2714 0
-2713 -2714 0
896 2713 2714 0
-1330 -2715 0
-1330 -2716 0
-2715 -2716 0
1330 2715 2716 0
-2717 -2718 0
-2717 -2719 0
-2718 -2719 0
2717 2718 2719 0
-2184 -2720 0
-2184 -2721 0
-2720 -2721 0
2184 2720 2721 0
-2722 -2723 0
-2722 -2724 0
-2723 -2724 0
2722 2723 2724 0
-2117 -2725 0
-2117 -2726 0
-2725 -2726 0
2117 2725 2726 0
-1379 -2727 0
-1379 -2728 0
-2727 -2728 0
1379 2727 2728 0
-2549 -2729 0
-2549 -2730 0
-2729 -2730 0
2549 2729 2730 0
-2731 -2732 0
-2731 -2733 0
-2732 -2733 0
2731 2732 2733 0
-746 -2734 0
-746 -2735 0
-2734 -2735 0
746 2734 2735 0
-2736 -2737 0
-2736 -2738 0
-2737 -2738 0
2736 2737 2738 0
-353 -2739 0
-353 -2740 0
-2739 -2740 0
353 2739 2740 0
-2741 -2742 0
-2741 -2743 0
-2742 -2743 0
2741 2742 2743 0
-2744 -2745 0
-2744 -2746 0
-2745 -2746 0
2744 2745 2746 0
-2747 -2748 0
-2747 -2749 0
-2748 -2749 0
2747 2748 2749 0
-1626 -2750 0
-1626 -2751 0
-2750 -2751 0
1626 2750 2751 0
-2375 -2752 0
-2375 -2753 0
-2752 -2753 0
2375 2752 2753 0
-2754 -2755 0
-2754 -2756 0
-2755 -2756 0
2754 2755 2756 0
-2757 -2758 0
-2757 -2759 0
-2758 -2759 0
2757 2758 2759 0
-2468 -2760 0
-2468 -2761 0
-2760 -2761 0
2468 2760 2761 0
-2138 -2762 0
-2138 -2763 0
-2762 -2763 0
2138 2762 2763 0
-2577 -2764 0
-2577 -2765 0
-2764 -2765 0
2577 2764 2765 0
-2766 -2767 0
-2766 -2768 0
-2767 -2768 0
2766 2767 2768 0
-120 -2769 0
-120 -2770 0
-2769 -2770 0
120 2769 2770 0
-2416 -2696 0
-2416 -2771 0
-2696 -2771 0
2416 2696 2771 0
-2772 -2773 0
-2772 -2774 0
-2773 -2774 0
2772 2773 2774 0
-2775 -2776 0
-2775 -2777 0
-2776 -2777 0
2775 2776 2777 0
-2778 -2779 0
-2778 -2780 0
-2779 -2780 0
2778 2779 2780 0
-2056 -2781 0
-2056 -2782 0
-2781 -2782 0
2056 2781 2782 0
-506 -1298 0
-506 -2783 0
-1298 -2783 0
506 1298 2783 0
-2784 -2785 0
-2784 -2786 0
-2785 -2786 0
2784 2785 2786 0
-401 -542 0
-401 -2787 0
-542 -2787 0
401 542 2787 0
-2491 -2788 0
-2491 -2789 0
-2788 -2789 0
2491 2788 2789 0
-721 -2790 0
-721 -2791 0
-2790 -2791 0
721 2790 2791 0
-2792 -2793 0
-2792 -2794 0
-2793 -2794 0
2792 2793 2794 0
-2795 -2796 0
-2795 -2797 0
-2796 -2797 0
2795 2796 2797 0
-698 -2798 0
-698 -2799 0
-2798 -2799 0
698 2798 2799 0
-2800 -2801 0
-2800 -2802 0
-2801 -2802 0
2800 2801 2802 0
-2803 -2804 0
-2803 -2805 0
-2804 -2805 0
2803 2804 2805 0
-902 -2806 0
-902 -2807 0
-2806 -2807 0
902 2806 2807 0
-940 -2808 0
-940 -2809 0
-2808 -2809 0
940 2808 2809 0
-2810 -2811 0
-2810 -2812 0
-2811 -2812 0
2810 2811 2812 0
-1037 -2813 0
-1037 -2814 0
-2813 -2814 0
1037 2813 2814 0
-2815 -2816 0
-2815 -2817 0
-2816 -2817 0
2815 2816 2817 0
-2818 -2819 0
-2818 -2820 0
-2819 -2820 0
2818 2819 2820 0
-168 -2609 0
-168 -2821 0
-2609 -2821 0
168 2609 2821 0
-2822 -2823 0
-2822 -2824 0
-2823 -2824 0
2822 2823 2824 0
-1555 -2825 0
-1555 -2826 0
-2825 -2826 0
1555 2825 2826 0
-727 -2827 0
-727 -2828 0
-2827 -2828 0
727 2827 2828 0
-2602 -2829 0
-2602 -2830 0
-2829 -2830 0
2602 2829 2830 0
-2831 -2832 0
-2831 -2833 0
-2832 -2833 0
2831 2832 2833 0
-2834 -2835 0
-2834 -2836 0
-2835 -2836 0
2834 2835 2836 0
-1063 -2837 0
-1063 -2838 0
-2837 -2838 0
1063 2837 2838 0
-2839 -2840 0
-2839 -2841 0
-2840 -2841 0
2839 2840 2841 0
-2842 -2843 0
-2842 -2844 0
-2843 -2844 0
2842 2843 2844 0
-2645 -2845 0
-2645 -2846 0
-2845 -2846 0
2645 2845 2846 0
-281 -1654 0
-281 -2847 0
-1654 -2847 0
281 1654 2847 0
-385 -2739 0
-385 -2848 0
-2739 -2848 0
385 2739 2848 0
-2849 -2850 0
-2849 -2851 0
-2850 -2851 0
2849 2850 2851 0
-2852 -2853 0
-2852 -2854 0
-2853 -2854 0
2852 2853 2854 0
-2855 -2856 0
-2855 -2857 0
-2856 -2857 0
2855 2856 2857 0
-1728 -2858 0
-1728 -2859 0
-2858 -2859 0
1728 2858 2859 0
-643 -976 0
-643 -2860 0
-976 -2860 0
643 976 2860 0
-2861 -2862 0
-2861 -2863 0
-2862 -2863 0
2861 2862 2863 0
-2455 -2864 0
-2455 -2865 0
-2864 -2865 0
2455 2864 2865 0
-2866 -2867 0
-2866 -2868 0
-2867 -2868 0
2866 2867 2868 0
-2869 -2870 0
-2869 -2871 0
-2870 -2871 0
2869 2870 2871 0
-528 -2872 0
-528 -2873 0
-2872 -2873 0
528 2872 2873 0
-2874 -2875 0
-2874 -2876 0
-2875 -2876 0
2874 2875 2876 0
-1218 -2877 0
-1218 -2878 0
-2877 -2878 0
1218 2877 2878 0
-242 -2741 0
-242 -2879 0
-2741 -2879 0
242 2741 2879 0
-2880 -2881 0
-2880 -2882 0
-2881 -2882 0
2880 2881 2882 0
-2883 -2884 0
-2883 -2885 0
-2884 -2885 0
2883 2884 2885 0
-1292 -2886 0
-1292 -2887 0
-2886 -2887 0
1292 2886 2887 0
-2888 -2889 0
-2888 -2890 0
-2889 -2890 0
2888 2889 2890 0
-2891 -2892 0
-2891 -2893 0
-2892 -2893 0
2891 2892 2893 0
-2821 -2894 0
-2821 -2895 0
-2894 -2895 0
2821 2894 2895 0
-2896 -2897 0
-2896 -2898 0
-2897 -2898 0
2896 2897 2898 0
-69 -2899 0
-69 -2900 0
-2899 -2900 0
69 2899 2900 0
-2901 -2902 0
-2901 -2903 0
-2902 -2903 0
2901 2902 2903 0
-1963 -2904 0
-1963 -2905 0
-2904 -2905 0
1963 2904 2905 0
-2906 -2907 0
-2906 -2908 0
-2907 -2908 0
2906 2907 2908 0
-2909 -2910 0
-2909 -2911 0
-2910 -2911 0
2909 2910 2911 0
-260 -1391 0
-260 -2912 0
-1391 -2912 0
260 1391 2912 0
-2913 -2914 0
-2913 -2915 0
-2914 -2915 0
2913 2914 2915 0
-2629 -2916 0
-2629 -2917 0
-2916 -2917 0
2629 2916 2917 0
-2918 -2919 0
-2918 -2920 0
-2919 -2920 0
2918 2919 2920 0
-2921 -2922 0
-2921 -2923 0
-2922 -2923 0
2921 2922 2923 0
-263 -2924 0
-263 -2925 0
-2924 -2925 0
263 2924 2925 0
-1546 -2926 0
-1546 -2927 0
-2926 -2927 0
1546 2926 2927 0
-2357 -2775 0
-2357 -2928 0
-2775 -2928 0
2357 2775 2928 0
-1911 -2141 0
-1911 -2929 0
-2141 -2929 0
1911 2141 2929 0
-1227 -2930 0
-1227 -2931 0
-2930 -2931 0
1227 2930 2931 0
-2932 -2933 0
-2932 -2934 0
-2933 -2934 0
2932 2933 2934 0
-2583 -2935 0
-2583 -2936 0
-2935 -2936 0
2583 2935 2936 0
-2019 -2937 0
-2019 -2938 0
-2937 -2938 0
2019 2937 2938 0
-2939 -2940 0
-2939 -2941 0
-2940 -2941 0
2939 2940 2941 0
-2942 -2943 0
-2942 -2944 0
-2943 -2944 0
2942 2943 2944 0
-354 -1714 0
-354 -2945 0
-1714 -2945 0
354 1714 2945 0
-212 -897 0
-212 -2946 0
-897 -2946 0
212 897 2946 0
-1847 -2947 0
-1847 -2948 0
-2947 -2948 0
1847 2947 2948 0
-391 -2949 0
-391 -2950 0
-2949 -2950 0
391 2949 2950 0
-2951 -2952 0
-2951 -2953 0
-2952 -2953 0
2951 2952 2953 0
-2954 -2955 0
-2954 -2956 0
-2955 -2956 0
2954 2955 2956 0
-2957 -2958 0
-2957 -2959 0
-2958 -2959 0
2957 2958 2959 0
-771 -2960 0
-771 -2961 0
-2960 -2961 0
771 2960 2961 0
-1066 -2962 0
-1066 -2963 0
-2962 -2963 0
1066 2962 2963 0
-1087 -2567 0
-1087 -2964 0
-2567 -2964 0
1087 2567 2964 0
-2965 -2966 0
-2965 -2967 0
-2966 -2967 0
2965 2966 2967 0
-2968 -2969 0
-2968 -2970 0
-2969 -2970 0
2968 2969 2970 0
-2971 -2972 0
-2971 -2973 0
-2972 -2973 0
2971 2972 2973 0
-267 -2974 0
-267 -2975 0
-2974 -2975 0
267 2974 2975 0
-305 -999 0
-305 -2976 0
-999 -2976 0
305 999 2976 0
-2212 -2977 0
-2212 -2978 0
-2977 -2978 0
2212 2977 2978 0
-942 -2979 0
-942 -2980 0
-2979 -2980 0
942 2979 2980 0
-2981 -2982 0
-2981 -2983 0
-2982 -2983 0
2981 2982 2983 0
-2984 -2985 0
-2984 -2986 0
-2985 -2986 0
2984 2985 2986 0
-2987 -2988 0
-2987 -2989 0
-2988 -2989 0
2987 2988 2989 0
-2990 -2991 0
-2990 -2992 0
-2991 -2992 0
2990 2991 2992 0
-2993 -2994 0
-2993 -2995 0
-2994 -2995 0
2993 2994 2995 0
-2996 -2997 0
-2996 -2998 0
-2997 -2998 0
2996 2997 2998 0
-1020 -2999 0
-1020 -3000 0
-2999 -3000 0
1020 2999 3000 0
-1264 -3001 0
-1264 -3002 0
-3001 -3002 0
1264 3001 3002 0
-3003 -3004 0
-3003 -3005 0
-3004 -3005 0
3003 3004 3005 0
-1502 -3006 0
-1502 -3007 0
-3006 -3007 0
1502 3006 3007 0
-640 -3008 0
-640 -3009 0
-3008 -3009 0
640 3008 3009 0
-2450 -3010 0
-2450 -3011 0
-3010 -3011 0
2450 3010 3011 0
-3012 -3013 0
-3012 -3014 0
-3013 -3014 0
3012 3013 3014 0
-3015 -3016 0
-3015 -3017 0
-3016 -3017 0
3015 3016 3017 0
-772 -3018 0
-772 -3019 0
-3018 -3019 0
772 3018 3019 0
-3020 -3021 0
-3020 -3022 0
-3021 -3022 0
3020 3021 3022 0
-2361 -3023 0
-2361 -3024 0
-3023 -3024 0
2361 3023 3024 0
-3025 -3026 0
-3025 -3027 0
-3026 -3027 0
3025 3026 3027 0
-3028 -3029 0
-3028 -3030 0
-3029 -3030 0
3028 3029 3030 0
-191 -3031 0
-191 -3032 0
-3031 -3032 0
191 3031 3032 0
-3033 -3034 0
-3033 -3035 0
-3034 -3035 0
3033 3034 3035 0
-489 -991 0
-489 -3036 0
-991 -3036 0
489 991 3036 0
-245 -3037 0
-245 -3038 0
-3037 -3038 0
245 3037 3038 0
-3039 -3040 0
-3039 -3041 0
-3040 -3041 0
3039 3040 3041 0
-3042 -3043 0
-3042 -3044 0
-3043 -3044 0
3042 3043 3044 0
-3036 -3045 0
-3036 -3046 0
-3045 -3046 0
3036 3045 3046 0
-3047 -3048 0
-3047 -3049 0
-3048 -3049 0
3047 3048 3049 0
-570 -3050 0
-570 -3051 0
-3050 -3051 0
570 3050 3051 0
-2822 -3052 0
-2822 -3053 0
-3052 -3053 0
2822 3052 3053 0
-1339 -1453 0
-1339 -3054 0
-1453 -3054 0
1339 1453 3054 0
-733 -3055 0
-733 -3056 0
-3055 -3056 0
733 3055 3056 0
-654 -3057 0
-654 -3058 0
-3057 -3058 0
654 3057 3058 0
-1693 -3059 0
-1693 -3060 0
-3059 -3060 0
1693 3059 3060 0
-394 -2393 0
-394 -3061 0
-2393 -3061 0
394 2393 3061 0
-404 -1711 0
-404 -3062 0
-1711 -3062 0
404 1711 3062 0
-3063 -3064 0
-3063 -3065 0
-3064 -3065 0
3063 3064 3065 0
-662 -3066 0
-662 -3067 0
-3066 -3067 0
662 3066 3067 0
-1763 -3068 0
-1763 -3069 0
-3068 -3069 0
1763 3068 3069 0
-8 -3070 0
-8 -3071 0
-3070 -3071 0
8 3070 3071 0
-3072 -3073 0
-3072 -3074 0
-3073 -3074 0
3072 3073 3074 0
-3075 -3076 0
-3075 -3077 0
-3076 -3077 0
3075 3076 3077 0
-16 -3078 0
-16 -3079 0
-3078 -3079 0
16 3078 3079 0
-3080 -3081 0
-3080 -3082 0
-3081 -3082 0
3080 3081 3082 0
-3083 -3084 0
-3083 -3085 0
-3084 -3085 0
3083 3084 3085 0
-3086 -3087 0
-3086 -3088 0
-3087 -3088 0
3086 3087 3088 0
-3089 -3090 0
-3089 -3091 0
-3090 -3091 0
3089 3090 3091 0
-3092 -3093 0
-3092 -3094 0
-3093 -3094 0
3092 3093 3094 0
-3095 -3096 0
-3095 -3097 0
-3096 -3097 0
3095 3096 3097 0
-306 -3098 0
-306 -3099 0
-3098 -3099 0
306 3098 3099 0
-197 -962 0
-197 -3100 0
-962 -3100 0
197 962 3100 0
-3101 -3102 0
-3101 -3103 0
-3102 -3103 0
3101 3102 3103 0
-1694 -3104 0
-1694 -3105 0
-3104 -3105 0
1694 3104 3105 0
-2529 -3106 0
-2529 -3107 0
-3106 -3107 0
2529 3106 3107 0
-1032 -1212 0
-1032 -3108 0
-1212 -3108 0
1032 1212 3108 0
-1725 -3109 0
-1725 -3110 0
-3109 -3110 0
1725 3109 3110 0
-3086 -3111 0
-3086 -3112 0
-3111 -3112 0
3086 3111 3112 0
-1874 -3113 0
-1874 -3114 0
-3113 -3114 0
1874 3113 3114 0
-2653 -3115 0
-2653 -3116 0
-3115 -3116 0
2653 3115 3116 0
-3117 -3118 0
-3117 -3119 0
-3118 -3119 0
3117 3118 3119 0
-3120 -3121 0
-3120 -3122 0
-3121 -3122 0
3120 3121 3122 0
-980 -3123 0
-980 -3124 0
-3123 -3124 0
980 3123 3124 0
-3125 -3126 0
-3125 -3127 0
-3126 -3127 0
3125 3126 3127 0
-740 -3128 0
-740 -3129 0
-3128 -3129 0
740 3128 3129 0
-3130 -3131 0
-3130 -3132 0
-3131 -3132 0
3130 3131 3132 0
-3133 -3134 0
-3133 -3135 0
-3134 -3135 0
3133 3134 3135 0
-445 -2725 0
-445 -3136 0
-2725 -3136 0
445 2725 3136 0
-3137 -3138 0
-3137 -3139 0
-3138 -3139 0
3137 3138 3139 0
-757 -3140 0
-757 -3141 0
-3140 -3141 0
757 3140 3141 0
-2135 -3142 0
-2135 -3143 0
-3142 -3143 0
2135 3142 3143 0
-1791 -1950 0
-1791 -3144 0
-1950 -3144 0
1791 1950 3144 0
-3145 -3146 0
-3145 -3147 0
-3146 -3147 0
3145 3146 3147 0
-3148 -3149 0
-3148 -3150 0
-3149 -3150 0
3148 3149 3150 0
-3151 -3152 0
-3151 -3153 0
-3152 -3153 0
3151 3152 3153 0
-2124 -2164 0
-2124 -3154 0
-2164 -3154 0
2124 2164 3154 0
-3155 -3156 0
-3155 -3157 0
-3156 -3157 0
3155 3156 3157 0
-3158 -3159 0
-3158 -3160 0
-3159 -3160 0
3158 3159 3160 0
-2295 -3161 0
-2295 -3162 0
-3161 -3162 0
2295 3161 3162 0
-2471 -3163 0
-2471 -3164 0
-3163 -3164 0
2471 3163 3164 0
-706 -2472 0
-706 -3165 0
-2472 -3165 0
706 2472 3165 0
-3166 -3167 0
-3166 -3168 0
-3167 -3168 0
3166 3167 3168 0
-237 -3169 0
-237 -3170 0
-3169 -3170 0
237 3169 3170 0
-3171 -3172 0
-3171 -3173 0
-3172 -3173 0
3171 3172 3173 0
-3117 -3174 0
-3117 -3175 0
-3174 -3175 0
3117 3174 3175 0
-302 -3176 0
-302 -3177 0
-3176 -3177 0
302 3176 3177 0
-1230 -2283 0
-1230 -3178 0
-2283 -3178 0
1230 2283 3178 0
-3179 -3180 0
-3179 -3181 0
-3180 -3181 0
3179 3180 3181 0
-3182 -3183 0
-3182 -3184 0
-3183 -3184 0
3182 3183 3184 0
-491 -3185 0
-491 -3186 0
-3185 -3186 0
491 3185 3186 0
-395 -1755 0
-395 -3187 0
-1755 -3187 0
395 1755 3187 0
-1362 -3188 0
-1362 -3189 0
-3188 -3189 0
1362 3188 3189 0
-1034 -1159 0
-1034 -1800 0
-1159 -1800 0
1034 1159 1800 0
-1733 -3190 0
-1733 -3191 0
-3190 -3191 0
1733 3190 3191 0
-3192 -3193 0
-3192 -3194 0
-3193 -3194 0
3192 3193 3194 0
-1309 -3195 0
-1309 -3196 0
-3195 -3196 0
1309 3195 3196 0
-3130 -3197 0
-3130 -3198 0
-3197 -3198 0
3130 3197 3198 0
-1424 -3199 0
-1424 -3200 0
-3199 -3200 0
1424 3199 3200 0
-2043 -3201 0
-2043 -3202 0
-3201 -3202 0
2043 3201 3202 0
-13 -3203 0
-13 -3204 0
-3203 -3204 0
13 3203 3204 0
-3205 -3206 0
-3205 -3207 0
-3206 -3207 0
3205 3206 3207 0
-3208 -3209 0
-3208 -3210 0
-3209 -3210 0
3208 3209 3210 0
-3211 -3212 0
-3211 -3213 0
-3212 -3213 0
3211 3212 3213 0
-3214 -3215 0
-3214 -3216 0
-3215 -3216 0
3214 3215 3216 0
-3217 -3218 0
-3217 -3219 0
-3218 -3219 0
3217 3218 3219 0
-3220 -3221 0
-3220 -3222 0
-3221 -3222 0
3220 3221 3222 0
-3223 -3224 0
-3223 -3225 0
-3224 -3225 0
3223 3224 3225 0
-3226 -3227 0
-3226 -3228 0
-3227 -3228 0
3226 3227 3228 0
-1261 -3229 0
-1261 -3230 0
-3229 -3230 0
1261 3229 3230 0
-1265 -3231 0
-1265 -3232 0
-3231 -3232 0
1265 3231 3232 0
-3233 -3234 0
-3233 -3235 0
-3234 -3235 0
3233 3234 3235 0
-2122 -3236 0
-2122 -3237 0
-3236 -3237 0
2122 3236 3237 0
-3238 -3239 0
-3238 -3240 0
-3239 -3240 0
3238 3239 3240 0
-327 -1448 0
-327 -3241 0
-1448 -3241 0
327 1448 3241 0
-2722 -2742 0
-2722 -3242 0
-2742 -3242 0
2722 2742 3242 0
-1863 -3243 0
-1863 -3244 0
-3243 -3244 0
1863 3243 3244 0
-1355 -2834 0
-1355 -3245 0
-2834 -3245 0
1355 2834 3245 0
-4 -2949 0
-4 -3246 0
-2949 -3246 0
4 2949 3246 0
-3247 -3248 0
-3247 -3249 0
-3248 -3249 0
3247 3248 3249 0
-2798 -3250 0
-2798 -3251 0
-3250 -3251 0
2798 3250 3251 0
-3252 -3253 0
-3252 -3254 0
-3253 -3254 0
3252 3253 3254 0
-1025 -1898 0
-1025 -3255 0
-1898 -3255 0
1025 1898 3255 0
-988 -3256 0
-988 -3257 0
-3256 -3257 0
988 3256 3257 0
-2808 -3258 0
-2808 -3259 0
-3258 -3259 0
2808 3258 3259 0
-3260 -3261 0
-3260 -3262 0
-3261 -3262 0
3260 3261 3262 0
-931 -3263 0
-931 -3264 0
-3263 -3264 0
931 3263 3264 0
-3265 -3266 0
-3265 -3267 0
-3266 -3267 0
3265 3266 3267 0
-3268 -3269 0
-3268 -3270 0
-3269 -3270 0
3268 3269 3270 0
-1690 -3271 0
-1690 -3272 0
-3271 -3272 0
1690 3271 3272 0
-2289 -3273 0
-2289 -3274 0
-3273 -3274 0
2289 3273 3274 0
-3275 -3276 0
-3275 -3277 0
-3276 -3277 0
3275 3276 3277 0
-1634 -3278 0
-1634 -3279 0
-3278 -3279 0
1634 3278 3279 0
-3280 -3281 0
-3280 -3282 0
-3281 -3282 0
3280 3281 3282 0
-2167 -3283 0
-2167 -3284 0
-3283 -3284 0
2167 3283 3284 0
-1938 -3080 0
-1938 -3285 0
-3080 -3285 0
1938 3080 3285 0
-3286 -3287 0
-3286 -3288 0
-3287 -3288 0
3286 3287 3288 0
-982 -3201 0
-982 -3289 0
-3201 -3289 0
982 3201 3289 0
-3290 -3291 0
-3290 -3292 0
-3291 -3292 0
3290 3291 3292 0
-3293 -3294 0
-3293 -3295 0
-3294 -3295 0
3293 3294 3295 0
-3296 -3297 0
-3296 -3298 0
-3297 -3298 0
3296 3297 3298 0
-3299 -3300 0
-3299 -3301 0
-3300 -3301 0
3299 3300 3301 0
-3302 -3303 0
-3302 -3304 0
-3303 -3304 0
3302 3303 3304 0
-679 -3305 0
-679 -3306 0
-3305 -3306 0
679 3305 3306 0
-2106 -2148 0
-2106 -2860 0
-2148 -2860 0
2106 2148 2860 0
-282 -3307 0
-282 -3308 0
-3307 -3308 0
282 3307 3308 0
-1567 -3169 0
-1567 -3309 0
-3169 -3309 0
1567 3169 3309 0
-58 -2729 0
-58 -3310 0
-2729 -3310 0
58 2729 3310 0
-3311 -3312 0
-3311 -3313 0
-3312 -3313 0
3311 3312 3313 0
-1454 -1982 0
-1454 -3314 0
-1982 -3314 0
1454 1982 3314 0
-3315 -3316 0
-3315 -3317 0
-3316 -3317 0
3315 3316 3317 0
-3318 -3319 0
-3318 -3320 0
-3319 -3320 0
3318 3319 3320 0
-257 -3321 0
-257 -3322 0
-3321 -3322 0
257 3321 3322 0
-3323 -3324 0
-3323 -3325 0
-3324 -3325 0
3323 3324 3325 0
-3326 -3327 0
-3326 -3328 0
-3327 -3328 0
3326 3327 3328 0
-3329 -3330 0
-3329 -3331 0
-3330 -3331 0
3329 3330 3331 0
-628 -1160 0
-628 -3332 0
-1160 -3332 0
628 1160 3332 0
-3223 -3333 0
-3223 -3334 0
-3333 -3334 0
3223 3333 3334 0
-3335 -3336 0
-3335 -3337 0
-3336 -3337 0
3335 3336 3337 0
-707 -3338 0
-707 -3339 0
-3338 -3339 0
707 3338 3339 0
-2620 -3113 0
-2620 -3340 0
-3113 -3340 0
2620 3113 3340 0
-925 -3341 0
-925 -3342 0
-3341 -3342 0
925 3341 3342 0
-985 -3343 0
-985 -3344 0
-3343 -3344 0
985 3343 3344 0
-1881 -2437 0
-1881 -3345 0
-2437 -3345 0
1881 2437 3345 0
-3315 -3346 0
-3315 -3347 0
-3346 -3347 0
3315 3346 3347 0
-3348 -3349 0
-3348 -3350 0
-3349 -3350 0
3348 3349 3350 0
-3351 -3352 0
-3351 -3353 0
-3352 -3353 0
3351 3352 3353 0
-3354 -3355 0
-3354 -3356 0
-3355 -3356 0
3354 3355 3356 0
-159 -3357 0
-159 -3358 0
-3357 -3358 0
159 3357 3358 0
-573 -3359 0
-573 -3360 0
-3359 -3360 0
573 3359 3360 0
-432 -1883 0
-432 -3361 0
-1883 -3361 0
432 1883 3361 0
-3362 -3363 0
-3362 -3364 0
-3363 -3364 0
3362 3363 3364 0
-485 -2102 0
-485 -3185 0
-2102 -3185 0
485 2102 3185 0
-2783 -3318 0
-2783 -3365 0
-3318 -3365 0
2783 3318 3365 0
-3366 -3367 0
-3366 -3368 0
-3367 -3368 0
3366 3367 3368 0
-1900 -3369 0
-1900 -3370 0
-3369 -3370 0
1900 3369 3370 0
-3371 -3372 0
-3371 -3373 0
-3372 -3373 0
3371 3372 3373 0
-3374 -3375 0
-3374 -3376 0
-3375 -3376 0
3374 3375 3376 0
-464 -1778 0
-464 -1899 0
-1778 -1899 0
464 1778 1899 0
-3377 -3378 0
-3377 -3379 0
-3378 -3379 0
3377 3378 3379 0
-562 -2059 0
-562 -3380 0
-2059 -3380 0
562 2059 3380 0
-54 -3354 0
-54 -3381 0
-3354 -3381 0
54 3354 3381 0
-3382 -3383 0
-3382 -3384 0
-3383 -3384 0
3382 3383 3384 0
-1421 -3385 0
-1421 -3386 0
-3385 -3386 0
1421 3385 3386 0
-910 -933 0
-910 -3083 0
-933 -3083 0
910 933 3083 0
-1 -2764 0
-1 -3387 0
-2764 -3387 0
1 2764 3387 0
-1043 -1661 0
-1043 -3388 0
-1661 -3388 0
1043 1661 3388 0
-3389 -3390 0
-3389 -3391 0
-3390 -3391 0
3389 3390 3391 0
-2984 -3392 0
-2984 -3393 0
-3392 -3393 0
2984 3392 3393 0
-3394 -3395 0
-3394 -3396 0
-3395 -3396 0
3394 3395 3396 0
-467 -1406 0
-467 -3137 0
-1406 -3137 0
467 1406 3137 0
-3397 -3398 0
-3397 -3399 0
-3398 -3399 0
3397 3398 3399 0
-3400 -3401 0
-3400 -3402 0
-3401 -3402 0
3400 3401 3402 0
-364 -3403 0
-364 -3404 0
-3403 -3404 0
364 3403 3404 0
-2545 -3381 0
-2545 -3405 0
-3381 -3405 0
2545 3381 3405 0
-3406 -3407 0
-3406 -3408 0
-3407 -3408 0
3406 3407 3408 0
-928 -3409 0
-928 -3410 0
-3409 -3410 0
928 3409 3410 0
-3411 -3412 0
-3411 -3413 0
-3412 -3413 0
3411 3412 3413 0
-268 -571 0
-268 -969 0
-571 -969 0
268 571 969 0
-1382 -3414 0
-1382 -3415 0
-3414 -3415 0
1382 3414 3415 0
-3416 -3417 0
-3416 -3418 0
-3417 -3418 0
3416 3417 3418 0
-1169 -1939 0
-1169 -3419 0
-1939 -3419 0
1169 1939 3419 0
-1889 -3420 0
-1889 -3421 0
-3420 -3421 0
1889 3420 3421 0
-722 -3422 0
-722 -3423 0
-3422 -3423 0
722 3422 3423 0
-1746 -3424 0
-1746 -3425 0
-3424 -3425 0
1746 3424 3425 0
-3426 -3427 0
-3426 -3428 0
-3427 -3428 0
3426 3427 3428 0
-3429 -3430 0
-3429 -3431 0
-3430 -3431 0
3429 3430 3431 0
-1723 -3432 0
-1723 -3433 0
-3432 -3433 0
1723 3432 3433 0
-3275 -3434 0
-3275 -3435 0
-3434 -3435 0
3275 3434 3435 0
-367 -1072 0
-367 -3436 0
-1072 -3436 0
367 1072 3436 0
-3437 -3438 0
-3437 -3439 0
-3438 -3439 0
3437 3438 3439 0
-3429 -3440 0
-3429 -3441 0
-3440 -3441 0
3429 3440 3441 0
-3442 -3443 0
-3442 -3444 0
-3443 -3444 0
3442 3443 3444 0
-458 -3445 0
-458 -3446 0
-3445 -3446 0
458 3445 3446 0
-2693 -3447 0
-2693 -3448 0
-3447 -3448 0
2693 3447 3448 0
-1272 -3449 0
-1272 -3450 0
-3449 -3450 0
1272 3449 3450 0
-1801 -3451 0
-1801 -3452 0
-3451 -3452 0
1801 3451 3452 0
-1038 -1233 0
-1038 -3453 0
-1233 -3453 0
1038 1233 3453 0
-473 -3280 0
-473 -3454 0
-3280 -3454 0
473 3280 3454 0
-737 -3455 0
-737 -3456 0
-3455 -3456 0
737 3455 3456 0
-3457 -3458 0
-3457 -3459 0
-3458 -3459 0
3457 3458 3459 0
-1797 -3460 0
-1797 -3461 0
-3460 -3461 0
1797 3460 3461 0
-1971 -3023 0
-1971 -3462 0
-3023 -3462 0
1971 3023 3462 0
-3463 -3464 0
-3463 -3465 0
-3464 -3465 0
3463 3464 3465 0
-507 -2427 0
-507 -3466 0
-2427 -3466 0
507 2427 3466 0
-2316 -3467 0
-2316 -3468 0
-3467 -3468 0
2316 3467 3468 0
-3469 -3470 0
-3469 -3471 0
-3470 -3471 0
3469 3470 3471 0
-550 -3472 0
-550 -3473 0
-3472 -3473 0
550 3472 3473 0
-3474 -3475 0
-3474 -3476 0
-3475 -3476 0
3474 3475 3476 0
-3278 -3477 0
-3278 -3478 0
-3477 -3478 0
3278 3477 3478 0
-2635 -3479 0
-2635 -3480 0
-3479 -3480 0
2635 3479 3480 0
-2849 -3481 0
-2849 -3482 0
-3481 -3482 0
2849 3481 3482 0
-252 -3483 0
-252 -3484 0
-3483 -3484 0
252 3483 3484 0
-1363 -3485 0
-1363 -3486 0
-3485 -3486 0
1363 3485 3486 0
-2025 -3208 0
-2025 -3487 0
-3208 -3487 0
2025 3208 3487 0
-3018 -3488 0
-3018 -3489 0
-3488 -3489 0
3018 3488 3489 0
-3490 -3491 0
-3490 -3492 0
-3491 -3492 0
3490 3491 3492 0
-3493 -3494 0
-3493 -3495 0
-3494 -3495 0
3493 3494 3495 0
-3496 -3497 0
-3496 -3498 0
-3497 -3498 0
3496 3497 3498 0
-671 -3499 0
-671 -3500 0
-3499 -3500 0
671 3499 3500 0
-3501 -3502 0
-3501 -3503 0
-3502 -3503 0
3501 3502 3503 0
-1948 -3504 0
-1948 -3505 0
-3504 -3505 0
1948 3504 3505 0
-3506 -3507 0
-3506 -3508 0
-3507 -3508 0
3506 3507 3508 0
-1324 -3509 0
-1324 -3510 0
-3509 -3510 0
1324 3509 3510 0
-3511 -3512 0
-3511 -3513 0
-3512 -3513 0
3511 3512 3513 0
-3514 -3515 0
-3514 -3516 0
-3515 -3516 0
3514 3515 3516 0
-715 -3517 0
-715 -3518 0
-3517 -3518 0
715 3517 3518 0
-2353 -3519 0
-2353 -3520 0
-3519 -3520 0
2353 3519 3520 0
-3521 -3522 0
-3521 -3523 0
-3522 -3523 0
3521 3522 3523 0
-2809 -3524 0
-2809 -3525 0
-3524 -3525 0
2809 3524 3525 0
-3526 -3527 0
-3526 -3528 0
-3527 -3528 0
3526 3527 3528 0
-1786 -3529 0
-1786 -3530 0
-3529 -3530 0
1786 3529 3530 0
-3531 -3532 0
-3531 -3533 0
-3532 -3533 0
3531 3532 3533 0
-503 -3534 0
-503 -3535 0
-3534 -3535 0
503 3534 3535 0
-2750 -3536 0
-2750 -3537 0
-3536 -3537 0
2750 3536 3537 0
-1172 -3538 0
-1172 -3539 0
-3538 -3539 0
1172 3538 3539 0
-890 -997 0
-890 -3540 0
-997 -3540 0
890 997 3540 0
-2452 -3541 0
-2452 -3542 0
-3541 -3542 0
2452 3541 3542 0
-913 -1397 0
-913 -3543 0
-1397 -3543 0
913 1397 3543 0
-1489 -3544 0
-1489 -3545 0
-3544 -3545 0
1489 3544 3545 0
-3406 -3546 0
-3406 -3547 0
-3546 -3547 0
3406 3546 3547 0
-3548 -3549 0
-3548 -3550 0
-3549 -3550 0
3548 3549 3550 0
-2329 -3551 0
-2329 -3552 0
-3551 -3552 0
2329 3551 3552 0
-3299 -3553 0
-3299 -3554 0
-3553 -3554 0
3299 3553 3554 0
-1811 -3555 0
-1811 -3556 0
-3555 -3556 0
1811 3555 3556 0
-3557 -3558 0
-3557 -3559 0
-3558 -3559 0
3557 3558 3559 0
-3560 -3561 0
-3560 -3562 0
-3561 -3562 0
3560 3561 3562 0
-2539 -2957 0
-2539 -3563 0
-2957 -3563 0
2539 2957 3563 0
-3564 -3565 0
-3564 -3566 0
-3565 -3566 0
3564 3565 3566 0
-2772 -3567 0
-2772 -3568 0
-3567 -3568 0
2772 3567 3568 0
-637 -1482 0
-637 -2338 0
-1482 -2338 0
637 1482 2338 0
-3569 -3570 0
-3569 -3571 0
-3570 -3571 0
3569 3570 3571 0
-1736 -3572 0
-1736 -3573 0
-3572 -3573 0
1736 3572 3573 0
-2858 -3574 0
-2858 -3575 0
-3574 -3575 0
2858 3574 3575 0
-3463 -3576 0
-3463 -3577 0
-3576 -3577 0
3463 3576 3577 0
-3578 -3579 0
-3578 -3580 0
-3579 -3580 0
3578 3579 3580 0
-3581 -3582 0
-3581 -3583 0
-3582 -3583 0
3581 3582 3583 0
-380 -2422 0
-380 -3584 0
-2422 -3584 0
380 2422 3584 0
-3585 -3586 0
-3585 -3587 0
-3586 -3587 0
3585 3586 3587 0
-700 -3588 0
-700 -3589 0
-3588 -3589 0
700 3588 3589 0
-3590 -3591 0
-3590 -3592 0
-3591 -3592 0
3590 3591 3592 0
-3593 -3594 0
-3593 -3595 0
-3594 -3595 0
3593 3594 3595 0
-3596 -3597 0
-3596 -3598 0
-3597 -3598 0
3596 3597 3598 0
-500 -3052 0
-500 -3599 0
-3052 -3599 0
500 3052 3599 0
-3600 -3601 0
-3600 -3602 0
-3601 -3602 0
3600 3601 3602 0
-3603 -3604 0
-3603 -3605 0
-3604 -3605 0
3603 3604 3605 0
-1823 -3606 0
-1823 -3607 0
-3606 -3607 0
1823 3606 3607 0
-2456 -3092 0
-2456 -3608 0
-3092 -3608 0
2456 3092 3608 0
-3609 -3610 0
-3609 -3611 0
-3610 -3611 0
3609 3610 3611 0
-3199 -3612 0
-3199 -3613 0
-3612 -3613 0
3199 3612 3613 0
-11 -3614 0
-11 -3615 0
-3614 -3615 0
11 3614 3615 0
-3616 -3617 0
-3616 -3618 0
-3617 -3618 0
3616 3617 3618 0
-1000 -3619 0
-1000 -3620 0
-3619 -3620 0
1000 3619 3620 0
-605 -2169 0
-605 -3621 0
-2169 -3621 0
605 2169 3621 0
-3622 -3623 0
-3622 -3624 0
-3623 -3624 0
3622 3623 3624 0
-792 -1983 0
-792 -3625 0
-1983 -3625 0
792 1983 3625 0
-2501 -3626 0
-2501 -3627 0
-3626 -3627 0
2501 3626 3627 0
-3628 -3629 0
-3628 -3630 0
-3629 -3630 0
3628 3629 3630 0
-3631 -3632 0
-3631 -3633 0
-3632 -3633 0
3631 3632 3633 0
-278 -3634 0
-278 -3635 0
-3634 -3635 0
278 3634 3635 0
-3636 -3637 0
-3636 -3638 0
-3637 -3638 0
3636 3637 3638 0
-3578 -3639 0
-3578 -3640 0
-3639 -3640 0
3578 3639 3640 0
-3641 -3642 0
-3641 -3643 0
-3642 -3643 0
3641 3642 3643 0
-3644 -3645 0
-3644 -3646 0
-3645 -3646 0
3644 3645 3646 0
-3647 -3648 0
-3647 -3649 0
-3648 -3649 0
3647 3648 3649 0
-677 -3650 0
-677 -3651 0
-3650 -3651 0
677 3650 3651 0
-102 -3652 0
-102 -3653 0
-3652 -3653 0
102 3652 3653 0
-59 -3654 0
-59 -3655 0
-3654 -3655 0
59 3654 3655 0
-3656 -3657 0
-3656 -3658 0
-3657 -3658 0
3656 3657 3658 0
-3659 -3660 0
-3659 -3661 0
-3660 -3661 0
3659 3660 3661 0
-3662 -3663 0
-3662 -3664 0
-3663 -3664 0
3662 3663 3664 0
-3665 -3666 0
-3665 -3667 0
-3666 -3667 0
3665 3666 3667 0
-2506 -3668 0
-2506 -3669 0
-3668 -3669 0
2506 3668 3669 0
-1678 -3670 0
-1678 -3671 0
-3670 -3671 0
1678 3670 3671 0
-1820 -3608 0
-1820 -3672 0
-3608 -3672 0
1820 3608 3672 0
-3374 -3673 0
-3374 -3674 0
-3673 -3674 0
3374 3673 3674 0
-3675 -3676 0
-3675 -3677 0
-3676 -3677 0
3675 3676 3677 0
-3678 -3679 0
-3678 -3680 0
-3679 -3680 0
3678 3679 3680 0
-2199 -3681 0
-2199 -3682 0
-3681 -3682 0
2199 3681 3682 0
-2743 -3683 0
-2743 -3684 0
-3683 -3684 0
2743 3683 3684 0
-2133 -3416 0
-2133 -3685 0
-3416 -3685 0
2133 3416 3685 0
-3686 -3687 0
-3686 -3688 0
-3687 -3688 0
3686 3687 3688 0
-3689 -3690 0
-3689 -3691 0
-3690 -3691 0
3689 3690 3691 0
-3692 -3693 0
-3692 -3694 0
-3693 -3694 0
3692 3693 3694 0
-2872 -3695 0
-2872 -3696 0
-3695 -3696 0
2872 3695 3696 0
-2040 -3697 0
-2040 -3698 0
-3697 -3698 0
2040 3697 3698 0
-810 -1476 0
-810 -3699 0
-1476 -3699 0
810 1476 3699 0
-3131 -3700 0
-3131 -3701 0
-3700 -3701 0
3131 3700 3701 0
-1091 -3702 0
-1091 -3703 0
-3702 -3703 0
1091 3702 3703 0
-992 -3704 0
-992 -3705 0
-3704 -3705 0
992 3704 3705 0
-129 -1153 0
-129 -3706 0
-1153 -3706 0
129 1153 3706 0
-2265 -3707 0
-2265 -3708 0
-3707 -3708 0
2265 3707 3708 0
-3084 -3709 0
-3084 -3710 0
-3709 -3710 0
3084 3709 3710 0
-2 -3711 0
-2 -3712 0
-3711 -3712 0
2 3711 3712 0
-17 -3713 0
-17 -3714 0
-3713 -3714 0
17 3713 3714 0
-3715 -3716 0
-3715 -3717 0
-3716 -3717 0
3715 3716 3717 0
-2310 -3718 0
-2310 -3719 0
-3718 -3719 0
2310 3718 3719 0
-2859 -3720 0
-2859 -3721 0
-3720 -3721 0
2859 3720 3721 0
-617 -3722 0
-617 -3723 0
-3722 -3723 0
617 3722 3723 0
-3724 -3725 0
-3724 -3726 0
-3725 -3726 0
3724 3725 3726 0
-3727 -3728 0
-3727 -3729 0
-3728 -3729 0
3727 3728 3729 0
-3730 -3731 0
-3730 -3732 0
-3731 -3732 0
3730 3731 3732 0
-3733 -3734 0
-3733 -3735 0
-3734 -3735 0
3733 3734 3735 0
-2561 -3311 0
-2561 -3736 0
-3311 -3736 0
2561 3311 3736 0
-2235 -3737 0
-2235 -3738 0
-3737 -3738 0
2235 3737 3738 0
-3739 -3740 0
-3739 -3741 0
-3740 -3741 0
3739 3740 3741 0
-3742 -3743 0
-3742 -3744 0
-3743 -3744 0
3742 3743 3744 0
-3745 -3746 0
-3745 -3747 0
-3746 -3747 0
3745 3746 3747 0
-2861 -3163 0
-2861 -3748 0
-3163 -3748 0
2861 3163 3748 0
-3581 -3672 0
-3581 -3749 0
-3672 -3749 0
3581 3672 3749 0
-1629 -2495 0
-1629 -3750 0
-2495 -3750 0
1629 2495 3750 0
-3226 -3751 0
-3226 -3752 0
-3751 -3752 0
3226 3751 3752 0
-2866 -3753 0
-2866 -3754 0
-3753 -3754 0
2866 3753 3754 0
-1195 -3755 0
-1195 -3756 0
-3755 -3756 0
1195 3755 3756 0
-1666 -3757 0
-1666 -3758 0
-3757 -3758 0
1666 3757 3758 0
-1399 -3759 0
-1399 -3760 0
-3759 -3760 0
1399 3759 3760 0
-3382 -3567 0
-3382 -3761 0
-3567 -3761 0
3382 3567 3761 0
-3445 -3762 0
-3445 -3763 0
-3762 -3763 0
3445 3762 3763 0
-3764 -3765 0
-3764 -3766 0
-3765 -3766 0
3764 3765 3766 0
-2713 -3767 0
-2713 -3768 0
-3767 -3768 0
2713 3767 3768 0
-2371 -3769 0
-2371 -3770 0
-3769 -3770 0
2371 3769 3770 0
-450 -3771 0
-450 -3772 0
-3771 -3772 0
450 3771 3772 0
-480 -3773 0
-480 -3774 0
-3773 -3774 0
480 3773 3774 0
-1903 -2815 0
-1903 -3775 0
-2815 -3775 0
1903 2815 3775 0
-3776 -3777 0
-3776 -3778 0
-3777 -3778 0
3776 3777 3778 0
-3779 -3780 0
-3779 -3781 0
-3780 -3781 0
3779 3780 3781 0
-3217 -3782 0
-3217 -3783 0
-3782 -3783 0
3217 3782 3783 0
-3784 -3785 0
-3784 -3786 0
-3785 -3786 0
3784 3785 3786 0
-3787 -3788 0
-3787 -3789 0
-3788 -3789 0
3787 3788 3789 0
-2960 -3790 0
-2960 -3791 0
-3790 -3791 0
2960 3790 3791 0
-3 -1392 0
-3 -3792 0
-1392 -3792 0
3 1392 3792 0
-3793 -3794 0
-3793 -3795 0
-3794 -3795 0
3793 3794 3795 0
-213 -3796 0
-213 -3797 0
-3796 -3797 0
213 3796 3797 0
-2496 -3798 0
-2496 -3799 0
-3798 -3799 0
2496 3798 3799 0
-2010 -3800 0
-2010 -3801 0
-3800 -3801 0
2010 3800 3801 0
-518 -3300 0
-518 -3802 0
-3300 -3802 0
518 3300 3802 0
-2883 -3803 0
-2883 -3804 0
-3803 -3804 0
2883 3803 3804 0
-163 -3805 0
-163 -3806 0
-3805 -3806 0
163 3805 3806 0
-3807 -3808 0
-3807 -3809 0
-3808 -3809 0
3807 3808 3809 0
-3271 -3810 0
-3271 -3811 0
-3810 -3811 0
3271 3810 3811 0
-3812 -3813 0
-3812 -3814 0
-3813 -3814 0
3812 3813 3814 0
-3815 -3816 0
-3815 -3817 0
-3816 -3817 0
3815 3816 3817 0
-915 -1150 0
-915 -3818 0
-1150 -3818 0
915 1150 3818 0
-3819 -3820 0
-3819 -3821 0
-3820 -3821 0
3819 3820 3821 0
-851 -3603 0
-851 -3822 0
-3603 -3822 0
851 3603 3822 0
-3823 -3824 0
-3823 -3825 0
-3824 -3825 0
3823 3824 3825 0
-3826 -3827 0
-3826 -3828 0
-3827 -3828 0
3826 3827 3828 0
-2790 -3829 0
-2790 -3830 0
-3829 -3830 0
2790 3829 3830 0
-344 -1558 0
-344 -3831 0
-1558 -3831 0
344 1558 3831 0
-3050 -3832 0
-3050 -3833 0
-3832 -3833 0
3050 3832 3833 0
-3834 -3835 0
-3834 -3836 0
-3835 -3836 0
3834 3835 3836 0
-2028 -2484 0
-2028 -2594 0
-2484 -2594 0
2028 2484 2594 0
-2099 -3585 0
-2099 -3837 0
-3585 -3837 0
2099 3585 3837 0
-2666 -3838 0
-2666 -3839 0
-3838 -3839 0
2666 3838 3839 0
-3840 -3841 0
-3840 -3842 0
-3841 -3842 0
3840 3841 3842 0
-1992 -3843 0
-1992 -3844 0
-3843 -3844 0
1992 3843 3844 0
-3845 -3846 0
-3845 -3847 0
-3846 -3847 0
3845 3846 3847 0
-3834 -3848 0
-3834 -3849 0
-3848 -3849 0
3834 3848 3849 0
-3312 -3850 0
-3312 -3851 0
-3850 -3851 0
3312 3850 3851 0
-3852 -3853 0
-3852 -3854 0
-3853 -3854 0
3852 3853 3854 0
-3855 -3856 0
-3855 -3857 0
-3856 -3857 0
3855 3856 3857 0
-3588 -3858 0
-3588 -3859 0
-3858 -3859 0
3588 3858 3859 0
-275 -1182 0
-275 -3860 0
-1182 -3860 0
275 1182 3860 0
-2731 -3008 0
-2731 -3861 0
-3008 -3861 0
2731 3008 3861 0
-3862 -3863 0
-3862 -3864 0
-3863 -3864 0
3862 3863 3864 0
-3865 -3866 0
-3865 -3867 0
-3866 -3867 0
3865 3866 3867 0
-206 -3868 0
-206 -3869 0
-3868 -3869 0
206 3868 3869 0
-3634 -3870 0
-3634 -3871 0
-3870 -3871 0
3634 3870 3871 0
-3265 -3872 0
-3265 -3873 0
-3872 -3873 0
3265 3872 3873 0
-497 -3874 0
-497 -3875 0
-3874 -3875 0
497 3874 3875 0
-1783 -3876 0
-1783 -3877 0
-3876 -3877 0
1783 3876 3877 0
-1266 -3878 0
-1266 -3879 0
-3878 -3879 0
1266 3878 3879 0
-2694 -3880 0
-2694 -3881 0
-3880 -3881 0
2694 3880 3881 0
-3424 -3882 0
-3424 -3883 0
-3882 -3883 0
3424 3882 3883 0
-269 -3884 0
-269 -3885 0
-3884 -3885 0
269 3884 3885 0
-3886 -3887 0
-3886 -3888 0
-3887 -3888 0
3886 3887 3888 0
-3889 -3890 0
-3889 -3891 0
-3890 -3891 0
3889 3890 3891 0
-2600 -3892 0
-2600 -3893 0
-3892 -3893 0
2600 3892 3893 0
-3894 -3895 0
-3894 -3896 0
-3895 -3896 0
3894 3895 3896 0
-2720 -3897 0
-2720 -3898 0
-3897 -3898 0
2720 3897 3898 0
-2096 -3899 0
-2096 -3900 0
-3899 -3900 0
2096 3899 3900 0
-2464 -2556 0
-2464 -3901 0
-2556 -3901 0
2464 2556 3901 0
-1197 -3902 0
-1197 -3903 0
-3902 -3903 0
1197 3902 3903 0
-3904 -3905 0
-3904 -3906 0
-3905 -3906 0
3904 3905 3906 0
-2848 -3907 0
-2848 -3908 0
-3907 -3908 0
2848 3907 3908 0
-577 -709 0
-577 -2588 0
-709 -2588 0
577 709 2588 0
-3909 -3910 0
-3909 -3911 0
-3910 -3911 0
3909 3910 3911 0
-638 -3912 0
-638 -3913 0
-3912 -3913 0
638 3912 3913 0
-2150 -3914 0
-2150 -3915 0
-3914 -3915 0
2150 3914 3915 0
-1871 -3916 0
-1871 -3917 0
-3916 -3917 0
1871 3916 3917 0
-3918 -3919 0
-3918 -3920 0
-3919 -3920 0
3918 3919 3920 0
-3921 -3922 0
-3921 -3923 0
-3922 -3923 0
3921 3922 3923 0
-3924 -3925 0
-3924 -3926 0
-3925 -3926 0
3924 3925 3926 0
-3927 -3928 0
-3927 -3929 0
-3928 -3929 0
3927 3928 3929 0
-3236 -3639 0
-3236 -3930 0
-3639 -3930 0
3236 3639 3930 0
-601 -3931 0
-601 -3932 0
-3931 -3932 0
601 3931 3932 0
-3933 -3934 0
-3933 -3935 0
-3934 -3935 0
3933 3934 3935 0
-3501 -3936 0
-3501 -3937 0
-3936 -3937 0
3501 3936 3937 0
-623 -3938 0
-623 -3939 0
-3938 -3939 0
623 3938 3939 0
-1547 -2837 0
-1547 -3940 0
-2837 -3940 0
1547 2837 3940 0
-1856 -2020 0
-1856 -3941 0
-2020 -3941 0
1856 2020 3941 0
-3942 -3943 0
-3942 -3944 0
-3943 -3944 0
3942 3943 3944 0
-412 -3686 0
-412 -3945 0
-3686 -3945 0
412 3686 3945 0
-2011 -3946 0
-2011 -3947 0
-3946 -3947 0
2011 3946 3947 0
-2091 -2641 0
-2091 -3948 0
-2641 -3948 0
2091 2641 3948 0
-1395 -3949 0
-1395 -3950 0
-3949 -3950 0
1395 3949 3950 0
-2171 -3951 0
-2171 -3952 0
-3951 -3952 0
2171 3951 3952 0
-2086 -2221 0
-2086 -3953 0
-2221 -3953 0
2086 2221 3953 0
-3635 -3954 0
-3635 -3955 0
-3954 -3955 0
3635 3954 3955 0
-1368 -3956 0
-1368 -3957 0
-3956 -3957 0
1368 3956 3957 0
-3958 -3959 0
-3958 -3960 0
-3959 -3960 0
3958 3959 3960 0
-691 -3296 0
-691 -3961 0
-3296 -3961 0
691 3296 3961 0
-1907 -3962 0
-1907 -3963 0
-3962 -3963 0
1907 3962 3963 0
-519 -1523 0
-519 -3964 0
-1523 -3964 0
519 1523 3964 0
-3965 -3966 0
-3965 -3967 0
-3966 -3967 0
3965 3966 3967 0
-3968 -3969 0
-3968 -3970 0
-3969 -3970 0
3968 3969 3970 0
-524 -3971 0
-524 -3972 0
-3971 -3972 0
524 3971 3972 0
-3973 -3974 0
-3973 -3975 0
-3974 -3975 0
3973 3974 3975 0
-852 -3976 0
-852 -3977 0
-3976 -3977 0
852 3976 3977 0
-2906 -3057 0
-2906 -3978 0
-3057 -3978 0
2906 3057 3978 0
-3979 -3980 0
-3979 -3981 0
-3980 -3981 0
3979 3980 3981 0
-565 -3982 0
-565 -3983 0
-3982 -3983 0
565 3982 3983 0
-2942 -3984 0
-2942 -3985 0
-3984 -3985 0
2942 3984 3985 0
-2317 -3986 0
-2317 -3987 0
-3986 -3987 0
2317 3986 3987 0
-3988 -3989 0
-3988 -3990 0
-3989 -3990 0
3988 3989 3990 0
-3745 -3991 0
-3745 -3992 0
-3991 -3992 0
3745 3991 3992 0
-408 -3993 0
-408 -3994 0
-3993 -3994 0
408 3993 3994 0
-3995 -3996 0
-3995 -3997 0
-3996 -3997 0
3995 3996 3997 0
-3998 -3999 0
-3998 -4000 0
-3999 -4000 0
3998 3999 4000 0
-530 -2888 0
-530 -4001 0
-2888 -4001 0
530 2888 4001 0
-3054 -3790 0
-3054 -4002 0
-3790 -4002 0
3054 3790 4002 0
-3807 -4003 0
-3807 -4004 0
-4003 -4004 0
3807 4003 4004 0
-3739 -4005 0
-3739 -4006 0
-4005 -4006 0
3739 4005 4006 0
-4007 -4008 0
-4007 -4009 0
-4008 -4009 0
4007 4008 4009 0
-4010 -4011 0
-4010 -4012 0
-4011 -4012 0
4010 4011 4012 0
-1712 -1926 0
-1712 -4013 0
-1926 -4013 0
1712 1926 4013 0
-3101 -4014 0
-3101 -4015 0
-4014 -4015 0
3101 4014 4015 0
-4016 -4017 0
-4016 -4018 0
-4017 -4018 0
4016 4017 4018 0
-1531 -4019 0
-1531 -4020 0
-4019 -4020 0
1531 4019 4020 0
-2240 -3457 0
-2240 -4021 0
-3457 -4021 0
2240 3457 4021 0
-2145 -4022 0
-2145 -4023 0
-4022 -4023 0
2145 4022 4023 0
-2399 -4024 0
-2399 -4025 0
-4024 -4025 0
2399 4024 4025 0
-3670 -4026 0
-3670 -4027 0
-4026 -4027 0
3670 4026 4027 0
-4028 -4029 0
-4028 -4030 0
-4029 -4030 0
4028 4029 4030 0
-3375 -4031 0
-3375 -4032 0
-4031 -4032 0
3375 4031 4032 0
-3538 -4033 0
-3538 -4034 0
-4033 -4034 0
3538 4033 4034 0
-3255 -4035 0
-3255 -4036 0
-4035 -4036 0
3255 4035 4036 0
-865 -4037 0
-865 -4038 0
-4037 -4038 0
865 4037 4038 0
-4039 -4040 0
-4039 -4041 0
-4040 -4041 0
4039 4040 4041 0
-1968 -4042 0
-1968 -4043 0
-4042 -4043 0
1968 4042 4043 0
-2332 -4044 0
-2332 -4045 0
-4044 -4045 0
2332 4044 4045 0
-768 -1312 0
-768 -4046 0
-1312 -4046 0
768 1312 4046 0
-3993 -4047 0
-3993 -4048 0
-4047 -4048 0
3993 4047 4048 0
-1553 -2595 0
-1553 -4049 0
-2595 -4049 0
1553 2595 4049 0
-4050 -4051 0
-4050 -4052 0
-4051 -4052 0
4050 4051 4052 0
-3751 -4053 0
-3751 -4054 0
-4053 -4054 0
3751 4053 4054 0
-826 -4055 0
-826 -4056 0
-4055 -4056 0
826 4055 4056 0
-2109 -4057 0
-2109 -4058 0
-4057 -4058 0
2109 4057 4058 0
-535 -4059 0
-535 -4060 0
-4059 -4060 0
535 4059 4060 0
-4061 -4062 0
-4061 -4063 0
-4062 -4063 0
4061 4062 4063 0
-1477 -1770 0
-1477 -4064 0
-1770 -4064 0
1477 1770 4064 0
-1313 -3553 0
-1313 -4065 0
-3553 -4065 0
1313 3553 4065 0
-1884 -4066 0
-1884 -4067 0
-4066 -4067 0
1884 4066 4067 0
-4068 -4069 0
-4068 -4070 0
-4069 -4070 0
4068 4069 4070 0
-4071 -4072 0
-4071 -4073 0
-4072 -4073 0
4071 4072 4073 0
-4074 -4075 0
-4074 -4076 0
-4075 -4076 0
4074 4075 4076 0
-2227 -4077 0
-2227 -4078 0
-4077 -4078 0
2227 4077 4078 0
-4079 -4080 0
-4079 -4081 0
-4080 -4081 0
4079 4080 4081 0
-986 -4082 0
-986 -4083 0
-4082 -4083 0
986 4082 4083 0
-2153 -4084 0
-2153 -4085 0
-4084 -4085 0
2153 4084 4085 0
-1104 -4086 0
-1104 -4087 0
-4086 -4087 0
1104 4086 4087 0
-4088 -4089 0
-4088 -4090 0
-4089 -4090 0
4088 4089 4090 0
-2262 -4091 0
-2262 -4092 0
-4091 -4092 0
2262 4091 4092 0
-853 -4093 0
-853 -4094 0
-4093 -4094 0
853 4093 4094 0
-4095 -4096 0
-4095 -4097 0
-4096 -4097 0
4095 4096 4097 0
-2488 -2521 0
-2488 -4098 0
-2521 -4098 0
2488 2521 4098 0
-1580 -3709 0
-1580 -4099 0
-3709 -4099 0
1580 3709 4099 0
-4100 -4101 0
-4100 -4102 0
-4101 -4102 0
4100 4101 4102 0
-3904 -4103 0
-3904 -4104 0
-4103 -4104 0
3904 4103 4104 0
-63 -4105 0
-63 -4106 0
-4105 -4106 0
63 4105 4106 0
-195 -4107 0
-195 -4108 0
-4107 -4108 0
195 4107 4108 0
-4109 -4110 0
-4109 -4111 0
-4110 -4111 0
4109 4110 4111 0
-632 -4112 0
-632 -4113 0
-4112 -4113 0
632 4112 4113 0
-811 -877 0
-811 -4114 0
-877 -4114 0
811 877 4114 0
-3621 -4115 0
-3621 -4116 0
-4115 -4116 0
3621 4115 4116 0
-4117 -4118 0
-4117 -4119 0
-4118 -4119 0
4117 4118 4119 0
-4120 -4121 0
-4120 -4122 0
-4121 -4122 0
4120 4121 4122 0
-48 -2343 0
-48 -3894 0
-2343 -3894 0
48 2343 3894 0
-4123 -4124 0
-4123 -4125 0
-4124 -4125 0
4123 4124 4125 0
-4126 -4127 0
-4126 -4128 0
-4127 -4128 0
4126 4127 4128 0
-2408 -4129 0
-2408 -4130 0
-4129 -4130 0
2408 4129 4130 0
-2092 -4131 0
-2092 -4132 0
-4131 -4132 0
2092 4131 4132 0
-2107 -4133 0
-2107 -4134 0
-4133 -4134 0
2107 4133 4134 0
-796 -4135 0
-796 -4136 0
-4135 -4136 0
796 4135 4136 0
-4137 -4138 0
-4137 -4139 0
-4138 -4139 0
4137 4138 4139 0
-1389 -4140 0
-1389 -4141 0
-4140 -4141 0
1389 4140 4141 0
-4142 -4143 0
-4142 -4144 0
-4143 -4144 0
4142 4143 4144 0
-1398 -4145 0
-1398 -4146 0
-4145 -4146 0
1398 4145 4146 0
-430 -1744 0
-430 -4147 0
-1744 -4147 0
430 1744 4147 0
-4148 -4149 0
-4148 -4150 0
-4149 -4150 0
4148 4149 4150 0
-4151 -4152 0
-4151 -4153 0
-4152 -4153 0
4151 4152 4153 0
-2088 -2284 0
-2088 -4093 0
-2284 -4093 0
2088 2284 4093 0
-2916 -4154 0
-2916 -4155 0
-4154 -4155 0
2916 4154 4155 0
-2127 -4156 0
-2127 -4157 0
-4156 -4157 0
2127 4156 4157 0
-4158 -4159 0
-4158 -4160 0
-4159 -4160 0
4158 4159 4160 0
-4161 -4162 0
-4161 -4163 0
-4162 -4163 0
4161 4162 4163 0
-2987 -4164 0
-2987 -4165 0
-4164 -4165 0
2987 4164 4165 0
-438 -2001 0
-438 -4166 0
-2001 -4166 0
438 2001 4166 0
-1319 -4167 0
-1319 -4168 0
-4167 -4168 0
1319 4167 4168 0
-4169 -4170 0
-4169 -4171 0
-4170 -4171 0
4169 4170 4171 0
-3115 -4172 0
-3115 -4173 0
-4172 -4173 0
3115 4172 4173 0
-4174 -4175 0
-4174 -4176 0
-4175 -4176 0
4174 4175 4176 0
-954 -4177 0
-954 -4178 0
-4177 -4178 0
954 4177 4178 0
-2680 -4179 0
-2680 -4180 0
-4179 -4180 0
2680 4179 4180 0
-4181 -4182 0
-4181 -4183 0
-4182 -4183 0
4181 4182 4183 0
-2123 -4184 0
-2123 -4185 0
-4184 -4185 0
2123 4184 4185 0
-1976 -4186 0
-1976 -4187 0
-4186 -4187 0
1976 4186 4187 0
-3247 -3554 0
-3247 -4188 0
-3554 -4188 0
3247 3554 4188 0
-276 -2203 0
-276 -4189 0
-2203 -4189 0
276 2203 4189 0
-4190 -4191 0
-4190 -4192 0
-4191 -4192 0
4190 4191 4192 0
-2776 -4193 0
-2776 -4194 0
-4193 -4194 0
2776 4193 4194 0
-1173 -4195 0
-1173 -4196 0
-4195 -4196 0
1173 4195 4196 0
-2551 -4197 0
-2551 -4198 0
-4197 -4198 0
2551 4197 4198 0
-4199 -4200 0
-4199 -4201 0
-4200 -4201 0
4199 4200 4201 0
-476 -4202 0
-476 -4203 0
-4202 -4203 0
476 4202 4203 0
-2465 -4204 0
-2465 -4205 0
-4204 -4205 0
2465 4204 4205 0
-525 -3914 0
-525 -4206 0
-3914 -4206 0
525 3914 4206 0
-1213 -4207 0
-1213 -4208 0
-4207 -4208 0
1213 4207 4208 0
-2038 -4209 0
-2038 -4210 0
-4209 -4210 0
2038 4209 4210 0
-3724 -3855 0
-3724 -4211 0
-3855 -4211 0
3724 3855 4211 0
-1145 -4212 0
-1145 -4213 0
-4212 -4213 0
1145 4212 4213 0
-3636 -4214 0
-3636 -4215 0
-4214 -4215 0
3636 4214 4215 0
-4216 -4217 0
-4216 -4218 0
-4217 -4218 0
4216 4217 4218 0
-2275 -4219 0
-2275 -4220 0
-4219 -4220 0
2275 4219 4220 0
-1206 -1373 0
-1206 -4221 0
-1373 -4221 0
1206 1373 4221 0
-3968 -4222 0
-3968 -4223 0
-4222 -4223 0
3968 4222 4223 0
-2683 -4224 0
-2683 -4225 0
-4224 -4225 0
2683 4224 4225 0
-4226 -4227 0
-4226 -4228 0
-4227 -4228 0
4226 4227 4228 0
-3868 -4186 0
-3868 -4229 0
-4186 -4229 0
3868 4186 4229 0
-4230 -4231 0
-4230 -4232 0
-4231 -4232 0
4230 4231 4232 0
-1174 -4233 0
-1174 -4234 0
-4233 -4234 0
1174 4233 4234 0
-839 -4235 0
-839 -4236 0
-4235 -4236 0
839 4235 4236 0
-4237 -4238 0
-4237 -4239 0
-4238 -4239 0
4237 4238 4239 0
-4240 -4241 0
-4240 -4242 0
-4241 -4242 0
4240 4241 4242 0
-3650 -4243 0
-3650 -4244 0
-4243 -4244 0
3650 4243 4244 0
-3767 -4245 0
-3767 -4246 0
-4245 -4246 0
3767 4245 4246 0
-4247 -4248 0
-4247 -4249 0
-4248 -4249 0
4247 4248 4249 0
-2553 -3924 0
-2553 -4250 0
-3924 -4250 0
2553 3924 4250 0
-4251 -4252 0
-4251 -4253 0
-4252 -4253 0
4251 4252 4253 0
-4254 -4255 0
-4254 -4256 0
-4255 -4256 0
4254 4255 4256 0
-4257 -4258 0
-4257 -4259 0
-4258 -4259 0
4257 4258 4259 0
-981 -1179 0
-981 -4260 0
-1179 -4260 0
981 1179 4260 0
-3003 -4261 0
-3003 -4262 0
-4261 -4262 0
3003 4261 4262 0
-1510 -1745 0
-1510 -4263 0
-1745 -4263 0
1510 1745 4263 0
-4263 -4264 0
-4263 -4265 0
-4264 -4265 0
4263 4264 4265 0
-609 -2926 0
-609 -4266 0
-2926 -4266 0
609 2926 4266 0
-2658 -4267 0
-2658 -4268 0
-4267 -4268 0
2658 4267 4268 0
-2060 -3078 0
-2060 -4269 0
-3078 -4269 0
2060 3078 4269 0
-4050 -4270 0
-4050 -4271 0
-4270 -4271 0
4050 4270 4271 0
-19 -68 0
-19 -4272 0
-68 -4272 0
19 68 4272 0
-258 -4273 0
-258 -4274 0
-4273 -4274 0
258 4273 4274 0
-203 -4114 0
-203 -4275 0
-4114 -4275 0
203 4114 4275 0
-3964 -4276 0
-3964 -4277 0
-4276 -4277 0
3964 4276 4277 0
-4278 -4279 0
-4278 -4280 0
-4279 -4280 0
4278 4279 4280 0
-4281 -4282 0
-4281 -4283 0
-4282 -4283 0
4281 4282 4283 0
-4284 -4285 0
-4284 -4286 0
-4285 -4286 0
4284 4285 4286 0
-2029 -4287 0
-2029 -4288 0
-4287 -4288 0
2029 4287 4288 0
-807 -4289 0
-807 -4290 0
-4289 -4290 0
807 4289 4290 0
-29 -4291 0
-29 -4292 0
-4291 -4292 0
29 4291 4292 0
-4293 -4294 0
-4293 -4295 0
-4294 -4295 0
4293 4294 4295 0
-4296 -4297 0
-4296 -4298 0
-4297 -4298 0
4296 4297 4298 0
-37 -4299 0
-37 -4300 0
-4299 -4300 0
37 4299 4300 0
-4301 -4302 0
-4301 -4303 0
-4302 -4303 0
4301 4302 4303 0
-919 -4304 0
-919 -4305 0
-4304 -4305 0
919 4304 4305 0
-4216 -4306 0
-4216 -4307 0
-4306 -4307 0
4216 4306 4307 0
-207 -3209 0
-207 -4161 0
-3209 -4161 0
207 3209 4161 0
-1958 -3626 0
-1958 -4308 0
-3626 -4308 0
1958 3626 4308 0
-804 -4309 0
-804 -4310 0
-4309 -4310 0
804 4309 4310 0
-1764 -4311 0
-1764 -4312 0
-4311 -4312 0
1764 4311 4312 0
-321 -4313 0
-321 -4314 0
-4313 -4314 0
321 4313 4314 0
-209 -2877 0
-209 -4315 0
-2877 -4315 0
209 2877 4315 0
-4316 -4317 0
-4316 -4318 0
-4317 -4318 0
4316 4317 4318 0
-55 -72 0
-55 -243 0
-72 -243 0
55 72 243 0
-4319 -4320 0
-4319 -4321 0
-4320 -4321 0
4319 4320 4321 0
-848 -3524 0
-848 -4322 0
-3524 -4322 0
848 3524 4322 0
-957 -4323 0
-957 -4324 0
-4323 -4324 0
957 4323 4324 0
-4325 -4326 0
-4325 -4327 0
-4326 -4327 0
4325 4326 4327 0
-3242 -3656 0
-3242 -4328 0
-3656 -4328 0
3242 3656 4328 0
-4329 -4330 0
-4329 -4331 0
-4330 -4331 0
4329 4330 4331 0
-1513 -4332 0
-1513 -4333 0
-4332 -4333 0
1513 4332 4333 0
-831 -4334 0
-831 -4335 0
-4334 -4335 0
831 4334 4335 0
-4336 -4337 0
-4336 -4338 0
-4337 -4338 0
4336 4337 4338 0
-23 -1219 0
-23 -4339 0
-1219 -4339 0
23 1219 4339 0
-198 -1464 0
-198 -4340 0
-1464 -4340 0
198 1464 4340 0
-2773 -4341 0
-2773 -4342 0
-4341 -4342 0
2773 4341 4342 0
-2359 -4343 0
-2359 -4344 0
-4343 -4344 0
2359 4343 4344 0
-2108 -4345 0
-2108 -4346 0
-4345 -4346 0
2108 4345 4346 0
-4347 -4348 0
-4347 -4349 0
-4348 -4349 0
4347 4348 4349 0
-2568 -4350 0
-2568 -4351 0
-4350 -4351 0
2568 4350 4351 0
-3933 -4352 0
-3933 -4353 0
-4352 -4353 0
3933 4352 4353 0
-4354 -4355 0
-4354 -4356 0
-4355 -4356 0
4354 4355 4356 0
-2278 -4357 0
-2278 -4358 0
-4357 -4358 0
2278 4357 4358 0
-4359 -4360 0
-4359 -4361 0
-4360 -4361 0
4359 4360 4361 0
-4362 -4363 0
-4362 -4364 0
-4363 -4364 0
4362 4363 4364 0
-2652 -2899 0
-2652 -3310 0
-2899 -3310 0
2652 2899 3310 0
-3323 -4365 0
-3323 -4366 0
-4365 -4366 0
3323 4365 4366 0
-4281 -4367 0
-4281 -4368 0
-4367 -4368 0
4281 4367 4368 0
-3340 -4369 0
-3340 -4370 0
-4369 -4370 0
3340 4369 4370 0
-646 -4371 0
-646 -4372 0
-4371 -4372 0
646 4371 4372 0
-4373 -4374 0
-4373 -4375 0
-4374 -4375 0
4373 4374 4375 0
-1652 -2630 0
-1652 -4376 0
-2630 -4376 0
1652 2630 4376 0
-4377 -4378 0
-4377 -4379 0
-4378 -4379 0
4377 4378 4379 0
-4380 -4381 0
-4380 -4382 0
-4381 -4382 0
4380 4381 4382 0
-3519 -4383 0
-3519 -4384 0
-4383 -4384 0
3519 4383 4384 0
-4385 -4386 0
-4385 -4387 0
-4386 -4387 0
4385 4386 4387 0
-4388 -4389 0
-4388 -4390 0
-4389 -4390 0
4388 4389 4390 0
-3713 -3798 0
-3713 -4391 0
-3798 -4391 0
3713 3798 4391 0
-219 -4392 0
-219 -4393 0
-4392 -4393 0
219 4392 4393 0
-1875 -4394 0
-1875 -4395 0
-4394 -4395 0
1875 4394 4395 0
-4396 -4397 0
-4396 -4398 0
-4397 -4398 0
4396 4397 4398 0
-3720 -4399 0
-3720 -4400 0
-4399 -4400 0
3720 4399 4400 0
-2707 -4401 0
-2707 -4402 0
-4401 -4402 0
2707 4401 4402 0
-3599 -4079 0
-3599 -4403 0
-4079 -4403 0
3599 4079 4403 0
-2152 -4404 0
-2152 -4405 0
-4404 -4405 0
2152 4404 4405 0
-93 -774 0
-93 -4406 0
-774 -4406 0
93 774 4406 0
-1699 -3927 0
-1699 -4407 0
-3927 -4407 0
1699 3927 4407 0
-234 -4408 0
-234 -4409 0
-4408 -4409 0
234 4408 4409 0
-1640 -1901 0
-1640 -2736 0
-1901 -2736 0
1640 1901 2736 0
-4410 -4411 0
-4410 -4412 0
-4411 -4412 0
4410 4411 4412 0
-4413 -4414 0
-4413 -4415 0
-4414 -4415 0
4413 4414 4415 0
-773 -4416 0
-773 -4417 0
-4416 -4417 0
773 4416 4417 0
-504 -3800 0
-504 -4418 0
-3800 -4418 0
504 3800 4418 0
-1826 -4419 0
-1826 -4420 0
-4419 -4420 0
1826 4419 4420 0
-1848 -2913 0
-1848 -4421 0
-2913 -4421 0
1848 2913 4421 0
-3531 -4422 0
-3531 -4423 0
-4422 -4423 0
3531 4422 4423 0
-3214 -4424 0
-3214 -4425 0
-4424 -4425 0
3214 4424 4425 0
-3730 -4426 0
-3730 -4427 0
-4426 -4427 0
3730 4426 4427 0
-3093 -4428 0
-3093 -4429 0
-4428 -4429 0
3093 4428 4429 0
-1124 -1270 0
-1124 -4430 0
-1270 -4430 0
1124 1270 4430 0
-3692 -3880 0
-3692 -4431 0
-3880 -4431 0
3692 3880 4431 0
-4432 -4433 0
-4432 -4434 0
-4433 -4434 0
4432 4433 4434 0
-1017 -1857 0
-1017 -2845 0
-1857 -2845 0
1017 1857 2845 0
-2021 -3792 0
-2021 -4435 0
-3792 -4435 0
2021 3792 4435 0
-3534 -4436 0
-3534 -4437 0
-4436 -4437 0
3534 4436 4437 0
-1729 -4077 0
-1729 -4438 0
-4077 -4438 0
1729 4077 4438 0
-4439 -4440 0
-4439 -4441 0
-4440 -4441 0
4439 4440 4441 0
-4442 -4443 0
-4442 -4444 0
-4443 -4444 0
4442 4443 4444 0
-929 -4445 0
-929 -4446 0
-4445 -4446 0
929 4445 4446 0
-31 -4222 0
-31 -4447 0
-4222 -4447 0
31 4222 4447 0
-2981 -3447 0
-2981 -4448 0
-3447 -4448 0
2981 3447 4448 0
-1234 -4449 0
-1234 -4450 0
-4449 -4450 0
1234 4449 4450 0
-1449 -2589 0
-1449 -4451 0
-2589 -4451 0
1449 2589 4451 0
-4452 -4453 0
-4452 -4454 0
-4453 -4454 0
4452 4453 4454 0
-1238 -4455 0
-1238 -4456 0
-4455 -4456 0
1238 4455 4456 0
-3897 -4426 0
-3897 -4457 0
-4426 -4457 0
3897 4426 4457 0
-4039 -4301 0
-4039 -4458 0
-4301 -4458 0
4039 4301 4458 0
-894 -4459 0
-894 -4460 0
-4459 -4460 0
894 4459 4460 0
-3704 -4461 0
-3704 -4462 0
-4461 -4462 0
3704 4461 4462 0
-760 -1057 0
-760 -4463 0
-1057 -4463 0
760 1057 4463 0
-2057 -4464 0
-2057 -4465 0
-4464 -4465 0
2057 4464 4465 0
-2266 -3467 0
-2266 -4466 0
-3467 -4466 0
2266 3467 4466 0
-4467 -4468 0
-4467 -4469 0
-4468 -4469 0
4467 4468 4469 0
-75 -579 0
-75 -1163 0
-579 -1163 0
75 579 1163 0
-4470 -4471 0
-4470 -4472 0
-4471 -4472 0
4470 4471 4472 0
-4473 -4474 0
-4473 -4475 0
-4474 -4475 0
4473 4474 4475 0
-716 -4476 0
-716 -4477 0
-4476 -4477 0
716 4476 4477 0
-1029 -4478 0
-1029 -4479 0
-4478 -4479 0
1029 4478 4479 0
-1236 -2222 0
-1236 -2647 0
-2222 -2647 0
1236 2222 2647 0
-1081 -3822 0
-1081 -4480 0
-3822 -4480 0
1081 3822 4480 0
-4481 -4482 0
-4481 -4483 0
-4482 -4483 0
4481 4482 4483 0
-2062 -4484 0
-2062 -4485 0
-4484 -4485 0
2062 4484 4485 0
-4486 -4487 0
-4486 -4488 0
-4487 -4488 0
4486 4487 4488 0
-2965 -4489 0
-2965 -4490 0
-4489 -4490 0
2965 4489 4490 0
-299 -4491 0
-299 -4492 0
-4491 -4492 0
299 4491 4492 0
-3715 -4493 0
-3715 -4494 0
-4493 -4494 0
3715 4493 4494 0
-1766 -4369 0
-1766 -4495 0
-4369 -4495 0
1766 4369 4495 0
-4496 -4497 0
-4496 -4498 0
-4497 -4498 0
4496 4497 4498 0
-1866 -4499 0
-1866 -4500 0
-4499 -4500 0
1866 4499 4500 0
-4501 -4502 0
-4501 -4503 0
-4502 -4503 0
4501 4502 4503 0
-2339 -4504 0
-2339 -4505 0
-4504 -4505 0
2339 4504 4505 0
-1196 -2259 0
-1196 -4506 0
-2259 -4506 0
1196 2259 4506 0
-3118 -4507 0
-3118 -4508 0
-4507 -4508 0
3118 4507 4508 0
-2103 -4509 0
-2103 -4510 0
-4509 -4510 0
2103 4509 4510 0
-2070 -3066 0
-2070 -4511 0
-3066 -4511 0
2070 3066 4511 0
-4512 -4513 0
-4512 -4514 0
-4513 -4514 0
4512 4513 4514 0
-1393 -4142 0
-1393 -4515 0
-4142 -4515 0
1393 4142 4515 0
-1056 -1565 0
-1056 -4516 0
-1565 -4516 0
1056 1565 4516 0
-3351 -4517 0
-3351 -4518 0
-4517 -4518 0
3351 4517 4518 0
-1630 -4325 0
-1630 -4519 0
-4325 -4519 0
1630 4325 4519 0
-433 -4520 0
-433 -4521 0
-4520 -4521 0
433 4520 4521 0
-1022 -4522 0
-1022 -4523 0
-4522 -4523 0
1022 4522 4523 0
-45 -1717 0
-45 -4524 0
-1717 -4524 0
45 1717 4524 0
-955 -4302 0
-955 -4525 0
-4302 -4525 0
955 4302 4525 0
-4306 -4526 0
-4306 -4527 0
-4526 -4527 0
4306 4526 4527 0
-2469 -3659 0
-2469 -4528 0
-3659 -4528 0
2469 3659 4528 0
-1304 -2968 0
-1304 -3387 0
-2968 -3387 0
1304 2968 3387 0
-4529 -4530 0
-4529 -4531 0
-4530 -4531 0
4529 4530 4531 0
-1273 -1310 0
-1273 -2654 0
-1310 -2654 0
1273 1310 2654 0
-4137 -4532 0
-4137 -4533 0
-4532 -4533 0
4137 4532 4533 0
-1687 -4534 0
-1687 -4535 0
-4534 -4535 0
1687 4534 4535 0
-4336 -4536 0
-4336 -4537 0
-4536 -4537 0
4336 4536 4537 0
-2988 -4538 0
-2988 -4539 0
-4538 -4539 0
2988 4538 4539 0
-4540 -4541 0
-4540 -4542 0
-4541 -4542 0
4540 4541 4542 0
-1784 -4543 0
-1784 -4544 0
-4543 -4544 0
1784 4543 4544 0
-4545 -4546 0
-4545 -4547 0
-4546 -4547 0
4545 4546 4547 0
-4548 -4549 0
-4548 -4550 0
-4549 -4550 0
4548 4549 4550 0
-4551 -4552 0
-4551 -4553 0
-4552 -4553 0
4551 4552 4553 0
-4554 -4555 0
-4554 -4556 0
-4555 -4556 0
4554 4555 4556 0
-2268 -4557 0
-2268 -4558 0
-4557 -4558 0
2268 4557 4558 0
-4559 -4560 0
-4559 -4561 0
-4560 -4561 0
4559 4560 4561 0
-2336 -4562 0
-2336 -4563 0
-4562 -4563 0
2336 4562 4563 0
-3260 -4564 0
-3260 -4565 0
-4564 -4565 0
3260 4564 4565 0
-3496 -4566 0
-3496 -4567 0
-4566 -4567 0
3496 4566 4567 0
-1673 -4568 0
-1673 -4569 0
-4568 -4569 0
1673 4568 4569 0
-248 -2003 0
-248 -4570 0
-2003 -4570 0
248 2003 4570 0
-3697 -4571 0
-3697 -4572 0
-4571 -4572 0
3697 4571 4572 0
-4573 -4574 0
-4573 -4575 0
-4574 -4575 0
4573 4574 4575 0
-4428 -4576 0
-4428 -4577 0
-4576 -4577 0
4428 4576 4577 0
-423 -2251 0
-423 -4578 0
-2251 -4578 0
423 2251 4578 0
-4452 -4579 0
-4452 -4580 0
-4579 -4580 0
4452 4579 4580 0
-4581 -4582 0
-4581 -4583 0
-4582 -4583 0
4581 4582 4583 0
-4584 -4585 0
-4584 -4586 0
-4585 -4586 0
4584 4585 4586 0
-2874 -4587 0
-2874 -4588 0
-4587 -4588 0
2874 4587 4588 0
-1376 -4551 0
-1376 -4589 0
-4551 -4589 0
1376 4551 4589 0
-177 -2114 0
-177 -4590 0
-2114 -4590 0
177 2114 4590 0
-3145 -4591 0
-3145 -4592 0
-4591 -4592 0
3145 4591 4592 0
-2686 -4593 0
-2686 -4594 0
-4593 -4594 0
2686 4593 4594 0
-4406 -4595 0
-4406 -4596 0
-4595 -4596 0
4406 4595 4596 0
-4597 -4598 0
-4597 -4599 0
-4598 -4599 0
4597 4598 4599 0
-4600 -4601 0
-4600 -4602 0
-4601 -4602 0
4600 4601 4602 0
-743 -4022 0
-743 -4603 0
-4022 -4603 0
743 4022 4603 0
-4604 -4605 0
-4604 -4606 0
-4605 -4606 0
4604 4605 4606 0
-4291 -4607 0
-4291 -4608 0
-4607 -4608 0
4291 4607 4608 0
-2144 -4609 0
-2144 -4610 0
-4609 -4610 0
2144 4609 4610 0
-3332 -4611 0
-3332 -4612 0
-4611 -4612 0
3332 4611 4612 0
-2263 -4613 0
-2263 -4614 0
-4613 -4614 0
2263 4613 4614 0
-2631 -3536 0
-2631 -4615 0
-3536 -4615 0
2631 3536 4615 0
-3409 -4616 0
-3409 -4617 0
-4616 -4617 0
3409 4616 4617 0
-4618 -4619 0
-4618 -4620 0
-4619 -4620 0
4618 4619 4620 0
-2196 -4373 0
-2196 -4621 0
-4373 -4621 0
2196 4373 4621 0
-3889 -4622 0
-3889 -4623 0
-4622 -4623 0
3889 4622 4623 0
-1484 -1953 0
-1484 -4624 0
-1953 -4624 0
1484 1953 4624 0
-857 -2382 0
-857 -4625 0
-2382 -4625 0
857 2382 4625 0
-1326 -4626 0
-1326 -4627 0
-4626 -4627 0
1326 4626 4627 0
-38 -3361 0
-38 -4628 0
-3361 -4628 0
38 3361 4628 0
-635 -668 0
-635 -4629 0
-668 -4629 0
635 668 4629 0
-2597 -4630 0
-2597 -4631 0
-4630 -4631 0
2597 4630 4631 0
-443 -4632 0
-443 -4633 0
-4632 -4633 0
443 4632 4633 0
-4634 -4635 0
-4634 -4636 0
-4635 -4636 0
4634 4635 4636 0
-2584 -4637 0
-2584 -4638 0
-4637 -4638 0
2584 4637 4638 0
-660 -3426 0
-660 -4639 0
-3426 -4639 0
660 3426 4639 0
-4640 -4641 0
-4640 -4642 0
-4641 -4642 0
4640 4641 4642 0
-866 -4643 0
-866 -4644 0
-4643 -4644 0
866 4643 4644 0
-3753 -4645 0
-3753 -4646 0
-4645 -4646 0
3753 4645 4646 0
-2418 -4516 0
-2418 -4647 0
-4516 -4647 0
2418 4516 4647 0
-4648 -4649 0
-4648 -4650 0
-4649 -4650 0
4648 4649 4650 0
-777 -4651 0
-777 -4652 0
-4651 -4652 0
777 4651 4652 0
-3755 -4653 0
-3755 -4654 0
-4653 -4654 0
3755 4653 4654 0
-2125 -4655 0
-2125 -4656 0
-4655 -4656 0
2125 4655 4656 0
-1877 -4657 0
-1877 -4658 0
-4657 -4658 0
1877 4657 4658 0
-2839 -4659 0
-2839 -4660 0
-4659 -4660 0
2839 4659 4660 0
-1532 -3485 0
-1532 -3934 0
-3485 -3934 0
1532 3485 3934 0
-288 -3928 0
-288 -4661 0
-3928 -4661 0
288 3928 4661 0
-1597 -2603 0
-1597 -3918 0
-2603 -3918 0
1597 2603 3918 0
-2409 -3045 0
-2409 -3335 0
-3045 -3335 0
2409 3045 3335 0
-164 -4662 0
-164 -4663 0
-4662 -4663 0
164 4662 4663 0
-1627 -2394 0
-1627 -4664 0
-2394 -4664 0
1627 2394 4664 0
-4665 -4666 0
-4665 -4667 0
-4666 -4667 0
4665 4666 4667 0
-1578 -4668 0
-1578 -4669 0
-4668 -4669 0
1578 4668 4669 0
-235 -4670 0
-235 -4671 0
-4670 -4671 0
235 4670 4671 0
-2534 -4672 0
-2534 -4673 0
-4672 -4673 0
2534 4672 4673 0
-2904 -4674 0
-2904 -4675 0
-4674 -4675 0
2904 4674 4675 0
-3087 -4504 0
-3087 -4676 0
-4504 -4676 0
3087 4504 4676 0
-4677 -4678 0
-4677 -4679 0
-4678 -4679 0
4677 4678 4679 0
-1110 -4680 0
-1110 -4681 0
-4680 -4681 0
1110 4680 4681 0
-4682 -4683 0
-4682 -4684 0
-4683 -4684 0
4682 4683 4684 0
-4145 -4566 0
-4145 -4685 0
-4566 -4685 0
4145 4566 4685 0
-3796 -4686 0
-3796 -4687 0
-4686 -4687 0
3796 4686 4687 0
-2006 -4622 0
-2006 -4688 0
-4622 -4688 0
2006 4622 4688 0
-4689 -4690 0
-4689 -4691 0
-4690 -4691 0
4689 4690 4691 0
-1644 -4692 0
-1644 -4693 0
-4692 -4693 0
1644 4692 4693 0
-719 -4068 0
-719 -4694 0
-4068 -4694 0
719 4068 4694 0
-4695 -4696 0
-4695 -4697 0
-4696 -4697 0
4695 4696 4697 0
-3965 -4698 0
-3965 -4699 0
-4698 -4699 0
3965 4698 4699 0
-673 -3305 0
-673 -4700 0
-3305 -4700 0
673 3305 4700 0
-3652 -4701 0
-3652 -4702 0
-4701 -4702 0
3652 4701 4702 0
-1335 -4703 0
-1335 -4704 0
-4703 -4704 0
1335 4703 4704 0
-4705 -4706 0
-4705 -4707 0
-4706 -4707 0
4705 4706 4707 0
-474 -4708 0
-474 -4709 0
-4708 -4709 0
474 4708 4709 0
-4710 -4711 0
-4710 -4712 0
-4711 -4712 0
4710 4711 4712 0
-3241 -3343 0
-3241 -4713 0
-3343 -4713 0
3241 3343 4713 0
-4179 -4714 0
-4179 -4715 0
-4714 -4715 0
4179 4714 4715 0
-3812 -4716 0
-3812 -4717 0
-4716 -4717 0
3812 4716 4717 0
-1239 -4718 0
-1239 -4719 0
-4718 -4719 0
1239 4718 4719 0
-4677 -4720 0
-4677 -4721 0
-4720 -4721 0
4677 4720 4721 0
-73 -2119 0
-73 -4722 0
-2119 -4722 0
73 2119 4722 0
-4723 -4724 0
-4723 -4725 0
-4724 -4725 0
4723 4724 4725 0
-501 -4726 0
-501 -4727 0
-4726 -4727 0
501 4726 4727 0
-2840 -4728 0
-2840 -4729 0
-4728 -4729 0
2840 4728 4729 0
-4730 -4731 0
-4730 -4732 0
-4731 -4732 0
4730 4731 4732 0
-4733 -4734 0
-4733 -4735 0
-4734 -4735 0
4733 4734 4735 0
-465 -4736 0
-465 -4737 0
-4736 -4737 0
465 4736 4737 0
-2257 -4738 0
-2257 -4739 0
-4738 -4739 0
2257 4738 4739 0
-786 -1663 0
-786 -4740 0
-1663 -4740 0
786 1663 4740 0
-3797 -4741 0
-3797 -4742 0
-4741 -4742 0
3797 4741 4742 0
-91 -2400 0
-91 -4511 0
-2400 -4511 0
91 2400 4511 0
-4743 -4744 0
-4743 -4745 0
-4744 -4745 0
4743 4744 4745 0
-4645 -4746 0
-4645 -4747 0
-4746 -4747 0
4645 4746 4747 0
-959 -4748 0
-959 -4749 0
-4748 -4749 0
959 4748 4749 0
-4750 -4751 0
-4750 -4752 0
-4751 -4752 0
4750 4751 4752 0
-4753 -4754 0
-4753 -4755 0
-4754 -4755 0
4753 4754 4755 0
-440 -4741 0
-440 -4756 0
-4741 -4756 0
440 4741 4756 0
-648 -1758 0
-648 -3946 0
-1758 -3946 0
648 1758 3946 0
-1713 -1908 0
-1713 -4757 0
-1908 -4757 0
1713 1908 4757 0
-4758 -4759 0
-4758 -4760 0
-4759 -4760 0
4758 4759 4760 0
-4710 -4761 0
-4710 -4762 0
-4761 -4762 0
4710 4761 4762 0
-4763 -4764 0
-4763 -4765 0
-4764 -4765 0
4763 4764 4765 0
-3718 -4766 0
-3718 -4767 0
-4766 -4767 0
3718 4766 4767 0
-994 -3321 0
-994 -4768 0
-3321 -4768 0
994 3321 4768 0
-4769 -4770 0
-4769 -4771 0
-4770 -4771 0
4769 4770 4771 0
-3596 -4416 0
-3596 -4772 0
-4416 -4772 0
3596 4416 4772 0
-4773 -4774 0
-4773 -4775 0
-4774 -4775 0
4773 4774 4775 0
-4776 -4777 0
-4776 -4778 0
-4777 -4778 0
4776 4777 4778 0
-4779 -4780 0
-4779 -4781 0
-4780 -4781 0
4779 4780 4781 0
-230 -4782 0
-230 -4783 0
-4782 -4783 0
230 4782 4783 0
-4784 -4785 0
-4784 -4786 0
-4785 -4786 0
4784 4785 4786 0
-4787 -4788 0
-4787 -4789 0
-4788 -4789 0
4787 4788 4789 0
-3861 -4790 0
-3861 -4791 0
-4790 -4791 0
3861 4790 4791 0
-3166 -4792 0
-3166 -4793 0
-4792 -4793 0
3166 4792 4793 0
-4464 -4794 0
-4464 -4795 0
-4794 -4795 0
4464 4794 4795 0
-4181 -4796 0
-4181 -4797 0
-4796 -4797 0
4181 4796 4797 0
-3024 -4798 0
-3024 -4799 0
-4798 -4799 0
3024 4798 4799 0
-515 -4199 0
-515 -4800 0
-4199 -4800 0
515 4199 4800 0
-2470 -4801 0
-2470 -4802 0
-4801 -4802 0
2470 4801 4802 0
-2627 -4803 0
-2627 -4804 0
-4803 -4804 0
2627 4803 4804 0
-1752 -4805 0
-1752 -4806 0
-4805 -4806 0
1752 4805 4806 0
-1859 -4807 0
-1859 -4808 0
-4807 -4808 0
1859 4807 4808 0
-1936 -4794 0
-1936 -4809 0
-4794 -4809 0
1936 4794 4809 0
-862 -4701 0
-862 -4810 0
-4701 -4810 0
862 4701 4810 0
-2438 -4811 0
-2438 -4812 0
-4811 -4812 0
2438 4811 4812 0
-2369 -4813 0
-2369 -4814 0
-4813 -4814 0
2369 4813 4814 0
-2252 -2383 0
-2252 -4293 0
-2383 -4293 0
2252 2383 4293 0
-3936 -4815 0
-3936 -4816 0
-4815 -4816 0
3936 4815 4816 0
-895 -3116 0
-895 -4817 0
-3116 -4817 0
895 3116 4817 0
-2792 -2918 0
-2792 -4818 0
-2918 -4818 0
2792 2918 4818 0
-4819 -4820 0
-4819 -4821 0
-4820 -4821 0
4819 4820 4821 0
-4822 -4823 0
-4822 -4824 0
-4823 -4824 0
4822 4823 4824 0
-2793 -2878 0
-2793 -4825 0
-2878 -4825 0
2793 2878 4825 0
-2097 -4689 0
-2097 -4826 0
-4689 -4826 0
2097 4689 4826 0
-461 -1377 0
-461 -4827 0
-1377 -4827 0
461 1377 4827 0
-1600 -4151 0
-1600 -4828 0
-4151 -4828 0
1600 4151 4828 0
-3481 -4829 0
-3481 -4830 0
-4829 -4830 0
3481 4829 4830 0
-4478 -4831 0
-4478 -4832 0
-4831 -4832 0
4478 4831 4832 0
-2674 -3986 0
-2674 -4833 0
-3986 -4833 0
2674 3986 4833 0
-2612 -4834 0
-2612 -4835 0
-4834 -4835 0
2612 4834 4835 0
-2511 -4836 0
-2511 -4837 0
-4836 -4837 0
2511 4836 4837 0
-2810 -4838 0
-2810 -4839 0
-4838 -4839 0
2810 4838 4839 0
-3174 -4761 0
-3174 -4840 0
-4761 -4840 0
3174 4761 4840 0
-3319 -4665 0
-3319 -4841 0
-4665 -4841 0
3319 4665 4841 0
-3803 -3954 0
-3803 -4842 0
-3954 -4842 0
3803 3954 4842 0
-2880 -4593 0
-2880 -4843 0
-4593 -4843 0
2880 4593 4843 0
-3779 -4844 0
-3779 -4845 0
-4844 -4845 0
3779 4844 4845 0
-436 -481 0
-436 -4846 0
-481 -4846 0
436 481 4846 0
-3905 -4014 0
-3905 -4847 0
-4014 -4847 0
3905 4014 4847 0
-4848 -4849 0
-4848 -4850 0
-4849 -4850 0
4848 4849 4850 0
-589 -4581 0
-589 -4851 0
-4581 -4851 0
589 4581 4851 0
-615 -2497 0
-615 -4852 0
-2497 -4852 0
615 2497 4852 0
-43 -4853 0
-43 -4854 0
-4853 -4854 0
43 4853 4854 0
-2697 -2838 0
-2697 -4855 0
-2838 -4855 0
2697 2838 4855 0
-2280 -4856 0
-2280 -4857 0
-4856 -4857 0
2280 4856 4857 0
-4552 -4858 0
-4552 -4859 0
-4858 -4859 0
4552 4858 4859 0
-2462 -4037 0
-2462 -4860 0
-4037 -4860 0
2462 4037 4860 0
-4861 -4862 0
-4861 -4863 0
-4862 -4863 0
4861 4862 4863 0
-4864 -4865 0
-4864 -4866 0
-4865 -4866 0
4864 4865 4866 0
-1180 -4867 0
-1180 -4868 0
-4867 -4868 0
1180 4867 4868 0
-3215 -3657 0
-3215 -4869 0
-3657 -4869 0
3215 3657 4869 0
-2391 -4870 0
-2391 -4871 0
-4870 -4871 0
2391 4870 4871 0
-2064 -2350 0
-2064 -3432 0
-2350 -3432 0
2064 2350 3432 0
-4872 -4873 0
-4872 -4874 0
-4873 -4874 0
4872 4873 4874 0
-1067 -3098 0
-1067 -4875 0
-3098 -4875 0
1067 3098 4875 0
-208 -4628 0
-208 -4876 0
-4628 -4876 0
208 4628 4876 0
-4582 -4877 0
-4582 -4878 0
-4877 -4878 0
4582 4877 4878 0
-1684 -4856 0
-1684 -4879 0
-4856 -4879 0
1684 4856 4879 0
-4880 -4881 0
-4880 -4882 0
-4881 -4882 0
4880 4881 4882 0
-2189 -4883 0
-2189 -4884 0
-4883 -4884 0
2189 4883 4884 0
-2765 -3466 0
-2765 -4885 0
-3466 -4885 0
2765 3466 4885 0
-2341 -4886 0
-2341 -4887 0
-4886 -4887 0
2341 4886 4887 0
-3840 -4138 0
-3840 -4888 0
-4138 -4888 0
3840 4138 4888 0
-4889 -4890 0
-4889 -4891 0
-4890 -4891 0
4889 4890 4891 0
-2305 -4769 0
-2305 -4892 0
-4769 -4892 0
2305 4769 4892 0
-1844 -4893 0
-1844 -4894 0
-4893 -4894 0
1844 4893 4894 0
-4109 -4895 0
-4109 -4896 0
-4895 -4896 0
4109 4895 4896 0
-2625 -3158 0
-2625 -4897 0
-3158 -4897 0
2625 3158 4897 0
-1058 -4898 0
-1058 -4899 0
-4898 -4899 0
1058 4898 4899 0
-2241 -3248 0
-2241 -4900 0
-3248 -4900 0
2241 3248 4900 0
-4442 -4901 0
-4442 -4902 0
-4901 -4902 0
4442 4901 4902 0
-4903 -4904 0
-4903 -4905 0
-4904 -4905 0
4903 4904 4905 0
-314 -3984 0
-314 -4906 0
-3984 -4906 0
314 3984 4906 0
-3072 -4907 0
-3072 -4908 0
-4907 -4908 0
3072 4907 4908 0
-4909 -4910 0
-4909 -4911 0
-4910 -4911 0
4909 4910 4911 0
-4912 -4913 0
-4912 -4914 0
-4913 -4914 0
4912 4913 4914 0
-4915 -4916 0
-4915 -4917 0
-4916 -4917 0
4915 4916 4917 0
-1166 -1979 0
-1166 -4918 0
-1979 -4918 0
1166 1979 4918 0
-18 -1088 0
-18 -4919 0
-1088 -4919 0
18 1088 4919 0
-1788 -4861 0
-1788 -4920 0
-4861 -4920 0
1788 4861 4920 0
-328 -522 0
-328 -4921 0
-522 -4921 0
328 522 4921 0
-246 -4922 0
-246 -4923 0
-4922 -4923 0
246 4922 4923 0
-1352 -1740 0
-1352 -4924 0
-1740 -4924 0
1352 1740 4924 0
-2726 -4925 0
-2726 -4926 0
-4925 -4926 0
2726 4925 4926 0
-899 -4251 0
-899 -4927 0
-4251 -4927 0
899 4251 4927 0
-2935 -3190 0
-2935 -4928 0
-3190 -4928 0
2935 3190 4928 0
-683 -4929 0
-683 -4930 0
-4929 -4930 0
683 4929 4930 0
-3128 -4376 0
-3128 -4931 0
-4376 -4931 0
3128 4376 4931 0
-3442 -4932 0
-3442 -4933 0
-4932 -4933 0
3442 4932 4933 0
-4934 -4935 0
-4934 -4936 0
-4935 -4936 0
4934 4935 4936 0
-2466 -3982 0
-2466 -4937 0
-3982 -4937 0
2466 3982 4937 0
-3025 -4938 0
-3025 -4939 0
-4938 -4939 0
3025 4938 4939 0
-3039 -4940 0
-3039 -4941 0
-4940 -4941 0
3039 4940 4941 0
-3195 -4840 0
-3195 -4942 0
-4840 -4942 0
3195 4840 4942 0
-3220 -3506 0
-3220 -4943 0
-3506 -4943 0
3220 3506 4943 0
-4461 -4944 0
-4461 -4945 0
-4944 -4945 0
4461 4944 4945 0
-3250 -3895 0
-3250 -4946 0
-3895 -4946 0
3250 3895 4946 0
-3243 -4947 0
-3243 -4948 0
-4947 -4948 0
3243 4947 4948 0
-4949 -4950 0
-4949 -4951 0
-4950 -4951 0
4949 4950 4951 0
-4952 -4953 0
-4952 -4954 0
-4953 -4954 0
4952 4953 4954 0
-4909 -4955 0
-4909 -4956 0
-4955 -4956 0
4909 4955 4956 0
-4424 -4957 0
-4424 -4958 0
-4957 -4958 0
4424 4957 4958 0
-4959 -4960 0
-4959 -4961 0
-4960 -4961 0
4959 4960 4961 0
-3171 -4962 0
-3171 -4963 0
-4962 -4963 0
3171 4962 4963 0
-4964 -4965 0
-4964 -4966 0
-4965 -4966 0
4964 4965 4966 0
-4967 -4968 0
-4967 -4969 0
-4968 -4969 0
4967 4968 4969 0
-4952 -4970 0
-4952 -4971 0
-4970 -4971 0
4952 4970 4971 0
-4410 -4621 0
-4410 -4972 0
-4621 -4972 0
4410 4621 4972 0
-4798 -4973 0
-4798 -4974 0
-4973 -4974 0
4798 4973 4974 0
-303 -347 0
-303 -4975 0
-347 -4975 0
303 347 4975 0
-3532 -4362 0
-3532 -4976 0
-4362 -4976 0
3532 4362 4976 0
-639 -3544 0
-639 -4247 0
-3544 -4247 0
639 3544 4247 0
-3951 -4666 0
-3951 -4977 0
-4666 -4977 0
3951 4666 4977 0
-4880 -4978 0
-4880 -4979 0
-4978 -4979 0
4880 4978 4979 0
-1402 -1543 0
-1402 -4980 0
-1543 -4980 0
1402 1543 4980 0
-4365 -4981 0
-4365 -4982 0
-4981 -4982 0
4365 4981 4982 0
-1207 -4983 0
-1207 -4984 0
-4983 -4984 0
1207 4983 4984 0
-4164 -4985 0
-4164 -4986 0
-4985 -4986 0
4164 4985 4986 0
-1422 -4987 0
-1422 -4988 0
-4987 -4988 0
1422 4987 4988 0
-4989 -4990 0
-4989 -4991 0
-4990 -4991 0
4989 4990 4991 0
-1370 -4992 0
-1370 -4993 0
-4992 -4993 0
1370 4992 4993 0
-845 -2760 0
-845 -4792 0
-2760 -4792 0
845 2760 4792 0
-1146 -2479 0
-1146 -4994 0
-2479 -4994 0
1146 2479 4994 0
-4995 -4996 0
-4995 -4997 0
-4996 -4997 0
4995 4996 4997 0
-4998 -4999 0
-4998 -5000 0
-4999 -5000 0
4998 4999 5000 0
-5001 -5002 0
-5001 -5003 0
-5002 -5003 0
5001 5002 5003 0
-3520 -5004 0
-3520 -5005 0
-5004 -5005 0
3520 5004 5005 0
-4676 -5006 0
-4676 -5007 0
-5006 -5007 0
4676 5006 5007 0
-1094 -5008 0
-1094 -5009 0
-5008 -5009 0
1094 5008 5009 0
-146 -4800 0
-146 -5010 0
-4800 -5010 0
146 4800 5010 0
-3502 -5011 0
-3502 -5012 0
-5011 -5012 0
3502 5011 5012 0
-44 -4332 0
-44 -5013 0
-4332 -5013 0
44 4332 5013 0
-2932 -5014 0
-2932 -5015 0
-5014 -5015 0
2932 5014 5015 0
-3517 -5016 0
-3517 -5017 0
-5016 -5017 0
3517 5016 5017 0
-3761 -5018 0
-3761 -5019 0
-5018 -5019 0
3761 5018 5019 0
-1980 -2489 0
-1980 -5020 0
-2489 -5020 0
1980 2489 5020 0
-2238 -2598 0
-2238 -5021 0
-2598 -5021 0
2238 2598 5021 0
-4618 -5022 0
-4618 -5023 0
-5022 -5023 0
4618 5022 5023 0
-4021 -5024 0
-4021 -5025 0
-5024 -5025 0
4021 5024 5025 0
-3641 -5026 0
-3641 -5027 0
-5026 -5027 0
3641 5026 5027 0
-5028 -5029 0
-5028 -5030 0
-5029 -5030 0
5028 5029 5030 0
-201 -2667 0
-201 -4723 0
-2667 -4723 0
201 2667 4723 0
-5031 -5032 0
-5031 -5033 0
-5032 -5033 0
5031 5032 5033 0
-2308 -5034 0
-2308 -5035 0
-5034 -5035 0
2308 5034 5035 0
-133 -1047 0
-133 -5036 0
-1047 -5036 0
133 1047 5036 0
-3637 -5037 0
-3637 -5038 0
-5037 -5038 0
3637 5037 5038 0
-1705 -5039 0
-1705 -5040 0
-5039 -5040 0
1705 5039 5040 0
-3644 -5041 0
-3644 -5042 0
-5041 -5042 0
3644 5041 5042 0
-1794 -4746 0
-1794 -5043 0
-4746 -5043 0
1794 4746 5043 0
-4445 -5044 0
-4445 -5045 0
-5044 -5045 0
4445 5044 5045 0
-2961 -5046 0
-2961 -5047 0
-5046 -5047 0
2961 5046 5047 0
-5048 -5049 0
-5048 -5050 0
-5049 -5050 0
5048 5049 5050 0
-585 -2319 0
-585 -5051 0
-2319 -5051 0
585 2319 5051 0
-4278 -5052 0
-4278 -5053 0
-5052 -5053 0
4278 5052 5053 0
-2574 -5054 0
-2574 -5055 0
-5054 -5055 0
2574 5054 5055 0
-84 -4870 0
-84 -5056 0
-4870 -5056 0
84 4870 5056 0
-2901 -5057 0
-2901 -5058 0
-5057 -5058 0
2901 5057 5058 0
-5059 -5060 0
-5059 -5061 0
-5060 -5061 0
5059 5060 5061 0
-5062 -5063 0
-5062 -5064 0
-5063 -5064 0
5062 5063 5064 0
-4276 -5065 0
-4276 -5066 0
-5065 -5066 0
4276 5065 5066 0
-149 -5067 0
-149 -5068 0
-5067 -5068 0
149 5067 5068 0
-1674 -5069 0
-1674 -5070 0
-5069 -5070 0
1674 5069 5070 0
-4813 -5071 0
-4813 -5072 0
-5071 -5072 0
4813 5071 5072 0
-360 -2847 0
-360 -4080 0
-2847 -4080 0
360 2847 4080 0
-4140 -4998 0
-4140 -5073 0
-4998 -5073 0
4140 4998 5073 0
-4413 -5074 0
-4413 -5075 0
-5074 -5075 0
4413 5074 5075 0
-946 -1821 0
-946 -2669 0
-1821 -2669 0
946 1821 2669 0
-4625 -5076 0
-4625 -5077 0
-5076 -5077 0
4625 5076 5077 0
-1653 -5078 0
-1653 -5079 0
-5078 -5079 0
1653 5078 5079 0
-2209 -3146 0
-2209 -4995 0
-3146 -4995 0
2209 3146 4995 0
-498 -633 0
-498 -5080 0
-633 -5080 0
498 633 5080 0
-5081 -5082 0
-5081 -5083 0
-5082 -5083 0
5081 5082 5083 0
-5084 -5085 0
-5084 -5086 0
-5085 -5086 0
5084 5085 5086 0
-4363 -5087 0
-4363 -5088 0
-5087 -5088 0
4363 5087 5088 0
-2376 -5089 0
-2376 -5090 0
-5089 -5090 0
2376 5089 5090 0
-239 -3385 0
-239 -5091 0
-3385 -5091 0
239 3385 5091 0
-1882 -1977 0
-1882 -5092 0
-1977 -5092 0
1882 1977 5092 0
-1955 -5093 0
-1955 -5094 0
-5093 -5094 0
1955 5093 5094 0
-1775 -5095 0
-1775 -5096 0
-5095 -5096 0
1775 5095 5096 0
-5097 -5098 0
-5097 -5099 0
-5098 -5099 0
5097 5098 5099 0
-4147 -5081 0
-4147 -5100 0
-5081 -5100 0
4147 5081 5100 0
-5101 -5102 0
-5101 -5103 0
-5102 -5103 0
5101 5102 5103 0
-3874 -4294 0
-3874 -5104 0
-4294 -5104 0
3874 4294 5104 0
-1989 -5105 0
-1989 -5106 0
-5105 -5106 0
1989 5105 5106 0
-345 -5107 0
-345 -5108 0
-5107 -5108 0
345 5107 5108 0
-1679 -4055 0
-1679 -4366 0
-4055 -4366 0
1679 4055 4366 0
-2930 -3474 0
-2930 -4889 0
-3474 -4889 0
2930 3474 4889 0
-2723 -4476 0
-2723 -5109 0
-4476 -5109 0
2723 4476 5109 0
-4640 -5110 0
-4640 -5111 0
-5110 -5111 0
4640 5110 5111 0
-1041 -5112 0
-1041 -5113 0
-5112 -5113 0
1041 5112 5113 0
-971 -5114 0
-971 -5115 0
-5114 -5115 0
971 5114 5115 0
-5116 -5117 0
-5116 -5118 0
-5117 -5118 0
5116 5117 5118 0
-4705 -5119 0
-4705 -5120 0
-5119 -5120 0
4705 5119 5120 0
-3582 -5121 0
-3582 -5122 0
-5121 -5122 0
3582 5121 5122 0
-5123 -5124 0
-5123 -5125 0
-5124 -5125 0
5123 5124 5125 0
-1429 -2074 0
-1429 -5126 0
-2074 -5126 0
1429 2074 5126 0
-1412 -5127 0
-1412 -5128 0
-5127 -5128 0
1412 5127 5128 0
-4758 -4962 0
-4758 -5129 0
-4962 -5129 0
4758 4962 5129 0
-169 -3746 0
-169 -5130 0
-3746 -5130 0
169 3746 5130 0
-5131 -5132 0
-5131 -5133 0
-5132 -5133 0
5131 5132 5133 0
-2273 -5134 0
-2273 -5135 0
-5134 -5135 0
2273 5134 5135 0
-5136 -5137 0
-5136 -5138 0
-5137 -5138 0
5136 5137 5138 0
-5139 -5140 0
-5139 -5141 0
-5140 -5141 0
5139 5140 5141 0
-2457 -5142 0
-2457 -5143 0
-5142 -5143 0
2457 5142 5143 0
-5144 -5145 0
-5144 -5146 0
-5145 -5146 0
5144 5145 5146 0
-25 -1606 0
-25 -5147 0
-1606 -5147 0
25 1606 5147 0
-914 -5148 0
-914 -5149 0
-5148 -5149 0
914 5148 5149 0
-836 -4529 0
-836 -5150 0
-4529 -5150 0
836 4529 5150 0
-1479 -5151 0
-1479 -5152 0
-5151 -5152 0
1479 5151 5152 0
-3488 -3925 0
-3488 -5153 0
-3925 -5153 0
3488 3925 5153 0
-2063 -2518 0
-2063 -5154 0
-2518 -5154 0
2063 2518 5154 0
-5155 -5156 0
-5155 -5157 0
-5156 -5157 0
5155 5156 5157 0
-4716 -5158 0
-4716 -5159 0
-5158 -5159 0
4716 5158 5159 0
-5160 -5161 0
-5160 -5162 0
-5161 -5162 0
5160 5161 5162 0
-3752 -5116 0
-3752 -5163 0
-5116 -5163 0
3752 5116 5163 0
-4399 -4507 0
-4399 -5164 0
-4507 -5164 0
4399 4507 5164 0
-4261 -5165 0
-4261 -5166 0
-5165 -5166 0
4261 5165 5166 0
-2522 -3865 0
-2522 -4609 0
-3865 -4609 0
2522 3865 4609 0
-3710 -5167 0
-3710 -5168 0
-5167 -5168 0
3710 5167 5168 0
-3776 -4005 0
-3776 -5169 0
-4005 -5169 0
3776 4005 5169 0
-1147 -5170 0
-1147 -5171 0
-5170 -5171 0
1147 5170 5171 0
-3366 -3782 0
-3366 -5172 0
-3782 -5172 0
3366 3782 5172 0
-256 -4540 0
-256 -5173 0
-4540 -5173 0
256 4540 5173 0
-424 -2286 0
-424 -5174 0
-2286 -5174 0
424 2286 5174 0
-3407 -5175 0
-3407 -5176 0
-5175 -5176 0
3407 5175 5176 0
-4807 -5177 0
-4807 -5178 0
-5177 -5178 0
4807 5177 5178 0
-5144 -5179 0
-5144 -5180 0
-5179 -5180 0
5144 5179 5180 0
-2623 -5181 0
-2623 -5182 0
-5181 -5182 0
2623 5181 5182 0
-5183 -5184 0
-5183 -5185 0
-5184 -5185 0
5183 5184 5185 0
-3281 -4730 0
-3281 -4999 0
-4730 -4999 0
3281 4730 4999 0
-2927 -4248 0
-2927 -5186 0
-4248 -5186 0
2927 4248 5186 0
-3307 -5187 0
-3307 -5188 0
-5187 -5188 0
3307 5187 5188 0
-723 -5189 0
-723 -5190 0
-5189 -5190 0
723 5189 5190 0
-2862 -2999 0
-2862 -5191 0
-2999 -5191 0
2862 2999 5191 0
-3042 -5001 0
-3042 -5192 0
-5001 -5192 0
3042 5001 5192 0
-2392 -5193 0
-2392 -5194 0
-5193 -5194 0
2392 5193 5194 0
-5195 -5196 0
-5195 -5197 0
-5196 -5197 0
5195 5196 5197 0
-1291 -1833 0
-1291 -3675 0
-1833 -3675 0
1291 1833 3675 0
-1441 -2575 0
-1441 -5198 0
-2575 -5198 0
1441 2575 5198 0
-70 -3548 0
-70 -5199 0
-3548 -5199 0
70 3548 5199 0
-5200 -5201 0
-5200 -5202 0
-5201 -5202 0
5200 5201 5202 0
-5203 -5204 0
-5203 -5205 0
-5204 -5205 0
5203 5204 5205 0
-5206 -5207 0
-5206 -5208 0
-5207 -5208 0
5206 5207 5208 0
-3088 -3593 0
-3088 -5209 0
-3593 -5209 0
3088 3593 5209 0
-5210 -5211 0
-5210 -5212 0
-5211 -5212 0
5210 5211 5212 0
-713 -4455 0
-713 -5213 0
-4455 -5213 0
713 4455 5213 0
-3059 -3133 0
-3059 -5214 0
-3133 -5214 0
3059 3133 5214 0
-4094 -5215 0
-4094 -5216 0
-5215 -5216 0
4094 5215 5216 0
-3297 -5217 0
-3297 -5218 0
-5217 -5218 0
3297 5217 5218 0
-621 -5219 0
-621 -5220 0
-5219 -5220 0
621 5219 5220 0
-2296 -2831 0
-2296 -3067 0
-2831 -3067 0
2296 2831 3067 0
-1509 -4989 0
-1509 -5221 0
-4989 -5221 0
1509 4989 5221 0
-4981 -5222 0
-4981 -5223 0
-5222 -5223 0
4981 5222 5223 0
-154 -4708 0
-154 -5224 0
-4708 -5224 0
154 4708 5224 0
-1078 -2210 0
-1078 -5225 0
-2210 -5225 0
1078 2210 5225 0
-3460 -3740 0
-3460 -5226 0
-3740 -5226 0
3460 3740 5226 0
-549 -4115 0
-549 -5227 0
-4115 -5227 0
549 4115 5227 0
-3192 -5167 0
-3192 -5228 0
-5167 -5228 0
3192 5167 5228 0
-4576 -5229 0
-4576 -5230 0
-5229 -5230 0
4576 5229 5230 0
-5231 -5232 0
-5231 -5233 0
-5232 -5233 0
5231 5232 5233 0
-5234 -5235 0
-5234 -5236 0
-5235 -5236 0
5234 5235 5236 0
-965 -1486 0
-965 -5237 0
-1486 -5237 0
965 1486 5237 0
-763 -3991 0
-763 -5238 0
-3991 -5238 0
763 3991 5238 0
-3333 -5239 0
-3333 -5240 0
-5239 -5240 0
3333 5239 5240 0
-4015 -5241 0
-4015 -5242 0
-5241 -5242 0
4015 5241 5242 0
-1129 -1390 0
-1129 -5243 0
-1390 -5243 0
1129 1390 5243 0
-3507 -5244 0
-3507 -5245 0
-5244 -5245 0
3507 5244 5245 0
-3417 -5246 0
-3417 -5247 0
-5246 -5247 0
3417 5246 5247 0
-2806 -5248 0
-2806 -5249 0
-5248 -5249 0
2806 5248 5249 0
-3468 -4447 0
-3468 -4924 0
-4447 -4924 0
3468 4447 4924 0
-4838 -5250 0
-4838 -5251 0
-5250 -5251 0
4838 5250 5251 0
-2648 -4953 0
-2648 -5252 0
-4953 -5252 0
2648 4953 5252 0
-3108 -3958 0
-3108 -4352 0
-3958 -4352 0
3108 3958 4352 0
-2385 -2434 0
-2385 -5253 0
-2434 -5253 0
2385 2434 5253 0
-5254 -5255 0
-5254 -5256 0
-5255 -5256 0
5254 5255 5256 0
-1521 -3983 0
-1521 -5257 0
-3983 -5257 0
1521 3983 5257 0
-4534 -5006 0
-4534 -5258 0
-5006 -5258 0
4534 5006 5258 0
-5259 -5260 0
-5259 -5261 0
-5260 -5261 0
5259 5260 5261 0
-5262 -5263 0
-5262 -5264 0
-5263 -5264 0
5262 5263 5264 0
-2964 -4920 0
-2964 -5265 0
-4920 -5265 0
2964 4920 5265 0
-2236 -3966 0
-2236 -5266 0
-3966 -5266 0
2236 3966 5266 0
-5069 -5267 0
-5069 -5268 0
-5267 -5268 0
5069 5267 5268 0
-2120 -3829 0
-2120 -4202 0
-3829 -4202 0
2120 3829 4202 0
-2320 -2993 0
-2320 -3619 0
-2993 -3619 0
2320 2993 3619 0
-3293 -4493 0
-3293 -5269 0
-4493 -5269 0
3293 4493 5269 0
-5270 -5271 0
-5270 -5272 0
-5271 -5272 0
5270 5271 5272 0
-3336 -5273 0
-3336 -5274 0
-5273 -5274 0
3336 5273 5274 0
-1789 -2732 0
-1789 -4334 0
-2732 -4334 0
1789 2732 4334 0
-3326 -5275 0
-3326 -5276 0
-5275 -5276 0
3326 5275 5276 0
-3383 -4538 0
-3383 -5277 0
-4538 -5277 0
3383 4538 5277 0
-2031 -2945 0
-2031 -5278 0
-2945 -5278 0
2031 2945 5278 0
-1741 -4392 0
-1741 -5279 0
-4392 -5279 0
1741 4392 5279 0
-5280 -5281 0
-5280 -5282 0
-5281 -5282 0
5280 5281 5282 0
-2778 -3546 0
-2778 -4571 0
-3546 -4571 0
2778 3546 4571 0
-4296 -5283 0
-4296 -5284 0
-5283 -5284 0
4296 5283 5284 0
-5285 -5286 0
-5285 -5287 0
-5286 -5287 0
5285 5286 5287 0
-5288 -5289 0
-5288 -5290 0
-5289 -5290 0
5288 5289 5290 0
-3645 -5291 0
-3645 -5292 0
-5291 -5292 0
3645 5291 5292 0
-1483 -5293 0
-1483 -5294 0
-5293 -5294 0
1483 5293 5294 0
-5295 -5296 0
-5295 -5297 0
-5296 -5297 0
5295 5296 5297 0
-598 -3055 0
-598 -5298 0
-3055 -5298 0
598 3055 5298 0
-1437 -5299 0
-1437 -5300 0
-5299 -5300 0
1437 5299 5300 0
-4481 -5301 0
-4481 -5302 0
-5301 -5302 0
4481 5301 5302 0
-2459 -5303 0
-2459 -5304 0
-5303 -5304 0
2459 5303 5304 0
-1559 -5305 0
-1559 -5306 0
-5305 -5306 0
1559 5305 5306 0
-2818 -3290 0
-2818 -3973 0
-3290 -3973 0
2818 3290 3973 0
-1049 -3654 0
-1049 -5307 0
-3654 -5307 0
1049 3654 5307 0
-1491 -3722 0
-1491 -5308 0
-3722 -5308 0
1491 3722 5308 0
-731 -3434 0
-731 -4359 0
-3434 -4359 0
731 3434 4359 0
-4046 -5309 0
-4046 -5310 0
-5309 -5310 0
4046 5309 5310 0
-182 -1427 0
-182 -1515 0
-1427 -1515 0
182 1427 1515 0
-900 -4955 0
-900 -5311 0
-4955 -5311 0
900 4955 5311 0
-710 -1628 0
-710 -2842 0
-1628 -2842 0
710 1628 2842 0
-5312 -5313 0
-5312 -5314 0
-5313 -5314 0
5312 5313 5314 0
-863 -2248 0
-863 -2532 0
-2248 -2532 0
863 2248 2532 0
-5315 -5316 0
-5315 -5317 0
-5316 -5317 0
5315 5316 5317 0
-1346 -5112 0
-1346 -5318 0
-5112 -5318 0
1346 5112 5318 0
-1050 -5119 0
-1050 -5319 0
-5119 -5319 0
1050 5119 5319 0
-5226 -5320 0
-5226 -5321 0
-5320 -5321 0
5226 5320 5321 0
-1767 -2917 0
-1767 -2969 0
-2917 -2969 0
1767 2917 2969 0
-5322 -5323 0
-5322 -5324 0
-5323 -5324 0
5322 5323 5324 0
-5325 -5326 0
-5325 -5327 0
-5326 -5327 0
5325 5326 5327 0
-1154 -5328 0
-1154 -5329 0
-5328 -5329 0
1154 5328 5329 0
-5330 -5331 0
-5330 -5332 0
-5331 -5332 0
5330 5331 5332 0
-3094 -4061 0
-3094 -5097 0
-4061 -5097 0
3094 4061 5097 0
-1121 -5333 0
-1121 -5334 0
-5333 -5334 0
1121 5333 5334 0
-2245 -5335 0
-2245 -5336 0
-5335 -5336 0
2245 5335 5336 0
-3579 -5337 0
-3579 -5338 0
-5337 -5338 0
3579 5337 5338 0
-3727 -5231 0
-3727 -5339 0
-5231 -5339 0
3727 5231 5339 0
-3741 -5340 0
-3741 -5341 0
-5340 -5341 0
3741 5340 5341 0
-649 -5342 0
-649 -5343 0
-5342 -5343 0
649 5342 5343 0
-5344 -5345 0
-5344 -5346 0
-5345 -5346 0
5344 5345 5346 0
-2939 -5347 0
-2939 -5348 0
-5347 -5348 0
2939 5347 5348 0
-5349 -5350 0
-5349 -5351 0
-5350 -5351 0
5349 5350 5351 0
-225 -2646 0
-225 -5352 0
-2646 -5352 0
225 2646 5352 0
-2509 -3224 0
-2509 -5353 0
-3224 -5353 0
2509 3224 5353 0
-5039 -5354 0
-5039 -5355 0
-5354 -5355 0
5039 5354 5355 0
-3949 -3988 0
-3949 -5356 0
-3988 -5356 0
3949 3988 5356 0
-5357 -5358 0
-5357 -5359 0
-5358 -5359 0
5357 5358 5359 0
-3609 -5360 0
-3609 -5361 0
-5360 -5361 0
3609 5360 5361 0
-3503 -5362 0
-3503 -5363 0
-5362 -5363 0
3503 5362 5363 0
-5364 -5365 0
-5364 -5366 0
-5365 -5366 0
5364 5365 5366 0
-2200 -5325 0
-2200 -5367 0
-5325 -5367 0
2200 5325 5367 0
-350 -5368 0
-350 -5369 0
-5368 -5369 0
350 5368 5369 0
-2351 -5370 0
-2351 -5371 0
-5370 -5371 0
2351 5370 5371 0
-5372 -5373 0
-5372 -5374 0
-5373 -5374 0
5372 5373 5374 0
-1497 -5375 0
-1497 -5376 0
-5375 -5376 0
1497 5375 5376 0
-4062 -4623 0
-4062 -5377 0
-4623 -5377 0
4062 4623 5377 0
-315 -2023 0
-315 -5378 0
-2023 -5378 0
315 2023 5378 0
-835 -5379 0
-835 -5380 0
-5379 -5380 0
835 5379 5380 0
-5092 -5381 0
-5092 -5382 0
-5381 -5382 0
5092 5381 5382 0
-5383 -5384 0
-5383 -5385 0
-5384 -5385 0
5383 5384 5385 0
-323 -5386 0
-323 -5387 0
-5386 -5387 0
323 5386 5387 0
-2875 -5388 0
-2875 -5389 0
-5388 -5389 0
2875 5388 5389 0
-4135 -5390 0
-4135 -5391 0
-5390 -5391 0
4135 5390 5391 0
-5392 -5393 0
-5392 -5394 0
-5393 -5394 0
5392 5393 5394 0
-1685 -5303 0
-1685 -5395 0
-5303 -5395 0
1685 5303 5395 0
-5396 -5397 0
-5396 -5398 0
-5397 -5398 0
5396 5397 5398 0
-1518 -5399 0
-1518 -5400 0
-5399 -5400 0
1518 5399 5400 0
-536 -5379 0
-536 -5401 0
-5379 -5401 0
536 5379 5401 0
-2447 -3526 0
-2447 -5402 0
-3526 -5402 0
2447 3526 5402 0
-4044 -5403 0
-4044 -5404 0
-5403 -5404 0
4044 5403 5404 0
-5405 -5406 0
-5405 -5407 0
-5406 -5407 0
5405 5406 5407 0
-5076 -5408 0
-5076 -5409 0
-5408 -5409 0
5076 5408 5409 0
-3584 -5410 0
-3584 -5411 0
-5410 -5411 0
3584 5410 5411 0
-2512 -4156 0
-2512 -5412 0
-4156 -5412 0
2512 4156 5412 0
-1295 -2550 0
-1295 -3886 0
-2550 -3886 0
1295 2550 3886 0
-5413 -5414 0
-5413 -5415 0
-5414 -5415 0
5413 5414 5415 0
-112 -5044 0
-112 -5174 0
-5044 -5174 0
112 5044 5174 0
-829 -4313 0
-829 -5416 0
-4313 -5416 0
829 4313 5416 0
-2306 -5417 0
-2306 -5418 0
-5417 -5418 0
2306 5417 5418 0
-30 -4316 0
-30 -5419 0
-4316 -5419 0
30 4316 5419 0
-1504 -3132 0
-1504 -5420 0
-3132 -5420 0
1504 3132 5420 0
-196 -5421 0
-196 -5422 0
-5421 -5422 0
196 5421 5422 0
-5423 -5424 0
-5423 -5425 0
-5424 -5425 0
5423 5424 5425 0
-1696 -2051 0
-1696 -3749 0
-2051 -3749 0
1696 2051 3749 0
-1191 -5426 0
-1191 -5427 0
-5426 -5427 0
1191 5426 5427 0
-3449 -5428 0
-3449 -5429 0
-5428 -5429 0
3449 5428 5429 0
-4223 -4624 0
-4223 -5430 0
-4624 -5430 0
4223 4624 5430 0
-5431 -5432 0
-5431 -5433 0
-5432 -5433 0
5431 5432 5433 0
-220 -3060 0
-220 -5434 0
-3060 -5434 0
220 3060 5434 0
-2098 -5435 0
-2098 -5436 0
-5435 -5436 0
2098 5435 5436 0
-270 -1418 0
-270 -1854 0
-1418 -1854 0
270 1418 1854 0
-3075 -5437 0
-3075 -5438 0
-5437 -5438 0
3075 5437 5438 0
-1702 -3998 0
-1702 -5439 0
-3998 -5439 0
1702 3998 5439 0
-2004 -5229 0
-2004 -5440 0
-5229 -5440 0
2004 5229 5440 0
-627 -1151 0
-627 -5441 0
-1151 -5441 0
627 1151 5441 0
-1703 -5442 0
-1703 -5443 0
-5442 -5443 0
1703 5442 5443 0
-3956 -5444 0
-3956 -5445 0
-5444 -5445 0
3956 5444 5445 0
-3742 -5446 0
-3742 -5447 0
-5446 -5447 0
3742 5446 5447 0
-568 -2610 0
-568 -2977 0
-2610 -2977 0
568 2610 2977 0
-580 -5377 0
-580 -5448 0
-5377 -5448 0
580 5377 5448 0
-160 -5449 0
-160 -5450 0
-5449 -5450 0
160 5449 5450 0
-2554 -5451 0
-2554 -5452 0
-5451 -5452 0
2554 5451 5452 0
-5453 -5454 0
-5453 -5455 0
-5454 -5455 0
5453 5454 5455 0
-4267 -5456 0
-4267 -5457 0
-5456 -5457 0
4267 5456 5457 0
-4499 -4611 0
-4499 -5458 0
-4611 -5458 0
4499 4611 5458 0
-2279 -5175 0
-2279 -5459 0
-5175 -5459 0
2279 5175 5459 0
-5460 -5461 0
-5460 -5462 0
-5461 -5462 0
5460 5461 5462 0
-1012 -5364 0
-1012 -5463 0
-5364 -5463 0
1012 5364 5463 0
-204 -5464 0
-204 -5465 0
-5464 -5465 0
204 5464 5465 0
-2425 -5215 0
-2425 -5466 0
-5215 -5466 0
2425 5215 5466 0
-2936 -3756 0
-2936 -3813 0
-3756 -3813 0
2936 3756 3813 0
-5467 -5468 0
-5467 -5469 0
-5468 -5469 0
5467 5468 5469 0
-5470 -5471 0
-5470 -5472 0
-5471 -5472 0
5470 5471 5472 0
-439 -3850 0
-439 -5420 0
-3850 -5420 0
439 3850 5420 0
-3841 -4990 0
-3841 -5473 0
-4990 -5473 0
3841 4990 5473 0
-4143 -5474 0
-4143 -5475 0
-5474 -5475 0
4143 5474 5475 0
-3784 -5476 0
-3784 -5477 0
-5476 -5477 0
3784 5476 5477 0
-1131 -2788 0
-1131 -5383 0
-2788 -5383 0
1131 2788 5383 0
-14 -4532 0
-14 -5478 0
-4532 -5478 0
14 4532 5478 0
-1247 -5479 0
-1247 -5480 0
-5479 -5480 0
1247 5479 5480 0
-4377 -5481 0
-4377 -5482 0
-5481 -5482 0
4377 5481 5482 0
-2335 -3653 0
-2335 -5483 0
-3653 -5483 0
2335 3653 5483 0
-2664 -5484 0
-2664 -5485 0
-5484 -5485 0
2664 5484 5485 0
-2187 -5476 0
-2187 -5486 0
-5476 -5486 0
2187 5476 5486 0
-3058 -3976 0
-3058 -5487 0
-3976 -5487 0
3058 3976 5487 0
-1054 -3073 0
-1054 -5488 0
-3073 -5488 0
1054 3073 5488 0
-1969 -5489 0
-1969 -5490 0
-5489 -5490 0
1969 5489 5490 0
-1943 -5491 0
-1943 -5492 0
-5491 -5492 0
1943 5491 5492 0
-3010 -4634 0
-3010 -5493 0
-4634 -5493 0
3010 4634 5493 0
-2827 -4831 0
-2827 -5494 0
-4831 -5494 0
2827 4831 5494 0
-3261 -5495 0
-3261 -5496 0
-5495 -5496 0
3261 5495 5496 0
-3394 -5497 0
-3394 -5498 0
-5497 -5498 0
3394 5497 5498 0
-1044 -3302 0
-1044 -5499 0
-3302 -5499 0
1044 3302 5499 0
-5500 -5501 0
-5500 -5502 0
-5501 -5502 0
5500 5501 5502 0
-822 -5503 0
-822 -5504 0
-5503 -5504 0
822 5503 5504 0
-1286 -2708 0
-1286 -5505 0
-2708 -5505 0
1286 2708 5505 0
-1750 -3665 0
-1750 -5506 0
-3665 -5506 0
1750 3665 5506 0
-4607 -5421 0
-4607 -5507 0
-5421 -5507 0
4607 5421 5507 0
-1945 -5145 0
-1945 -5508 0
-5145 -5508 0
1945 5145 5508 0
-2309 -4877 0
-2309 -5509 0
-4877 -5509 0
2309 4877 5509 0
-5510 -5511 0
-5510 -5512 0
-5511 -5512 0
5510 5511 5512 0
-2260 -3359 0
-2260 -5513 0
-3359 -5513 0
2260 3359 5513 0
-4350 -5514 0
-4350 -5515 0
-5514 -5515 0
4350 5514 5515 0
-1890 -4024 0
-1890 -5516 0
-4024 -5516 0
1890 4024 5516 0
-5517 -5518 0
-5517 -5519 0
-5518 -5519 0
5517 5518 5519 0
-612 -5460 0
-612 -5520 0
-5460 -5520 0
612 5460 5520 0
-3266 -5280 0
-3266 -5521 0
-5280 -5521 0
3266 5280 5521 0
-3858 -3992 0
-3858 -5522 0
-3992 -5522 0
3858 3992 5522 0
-2239 -3769 0
-2239 -3783 0
-3769 -3783 0
2239 3769 3783 0
-5523 -5524 0
-5523 -5525 0
-5524 -5525 0
5523 5524 5525 0
-1658 -2168 0
-1658 -4152 0
-2168 -4152 0
1658 2168 4152 0
-903 -2093 0
-903 -5526 0
-2093 -5526 0
903 2093 5526 0
-3019 -5527 0
-3019 -5528 0
-5527 -5528 0
3019 5527 5528 0
-1923 -2710 0
-1923 -5529 0
-2710 -5529 0
1923 2710 5529 0
-680 -4439 0
-680 -5530 0
-4439 -5530 0
680 4439 5530 0
-3896 -5237 0
-3896 -5531 0
-5237 -5531 0
3896 5237 5531 0
-599 -5532 0
-599 -5533 0
-5532 -5533 0
599 5532 5533 0
-1240 -5210 0
-1240 -5534 0
-5210 -5534 0
1240 5210 5534 0
-960 -5535 0
-960 -5536 0
-5535 -5536 0
960 5535 5536 0
-5405 -5537 0
-5405 -5538 0
-5537 -5538 0
5405 5537 5538 0
-3731 -5539 0
-3731 -5540 0
-5539 -5540 0
3731 5539 5540 0
-3188 -3564 0
-3188 -5146 0
-3564 -5146 0
3188 3564 5146 0
-1210 -3120 0
-1210 -5541 0
-3120 -5541 0
1210 3120 5541 0
-5542 -5543 0
-5542 -5544 0
-5543 -5544 0
5542 5543 5544 0
-3070 -5545 0
-3070 -5546 0
-5545 -5546 0
3070 5545 5546 0
-2823 -5311 0
-2823 -5547 0
-5311 -5547 0
2823 5311 5547 0
-134 -665 0
-134 -3870 0
-665 -3870 0
134 665 3870 0
-135 -5246 0
-135 -5548 0
-5246 -5548 0
135 5246 5548 0
-2502 -3757 0
-2502 -5549 0
-3757 -5549 0
2502 3757 5549 0
-3303 -5550 0
-3303 -5551 0
-5550 -5551 0
3303 5550 5551 0
-5552 -5553 0
-5552 -5554 0
-5553 -5554 0
5552 5553 5554 0
-5555 -5556 0
-5555 -5557 0
-5556 -5557 0
5555 5556 5557 0
-5558 -5559 0
-5558 -5560 0
-5559 -5560 0
5558 5559 5560 0
-681 -4848 0
-681 -5561 0
-4848 -5561 0
681 4848 5561 0
-1973 -4973 0
-1973 -5562 0
-4973 -5562 0
1973 4973 5562 0
-1188 -1655 0
-1188 -5563 0
-1655 -5563 0
1188 1655 5563 0
-533 -5564 0
-533 -5565 0
-5564 -5565 0
533 5564 5565 0
-1560 -2197 0
-1560 -5566 0
-2197 -5566 0
1560 2197 5566 0
-4489 -5567 0
-4489 -5568 0
-5567 -5568 0
4489 5567 5568 0
-4401 -5569 0
-4401 -5570 0
-5569 -5570 0
4401 5569 5570 0
-1528 -5571 0
-1528 -5572 0
-5571 -5572 0
1528 5571 5572 0
-5573 -5574 0
-5573 -5575 0
-5574 -5575 0
5573 5574 5575 0
-4304 -5459 0
-4304 -5470 0
-5459 -5470 0
4304 5459 5470 0
-4340 -5576 0
-4340 -5577 0
-5576 -5577 0
4340 5576 5577 0
-5199 -5578 0
-5199 -5579 0
-5578 -5579 0
5199 5578 5579 0
-5580 -5581 0
-5580 -5582 0
-5581 -5582 0
5580 5581 5582 0
-3309 -5583 0
-3309 -5584 0
-5583 -5584 0
3309 5583 5584 0
-5585 -5586 0
-5585 -5587 0
-5586 -5587 0
5585 5586 5587 0
-5588 -5589 0
-5588 -5590 0
-5589 -5590 0
5588 5589 5590 0
-130 -4743 0
-130 -5591 0
-4743 -5591 0
130 4743 5591 0
-1013 -2476 0
-1013 -2601 0
-2476 -2601 0
1013 2476 2601 0
-5396 -5481 0
-5396 -5592 0
-5481 -5592 0
5396 5481 5592 0
-4254 -5593 0
-4254 -5594 0
-5593 -5594 0
4254 5593 5594 0
-1533 -5595 0
-1533 -5596 0
-5595 -5596 0
1533 5595 5596 0
-5597 -5598 0
-5597 -5599 0
-5598 -5599 0
5597 5598 5599 0
-5600 -5601 0
-5600 -5602 0
-5601 -5602 0
5600 5601 5602 0
-4695 -5087 0
-4695 -5603 0
-5087 -5603 0
4695 5087 5603 0
-1492 -5604 0
-1492 -5605 0
-5604 -5605 0
1492 5604 5605 0
-5606 -5607 0
-5606 -5608 0
-5607 -5608 0
5606 5607 5608 0
-1157 -5464 0
-1157 -5609 0
-5464 -5609 0
1157 5464 5609 0
-1940 -2190 0
-1940 -5503 0
-2190 -5503 0
1940 2190 5503 0
-3376 -4484 0
-3376 -5610 0
-4484 -5610 0
3376 4484 5610 0
-5611 -5612 0
-5611 -5613 0
-5612 -5613 0
5611 5612 5613 0
-764 -2846 0
-764 -5614 0
-2846 -5614 0
764 2846 5614 0
-3140 -3907 0
-3140 -3989 0
-3907 -3989 0
3140 3907 3989 0
-2008 -5615 0
-2008 -5616 0
-5615 -5616 0
2008 5615 5616 0
-2046 -5203 0
-2046 -5617 0
-5203 -5617 0
2046 5203 5617 0
-1253 -5618 0
-1253 -5619 0
-5618 -5619 0
1253 5618 5619 0
-5620 -5621 0
-5620 -5622 0
-5621 -5622 0
5620 5621 5622 0
-699 -4026 0
-699 -5623 0
-4026 -5623 0
699 4026 5623 0
-3892 -4881 0
-3892 -5624 0
-4881 -5624 0
3892 4881 5624 0
-973 -5625 0
-973 -5626 0
-5625 -5626 0
973 5625 5626 0
-1772 -5319 0
-1772 -5627 0
-5319 -5627 0
1772 5319 5627 0
-3919 -5628 0
-3919 -5629 0
-5628 -5629 0
3919 5628 5629 0
-4341 -4872 0
-4341 -5630 0
-4872 -5630 0
4341 4872 5630 0
-1498 -3504 0
-1498 -5631 0
-3504 -5631 0
1498 3504 5631 0
-312 -2032 0
-312 -5451 0
-2032 -5451 0
312 2032 5451 0
-717 -2142 0
-717 -5632 0
-2142 -5632 0
717 2142 5632 0
-880 -2784 0
-880 -5633 0
-2784 -5633 0
880 2784 5633 0
-2852 -4144 0
-2852 -5634 0
-4144 -5634 0
2852 4144 5634 0
-5426 -5635 0
-5426 -5636 0
-5635 -5636 0
5426 5635 5636 0
-1069 -3004 0
-1069 -5637 0
-3004 -5637 0
1069 3004 5637 0
-2100 -4766 0
-2100 -5638 0
-4766 -5638 0
2100 4766 5638 0
-2990 -4354 0
-2990 -4815 0
-4354 -4815 0
2990 4354 4815 0
-96 -5639 0
-96 -5640 0
-5639 -5640 0
96 5639 5640 0
-3569 -5641 0
-3569 -5642 0
-5641 -5642 0
3569 5641 5642 0
-192 -2078 0
-192 -5285 0
-2078 -5285 0
192 2078 5285 0
-3389 -5643 0
-3389 -5644 0
-5643 -5644 0
3389 5643 5644 0
-1912 -2943 0
-1912 -5645 0
-2943 -5645 0
1912 2943 5645 0
-943 -1353 0
-943 -5646 0
-1353 -5646 0
943 1353 5646 0
-2744 -4912 0
-2744 -5647 0
-4912 -5647 0
2744 4912 5647 0
-188 -2429 0
-188 -5648 0
-2429 -5648 0
188 2429 5648 0
-3142 -3227 0
-3142 -5649 0
-3227 -5649 0
3142 3227 5649 0
-3514 -5650 0
-3514 -5651 0
-5650 -5651 0
3514 5650 5651 0
-830 -5555 0
-830 -5652 0
-5555 -5652 0
830 5555 5652 0
-904 -4810 0
-904 -5653 0
-4810 -5653 0
904 4810 5653 0
-1561 -5654 0
-1561 -5655 0
-5654 -5655 0
1561 5654 5655 0
-2165 -2650 0
-2165 -5656 0
-2650 -5656 0
2165 2650 5656 0
-2557 -3283 0
-2557 -3912 0
-3283 -3912 0
2557 3283 3912 0
-5657 -5658 0
-5657 -5659 0
-5658 -5659 0
5657 5658 5659 0
-381 -5660 0
-381 -5661 0
-5660 -5661 0
381 5660 5661 0
-4501 -5662 0
-4501 -5663 0
-5662 -5663 0
4501 5662 5663 0
-3693 -5664 0
-3693 -5665 0
-5664 -5665 0
3693 5664 5665 0
-1114 -5666 0
-1114 -5667 0
-5666 -5667 0
1114 5666 5667 0
-3294 -4728 0
-3294 -5668 0
-4728 -5668 0
3294 4728 5668 0
-4706 -5423 0
-4706 -5669 0
-5423 -5669 0
4706 5423 5669 0
-5670 -5671 0
-5670 -5672 0
-5671 -5672 0
5670 5671 5672 0
-778 -3862 0
-778 -5673 0
-3862 -5673 0
778 3862 5673 0
-3987 -5674 0
-3987 -5675 0
-5674 -5675 0
3987 5674 5675 0
-5676 -5677 0
-5676 -5678 0
-5677 -5678 0
5676 5677 5678 0
-5679 -5680 0
-5679 -5681 0
-5680 -5681 0
5679 5680 5681 0
-4117 -4479 0
-4117 -5682 0
-4479 -5682 0
4117 4479 5682 0
-1158 -5041 0
-1158 -5683 0
-5041 -5683 0
1158 5041 5683 0
-5684 -5685 0
-5684 -5686 0
-5685 -5686 0
5684 5685 5686 0
-2083 -5687 0
-2083 -5688 0
-5687 -5688 0
2083 5687 5688 0
-1864 -2417 0
-1864 -2638 0
-2417 -2638 0
1864 2417 2638 0
-783 -2364 0
-783 -5689 0
-2364 -5689 0
783 2364 5689 0
-1132 -2811 0
-1132 -5690 0
-2811 -5690 0
1132 2811 5690 0
-114 -5691 0
-114 -5692 0
-5691 -5692 0
114 5691 5692 0
-289 -2154 0
-289 -4680 0
-2154 -4680 0
289 2154 4680 0
-5281 -5693 0
-5281 -5694 0
-5693 -5694 0
5281 5693 5694 0
-4345 -5695 0
-4345 -5696 0
-5695 -5696 0
4345 5695 5696 0
-827 -1771 0
-827 -5697 0
-1771 -5697 0
827 1771 5697 0
-5698 -5699 0
-5698 -5700 0
-5699 -5700 0
5698 5699 5700 0
-3451 -5701 0
-3451 -5702 0
-5701 -5702 0
3451 5701 5702 0
-5703 -5704 0
-5703 -5705 0
-5704 -5705 0
5703 5704 5705 0
-3229 -5706 0
-3229 -5707 0
-5706 -5707 0
3229 5706 5707 0
-3244 -5232 0
-3244 -5708 0
-5232 -5708 0
3244 5232 5708 0
-2762 -3489 0
-2762 -5534 0
-3489 -5534 0
2762 3489 5534 0
-5282 -5709 0
-5282 -5710 0
-5709 -5710 0
5282 5709 5710 0
-1249 -5711 0
-1249 -5712 0
-5711 -5712 0
1249 5711 5712 0
-1776 -3144 0
-1776 -4864 0
-3144 -4864 0
1776 3144 4864 0
-5195 -5713 0
-5195 -5714 0
-5713 -5714 0
5195 5713 5714 0
-2219 -5715 0
-2219 -5716 0
-5715 -5716 0
2219 5715 5716 0
-5335 -5717 0
-5335 -5718 0
-5717 -5718 0
5335 5717 5718 0
-2855 -3148 0
-2855 -5620 0
-3148 -5620 0
2855 3148 5620 0
-324 -5719 0
-324 -5720 0
-5719 -5720 0
324 5719 5720 0
-2075 -5721 0
-2075 -5722 0
-5721 -5722 0
2075 5721 5722 0
-446 -5638 0
-446 -5723 0
-5638 -5723 0
446 5638 5723 0
-4035 -5639 0
-4035 -5724 0
-5639 -5724 0
4035 5639 5724 0
-2919 -5725 0
-2919 -5726 0
-5725 -5726 0
2919 5725 5726 0
-815 -1082 0
-815 -5004 0
-1082 -5004 0
815 1082 5004 0
-3384 -4967 0
-3384 -5727 0
-4967 -5727 0
3384 4967 5727 0
-4882 -5728 0
-4882 -5729 0
-5728 -5729 0
4882 5728 5729 0
-5100 -5312 0
-5100 -5730 0
-5312 -5730 0
5100 5312 5730 0
-3777 -5731 0
-3777 -5732 0
-5731 -5732 0
3777 5731 5732 0
-512 -3906 0
-512 -5733 0
-3906 -5733 0
512 3906 5733 0
-5734 -5735 0
-5734 -5736 0
-5735 -5736 0
5734 5735 5736 0
-610 -4071 0
-610 -4801 0
-4071 -4801 0
610 4071 4801 0
-1283 -4714 0
-1283 -5737 0
-4714 -5737 0
1283 4714 5737 0
-1400 -5738 0
-1400 -5739 0
-5738 -5739 0
1400 5738 5739 0
-1138 -2151 0
-1138 -5740 0
-2151 -5740 0
1138 2151 5740 0
-3830 -4829 0
-3830 -5741 0
-4829 -5741 0
3830 4829 5741 0
-5071 -5742 0
-5071 -5743 0
-5742 -5743 0
5071 5742 5743 0
-5744 -5745 0
-5744 -5746 0
-5745 -5746 0
5744 5745 5746 0
-5747 -5748 0
-5747 -5749 0
-5748 -5749 0
5747 5748 5749 0
-365 -5750 0
-365 -5751 0
-5750 -5751 0
365 5750 5751 0
-5752 -5753 0
-5752 -5754 0
-5753 -5754 0
5752 5753 5754 0
-2687 -5755 0
-2687 -5756 0
-5755 -5756 0
2687 5755 5756 0
-2571 -5757 0
-2571 -5758 0
-5757 -5758 0
2571 5757 5758 0
-608 -5759 0
-608 -5760 0
-5759 -5760 0
608 5759 5760 0
-5761 -5762 0
-5761 -5763 0
-5762 -5763 0
5761 5762 5763 0
-5764 -5765 0
-5764 -5766 0
-5765 -5766 0
5764 5765 5766 0
-3037 -3377 0
-3037 -4432 0
-3377 -4432 0
3037 3377 4432 0
-4112 -5767 0
-4112 -5768 0
-5767 -5768 0
4112 5767 5768 0
-24 -2482 0
-24 -4913 0
-2482 -4913 0
24 2482 4913 0
-1371 -5769 0
-1371 -5770 0
-5769 -5770 0
1371 5769 5770 0
-5771 -5772 0
-5771 -5773 0
-5772 -5773 0
5771 5772 5773 0
-5774 -5775 0
-5774 -5776 0
-5775 -5776 0
5774 5775 5776 0
-5777 -5778 0
-5777 -5779 0
-5778 -5779 0
5777 5778 5779 0
-2552 -5322 0
-2552 -5780 0
-5322 -5780 0
2552 5322 5780 0
-4753 -5781 0
-4753 -5782 0
-5781 -5782 0
4753 5781 5782 0
-5270 -5783 0
-5270 -5784 0
-5783 -5784 0
5270 5783 5784 0
-5785 -5786 0
-5785 -5787 0
-5786 -5787 0
5785 5786 5787 0
-1243 -3298 0
-1243 -3420 0
-3298 -3420 0
1243 3298 3420 0
-3357 -5788 0
-3357 -5789 0
-5788 -5789 0
3357 5788 5789 0
-1834 -3001 0
-1834 -5790 0
-3001 -5790 0
1834 3001 5790 0
-240 -3490 0
-240 -5791 0
-3490 -5791 0
240 3490 5791 0
-368 -5792 0
-368 -5793 0
-5792 -5793 0
368 5792 5793 0
-1708 -4319 0
-1708 -5794 0
-4319 -5794 0
1708 4319 5794 0
-5795 -5796 0
-5795 -5797 0
-5796 -5797 0
5795 5796 5797 0
-2356 -4394 0
-2356 -5798 0
-4394 -5798 0
2356 4394 5798 0
-1747 -5799 0
-1747 -5800 0
-5799 -5800 0
1747 5799 5800 0
-2161 -3848 0
-2161 -5801 0
-3848 -5801 0
2161 3848 5801 0
-5802 -5803 0
-5802 -5804 0
-5803 -5804 0
5802 5803 5804 0
-4057 -5805 0
-4057 -5806 0
-5805 -5806 0
4057 5805 5806 0
-5807 -5808 0
-5807 -5809 0
-5808 -5809 0
5807 5808 5809 0
-2185 -5810 0
-2185 -5811 0
-5810 -5811 0
2185 5810 5811 0
-3941 -4103 0
-3941 -5812 0
-4103 -5812 0
3941 4103 5812 0
-2396 -5755 0
-2396 -5813 0
-5755 -5813 0
2396 5755 5813 0
-5814 -5815 0
-5814 -5816 0
-5815 -5816 0
5814 5815 5816 0
-4433 -4852 0
-4433 -5817 0
-4852 -5817 0
4433 4852 5817 0
-341 -5818 0
-341 -5819 0
-5818 -5819 0
341 5818 5819 0
-2430 -4587 0
-2430 -5820 0
-4587 -5820 0
2430 4587 5820 0
-3541 -4692 0
-3541 -5821 0
-4692 -5821 0
3541 4692 5821 0
-1524 -4421 0
-1524 -5121 0
-4421 -5121 0
1524 4421 5121 0
-559 -5822 0
-559 -5823 0
-5822 -5823 0
559 5822 5823 0
-4693 -5824 0
-4693 -5825 0
-5824 -5825 0
4693 5824 5825 0
-1562 -1868 0
-1562 -4888 0
-1868 -4888 0
1562 1868 4888 0
-2632 -5267 0
-2632 -5826 0
-5267 -5826 0
2632 5267 5826 0
-4378 -5827 0
-4378 -5828 0
-5827 -5828 0
4378 5827 5828 0
-2299 -5829 0
-2299 -5830 0
-5829 -5830 0
2299 5829 5830 0
-4718 -5831 0
-4718 -5832 0
-5831 -5832 0
4718 5831 5832 0
-5131 -5623 0
-5131 -5833 0
-5623 -5833 0
5131 5623 5833 0
-4414 -4635 0
-4414 -5834 0
-4635 -5834 0
4414 4635 5834 0
-244 -5835 0
-244 -5836 0
-5835 -5836 0
244 5835 5836 0
-2562 -3237 0
-2562 -5837 0
-3237 -5837 0
2562 3237 5837 0
-1761 -5838 0
-1761 -5839 0
-5838 -5839 0
1761 5838 5839 0
-5840 -5841 0
-5840 -5842 0
-5841 -5842 0
5840 5841 5842 0
-3600 -3804 0
-3600 -5843 0
-3804 -5843 0
3600 3804 5843 0
-5548 -5844 0
-5548 -5845 0
-5844 -5845 0
5548 5844 5845 0
-351 -5846 0
-351 -5847 0
-5846 -5847 0
351 5846 5847 0
-5419 -5848 0
-5419 -5849 0
-5848 -5849 0
5419 5848 5849 0
-4088 -5850 0
-4088 -5851 0
-5850 -5851 0
4088 5850 5851 0
-5505 -5852 0
-5505 -5853 0
-5852 -5853 0
5505 5852 5853 0
-4212 -5344 0
-4212 -5854 0
-5344 -5854 0
4212 5344 5854 0
-2188 -2535 0
-2188 -3348 0
-2535 -3348 0
2188 2535 3348 0
-5635 -5670 0
-5635 -5855 0
-5670 -5855 0
5635 5670 5855 0
-2812 -3869 0
-2812 -5856 0
-3869 -5856 0
2812 3869 5856 0
-4491 -5005 0
-4491 -5857 0
-5005 -5857 0
4491 5005 5857 0
-3095 -5858 0
-3095 -5859 0
-5858 -5859 0
3095 5858 5859 0
-1609 -5860 0
-1609 -5861 0
-5860 -5861 0
1609 5860 5861 0
-5725 -5862 0
-5725 -5863 0
-5862 -5863 0
5725 5862 5863 0
-5864 -5865 0
-5864 -5866 0
-5865 -5866 0
5864 5865 5866 0
-94 -1466 0
-94 -2785 0
-1466 -2785 0
94 1466 2785 0
-5706 -5867 0
-5706 -5868 0
-5867 -5868 0
5706 5867 5868 0
-5869 -5870 0
-5869 -5871 0
-5870 -5871 0
5869 5870 5871 0
-3079 -5484 0
-3079 -5872 0
-5484 -5872 0
3079 5484 5872 0
-3483 -3612 0
-3483 -4603 0
-3612 -4603 0
3483 3612 4603 0
-4158 -5873 0
-4158 -5874 0
-5873 -5874 0
4158 5873 5874 0
-322 -5547 0
-322 -5875 0
-5547 -5875 0
322 5547 5875 0
-508 -5876 0
-508 -5877 0
-5876 -5877 0
508 5876 5877 0
-4209 -5878 0
-4209 -5879 0
-5878 -5879 0
4209 5878 5879 0
-3614 -5446 0
-3614 -5880 0
-5446 -5880 0
3614 5446 5880 0
-1646 -2530 0
-1646 -5881 0
-2530 -5881 0
1646 2530 5881 0
-2080 -5279 0
-2080 -5882 0
-5279 -5882 0
2080 5279 5882 0
-5883 -5884 0
-5883 -5885 0
-5884 -5885 0
5883 5884 5885 0
-238 -3647 0
-238 -5886 0
-3647 -5886 0
238 3647 5886 0
-5664 -5887 0
-5664 -5888 0
-5887 -5888 0
5664 5887 5888 0
-4131 -5889 0
-4131 -5890 0
-5889 -5890 0
4131 5889 5890 0
-3221 -5891 0
-3221 -5892 0
-5891 -5892 0
3221 5891 5892 0
-1753 -3458 0
-1753 -5893 0
-3458 -5893 0
1753 3458 5893 0
-5894 -5895 0
-5894 -5896 0
-5895 -5896 0
5894 5895 5896 0
-2480 -5897 0
-2480 -5898 0
-5897 -5898 0
2480 5897 5898 0
-5899 -5900 0
-5899 -5901 0
-5900 -5901 0
5899 5900 5901 0
-1544 -5902 0
-1544 -5903 0
-5902 -5903 0
1544 5902 5903 0
-3537 -5461 0
-3537 -5904 0
-5461 -5904 0
3537 5461 5904 0
-2287 -5905 0
-2287 -5906 0
-5905 -5906 0
2287 5905 5906 0
-920 -2947 0
-920 -3369 0
-2947 -3369 0
920 2947 3369 0
-2873 -4564 0
-2873 -5894 0
-4564 -5894 0
2873 4564 5894 0
-3594 -3668 0
-3594 -5907 0
-3668 -5907 0
3594 3668 5907 0
-5708 -5908 0
-5708 -5909 0
-5908 -5909 0
5708 5908 5909 0
-5910 -5911 0
-5910 -5912 0
-5911 -5912 0
5910 5911 5912 0
-1343 -5913 0
-1343 -5914 0
-5913 -5914 0
1343 5913 5914 0
-426 -3860 0
-426 -4975 0
-3860 -4975 0
426 3860 4975 0
-1338 -4107 0
-1338 -5915 0
-4107 -5915 0
1338 4107 5915 0
-409 -2354 0
-409 -5916 0
-2354 -5916 0
409 2354 5916 0
-1631 -2586 0
-1631 -3015 0
-2586 -3015 0
1631 2586 3015 0
-2130 -4240 0
-2130 -5917 0
-4240 -5917 0
2130 4240 5917 0
-2136 -3154 0
-2136 -3669 0
-3154 -3669 0
2136 3154 3669 0
-231 -1915 0
-231 -5918 0
-1915 -5918 0
231 1915 5918 0
-1726 -4154 0
-1726 -5370 0
-4154 -5370 0
1726 4154 5370 0
-1886 -4190 0
-1886 -5550 0
-4190 -5550 0
1886 4190 5550 0
-1039 -5919 0
-1039 -5920 0
-5919 -5920 0
1039 5919 5920 0
-2695 -3947 0
-2695 -5921 0
-3947 -5921 0
2695 3947 5921 0
-2613 -4630 0
-2613 -5922 0
-4630 -5922 0
2613 4630 5922 0
-4229 -5923 0
-4229 -5924 0
-5923 -5924 0
4229 5923 5924 0
-5918 -5925 0
-5918 -5926 0
-5925 -5926 0
5918 5925 5926 0
-3818 -4407 0
-3818 -5927 0
-4407 -5927 0
3818 4407 5927 0
-1645 -1715 0
-1645 -5928 0
-1715 -5928 0
1645 1715 5928 0
-1064 -5771 0
-1064 -5929 0
-5771 -5929 0
1064 5771 5929 0
-3845 -4297 0
-3845 -5930 0
-4297 -5930 0
3845 4297 5930 0
-5262 -5931 0
-5262 -5932 0
-5931 -5932 0
5262 5931 5932 0
-4402 -5372 0
-4402 -5933 0
-5372 -5933 0
4402 5372 5933 0
-2344 -5934 0
-2344 -5935 0
-5934 -5935 0
2344 5934 5935 0
-2292 -5774 0
-2292 -5936 0
-5774 -5936 0
2292 5774 5936 0
-5791 -5937 0
-5791 -5938 0
-5937 -5938 0
5791 5937 5938 0
-1215 -5939 0
-1215 -5940 0
-5939 -5940 0
1215 5939 5940 0
-95 -2303 0
-95 -5941 0
-2303 -5941 0
95 2303 5941 0
-1301 -5942 0
-1301 -5943 0
-5942 -5943 0
1301 5942 5943 0
-505 -5122 0
-505 -5944 0
-5122 -5944 0
505 5122 5944 0
-1280 -5945 0
-1280 -5946 0
-5945 -5946 0
1280 5945 5946 0
-5947 -5948 0
-5947 -5949 0
-5948 -5949 0
5947 5948 5949 0
-1850 -2786 0
-1850 -5950 0
-2786 -5950 0
1850 2786 5950 0
-1830 -2794 0
-1830 -5951 0
-2794 -5951 0
1830 2794 5951 0
-4033 -5558 0
-4033 -5952 0
-5558 -5952 0
4033 5558 5952 0
-1972 -5953 0
-1972 -5954 0
-5953 -5954 0
1972 5953 5954 0
-4843 -5955 0
-4843 -5956 0
-5955 -5956 0
4843 5955 5956 0
-456 -4458 0
-456 -5957 0
-4458 -5957 0
456 4458 5957 0
-2633 -5958 0
-2633 -5959 0
-5958 -5959 0
2633 5958 5959 0
-5960 -5961 0
-5960 -5962 0
-5961 -5962 0
5960 5961 5962 0
-5963 -5964 0
-5963 -5965 0
-5964 -5965 0
5963 5964 5965 0
-264 -5139 0
-264 -5966 0
-5139 -5966 0
264 5139 5966 0
-2513 -4204 0
-2513 -5967 0
-4204 -5967 0
2513 4204 5967 0
-2366 -5968 0
-2366 -5969 0
-5968 -5969 0
2366 5968 5969 0
-3814 -5970 0
-3814 -5971 0
-5970 -5971 0
3814 5970 5971 0
-5972 -5973 0
-5972 -5974 0
-5973 -5974 0
5972 5973 5974 0
-5734 -5975 0
-5734 -5976 0
-5975 -5976 0
5734 5975 5976 0
-4591 -5929 0
-4591 -5977 0
-5929 -5977 0
4591 5929 5977 0
-5978 -5979 0
-5978 -5980 0
-5979 -5980 0
5978 5979 5980 0
-3505 -5981 0
-3505 -5982 0
-5981 -5982 0
3505 5981 5982 0
-2715 -4713 0
-2715 -5983 0
-4713 -5983 0
2715 4713 5983 0
-4480 -5984 0
-4480 -5985 0
-5984 -5985 0
4480 5984 5985 0
-3574 -5986 0
-3574 -5987 0
-5986 -5987 0
3574 5986 5987 0
-339 -5988 0
-339 -5989 0
-5988 -5989 0
339 5988 5989 0
-2498 -4169 0
-2498 -5990 0
-4169 -5990 0
2498 4169 5990 0
-1924 -5991 0
-1924 -5992 0
-5991 -5992 0
1924 5991 5992 0
-9 -2524 0
-9 -3469 0
-2524 -3469 0
9 2524 3469 0
-4655 -5993 0
-4655 -5994 0
-5993 -5994 0
4655 5993 5994 0
-1928 -5995 0
-1928 -5996 0
-5995 -5996 0
1928 5995 5996 0
-4517 -5997 0
-4517 -5998 0
-5997 -5998 0
4517 5997 5998 0
-5999 -6000 0
-5999 -6001 0
-6000 -6001 0
5999 6000 6001 0
-1668 -5921 0
-1668 -6002 0
-5921 -6002 0
1668 5921 6002 0
-5151 -6003 0
-5151 -6004 0
-6003 -6004 0
5151 6003 6004 0
-3872 -6005 0
-3872 -6006 0
-6005 -6006 0
3872 6005 6006 0
-294 -2386 0
-294 -2769 0
-2386 -2769 0
294 2386 2769 0
-2531 -6007 0
-2531 -6008 0
-6007 -6008 0
2531 6007 6008 0
-1618 -6009 0
-1618 -6010 0
-6009 -6010 0
1618 6009 6010 0
-342 -2800 0
-342 -6011 0
-2800 -6011 0
342 2800 6011 0
-3931 -5065 0
-3931 -6012 0
-5065 -6012 0
3931 5065 6012 0
-1407 -1500 0
-1407 -4320 0
-1500 -4320 0
1407 1500 4320 0
-6013 -6014 0
-6013 -6015 0
-6014 -6015 0
6013 6014 6015 0
-2745 -5225 0
-2745 -5308 0
-5225 -5308 0
2745 5225 5308 0
-4925 -6016 0
-4925 -6017 0
-6016 -6017 0
4925 6016 6017 0
-1457 -6018 0
-1457 -6019 0
-6018 -6019 0
1457 6018 6019 0
-4355 -5908 0
-4355 -6020 0
-5908 -6020 0
4355 5908 6020 0
-5873 -6021 0
-5873 -6022 0
-6021 -6022 0
5873 6021 6022 0
-747 -1079 0
-747 -6023 0
-1079 -6023 0
747 1079 6023 0
-5062 -6024 0
-5062 -6025 0
-6024 -6025 0
5062 6024 6025 0
-922 -1637 0
-922 -4393 0
-1637 -4393 0
922 1637 4393 0
-5037 -6026 0
-5037 -6027 0
-6026 -6027 0
5037 6026 6027 0
-477 -4512 0
-477 -6028 0
-4512 -6028 0
477 4512 6028 0
-6029 -6030 0
-6029 -6031 0
-6030 -6031 0
6029 6030 6031 0
-4250 -4364 0
-4250 -6032 0
-4364 -6032 0
4250 4364 6032 0
-916 -6033 0
-916 -6034 0
-6033 -6034 0
916 6033 6034 0
-3344 -5814 0
-3344 -6035 0
-5814 -6035 0
3344 5814 6035 0
-4016 -5772 0
-4016 -6036 0
-5772 -6036 0
4016 5772 6036 0
-3175 -6037 0
-3175 -6038 0
-6037 -6038 0
3175 6037 6038 0
-624 -6039 0
-624 -6040 0
-6039 -6040 0
624 6039 6040 0
-4028 -6041 0
-4028 -6042 0
-6041 -6042 0
4028 6041 6042 0
-346 -4657 0
-346 -5148 0
-4657 -5148 0
346 4657 5148 0
-3121 -4449 0
-3121 -6043 0
-4449 -6043 0
3121 4449 6043 0
-1258 -1277 0
-1258 -3433 0
-1277 -3433 0
1258 1277 3433 0
-3143 -5352 0
-3143 -5542 0
-5352 -5542 0
3143 5352 5542 0
-5248 -6044 0
-5248 -6045 0
-6044 -6045 0
5248 6044 6045 0
-784 -1458 0
-784 -6046 0
-1458 -6046 0
784 1458 6046 0
-189 -2503 0
-189 -5527 0
-2503 -5527 0
189 2503 5527 0
-1278 -4802 0
-1278 -6047 0
-4802 -6047 0
1278 4802 6047 0
-808 -6048 0
-808 -6049 0
-6048 -6049 0
808 6048 6049 0
-4573 -6050 0
-4573 -6051 0
-6050 -6051 0
4573 6050 6051 0
-1287 -4099 0
-1287 -6052 0
-4099 -6052 0
1287 4099 6052 0
-5371 -5723 0
-5371 -6053 0
-5723 -6053 0
5371 5723 6053 0
-1332 -4681 0
-1332 -6054 0
-4681 -6054 0
1332 4681 6054 0
-5114 -6055 0
-5114 -6056 0
-6055 -6056 0
5114 6055 6056 0
-1793 -4520 0
-1793 -5917 0
-4520 -5917 0
1793 4520 5917 0
-2639 -5625 0
-2639 -6057 0
-5625 -6057 0
2639 5625 6057 0
-6058 -6059 0
-6058 -6060 0
-6059 -6060 0
6058 6059 6060 0
-1098 -2499 0
-1098 -4595 0
-2499 -4595 0
1098 2499 4595 0
-4720 -4970 0
-4720 -6061 0
-4970 -6061 0
4720 4970 6061 0
-2816 -3557 0
-2816 -6062 0
-3557 -6062 0
2816 3557 6062 0
-2591 -3551 0
-2591 -6063 0
-3551 -6063 0
2591 3551 6063 0
-3355 -4883 0
-3355 -5177 0
-4883 -5177 0
3355 4883 5177 0
-475 -3846 0
-475 -6064 0
-3846 -6064 0
475 3846 6064 0
-1383 -2761 0
-1383 -5413 0
-2761 -5413 0
1383 2761 5413 0
-4249 -6065 0
-4249 -6066 0
-6065 -6066 0
4249 6065 6066 0
-6067 -6068 0
-6067 -6069 0
-6068 -6069 0
6067 6068 6069 0
-1607 -3716 0
-1607 -6070 0
-3716 -6070 0
1607 3716 6070 0
-1366 -5354 0
-1366 -6071 0
-5354 -6071 0
1366 5354 6071 0
-6072 -6073 0
-6072 -6074 0
-6073 -6074 0
6072 6073 6074 0
-6075 -6076 0
-6075 -6077 0
-6076 -6077 0
6075 6076 6077 0
-6078 -6079 0
-6078 -6080 0
-6079 -6080 0
6078 6079 6080 0
-2007 -6081 0
-2007 -6082 0
-6081 -6082 0
2007 6081 6082 0
-222 -6083 0
-222 -6084 0
-6083 -6084 0
222 6083 6084 0
-3167 -6085 0
-3167 -6086 0
-6085 -6086 0
3167 6085 6086 0
-3655 -4545 0
-3655 -5516 0
-4545 -5516 0
3655 4545 5516 0
-3959 -4674 0
-3959 -6087 0
-4674 -6087 0
3959 4674 6087 0
-1315 -5384 0
-1315 -6088 0
-5384 -6088 0
1315 5384 6088 0
-4100 -6089 0
-4100 -6090 0
-6089 -6090 0
4100 6089 6090 0
-6091 -6092 0
-6091 -6093 0
-6092 -6093 0
6091 6092 6093 0
-2005 -2413 0
-2005 -3450 0
-2413 -3450 0
2005 2413 3450 0
-3138 -6094 0
-3138 -6095 0
-6094 -6095 0
3138 6094 6095 0
-5252 -6096 0
-5252 -6097 0
-6096 -6097 0
5252 6096 6097 0
-6098 -6099 0
-6098 -6100 0
-6099 -6100 0
6098 6099 6100 0
-3511 -5627 0
-3511 -6101 0
-5627 -6101 0
3511 5627 6101 0
-2474 -6102 0
-2474 -6103 0
-6102 -6103 0
2474 6102 6103 0
-2856 -2951 0
-2856 -6104 0
-2951 -6104 0
2856 2951 6104 0
-361 -5368 0
-361 -6105 0
-5368 -6105 0
361 5368 6105 0
-1990 -5326 0
-1990 -6106 0
-5326 -6106 0
1990 5326 6106 0
-3477 -3979 0
-3477 -6107 0
-3979 -6107 0
3477 3979 6107 0
-6108 -6109 0
-6108 -6110 0
-6109 -6110 0
6108 6109 6110 0
-4759 -6111 0
-4759 -6112 0
-6111 -6112 0
4759 6111 6112 0
-2367 -3096 0
-2367 -5109 0
-3096 -5109 0
2367 3096 5109 0
-2016 -4388 0
-2016 -6113 0
-4388 -6113 0
2016 4388 6113 0
-3301 -3676 0
-3301 -3771 0
-3676 -3771 0
3301 3676 3771 0
-554 -2362 0
-554 -3876 0
-2362 -3876 0
554 2362 3876 0
-4715 -6114 0
-4715 -6115 0
-6114 -6115 0
4715 6114 6115 0
-2084 -3851 0
-2084 -6116 0
-3851 -6116 0
2084 3851 6116 0
-2867 -6013 0
-2867 -6117 0
-6013 -6117 0
2867 6013 6117 0
-1941 -6118 0
-1941 -6119 0
-6118 -6119 0
1941 6118 6119 0
-4415 -5010 0
-4415 -6120 0
-5010 -6120 0
4415 5010 6120 0
-2432 -6121 0
-2432 -6122 0
-6121 -6122 0
2432 6121 6122 0
-6123 -6124 0
-6123 -6125 0
-6124 -6125 0
6123 6124 6125 0
-6126 -6127 0
-6126 -6128 0
-6127 -6128 0
6126 6127 6128 0
-1697 -3687 0
-1697 -4443 0
-3687 -4443 0
1697 3687 4443 0
-1916 -6129 0
-1916 -6130 0
-6129 -6130 0
1916 6129 6130 0
-2933 -6131 0
-2933 -6132 0
-6131 -6132 0
2933 6131 6132 0
-1198 -3125 0
-1198 -6133 0
-3125 -6133 0
1198 3125 6133 0
-1817 -3106 0
-1817 -6134 0
-3106 -6134 0
1817 3106 6134 0
-453 -6135 0
-453 -6136 0
-6135 -6136 0
453 6135 6136 0
-3999 -6137 0
-3999 -6138 0
-6137 -6138 0
3999 6137 6138 0
-926 -6139 0
-926 -6140 0
-6139 -6140 0
926 6139 6140 0
-1347 -6141 0
-1347 -6142 0
-6141 -6142 0
1347 6141 6142 0
-4754 -6143 0
-4754 -6144 0
-6143 -6144 0
4754 6143 6144 0
-1455 -2789 0
-1455 -6145 0
-2789 -6145 0
1455 2789 6145 0
-5241 -6146 0
-5241 -6147 0
-6146 -6147 0
5241 6146 6147 0
-232 -1026 0
-232 -4594 0
-1026 -4594 0
232 1026 4594 0
-2249 -6148 0
-2249 -6149 0
-6148 -6149 0
2249 6148 6149 0
-136 -4509 0
-136 -6150 0
-4509 -6150 0
136 4509 6150 0
-1720 -6151 0
-1720 -6152 0
-6151 -6152 0
1720 6151 6152 0
-949 -4069 0
-949 -6153 0
-4069 -6153 0
949 4069 6153 0
-1648 -3104 0
-1648 -4214 0
-3104 -4214 0
1648 3104 4214 0
-40 -6091 0
-40 -6154 0
-6091 -6154 0
40 6091 6154 0
-2213 -6085 0
-2213 -6155 0
-6085 -6155 0
2213 6085 6155 0
-3295 -4047 0
-3295 -5957 0
-4047 -5957 0
3295 4047 5957 0
-1527 -3186 0
-1527 -5897 0
-3186 -5897 0
1527 3186 5897 0
-1220 -2705 0
-1220 -6156 0
-2705 -6156 0
1220 2705 6156 0
-3422 -5046 0
-3422 -6157 0
-5046 -6157 0
3422 5046 6157 0
-2207 -5067 0
-2207 -6158 0
-5067 -6158 0
2207 5067 6158 0
-6159 -6160 0
-6159 -6161 0
-6160 -6161 0
6159 6160 6161 0
-190 -5422 0
-190 -6162 0
-5422 -6162 0
190 5422 6162 0
-418 -6163 0
-418 -6164 0
-6163 -6164 0
418 6163 6164 0
-2670 -6165 0
-2670 -6166 0
-6165 -6166 0
2670 6165 6166 0
-2460 -5883 0
-2460 -6167 0
-5883 -6167 0
2460 5883 6167 0
-3671 -5795 0
-3671 -6168 0
-5795 -6168 0
3671 5795 6168 0
-3047 -5021 0
-3047 -6169 0
-5021 -6169 0
3047 5021 6169 0
-46 -5510 0
-46 -6170 0
-5510 -6170 0
46 5510 6170 0
-1930 -5767 0
-1930 -6171 0
-5767 -6171 0
1930 5767 6171 0
-4091 -5456 0
-4091 -6172 0
-5456 -6172 0
4091 5456 6172 0
-5333 -6173 0
-5333 -6174 0
-6173 -6174 0
5333 6173 6174 0
-5855 -6175 0
-5855 -6176 0
-6175 -6176 0
5855 6175 6176 0
-202 -655 0
-202 -6177 0
-655 -6177 0
202 655 6177 0
-5181 -6178 0
-5181 -6179 0
-6178 -6179 0
5181 6178 6179 0
-4284 -6180 0
-4284 -6181 0
-6180 -6181 0
4284 6180 6181 0
-1534 -6151 0
-1534 -6182 0
-6151 -6182 0
1534 6151 6182 0
-5127 -5552 0
-5127 -6023 0
-5552 -6023 0
5127 5552 6023 0
-56 -1073 0
-56 -2934 0
-1073 -2934 0
56 1073 2934 0
-271 -4396 0
-271 -6183 0
-4396 -6183 0
271 4396 6183 0
-4664 -6184 0
-4664 -6185 0
-6184 -6185 0
4664 6184 6185 0
-1189 -4672 0
-1189 -6186 0
-4672 -6186 0
1189 4672 6186 0
-1676 -4651 0
-1676 -5142 0
-4651 -5142 0
1676 4651 5142 0
-97 -3378 0
-97 -6187 0
-3378 -6187 0
97 3378 6187 0
-5695 -6188 0
-5695 -6189 0
-6188 -6189 0
5695 6188 6189 0
-509 -6190 0
-509 -6191 0
-6190 -6191 0
509 6190 6191 0
-1601 -5891 0
-1601 -6192 0
-5891 -6192 0
1601 5891 6192 0
-750 -4629 0
-750 -6193 0
-4629 -6193 0
750 4629 6193 0
-4927 -6194 0
-4927 -6195 0
-6194 -6195 0
4927 6194 6195 0
-1579 -1681 0
-1579 -6196 0
-1681 -6196 0
1579 1681 6196 0
-2580 -4108 0
-2580 -5070 0
-4108 -5070 0
2580 4108 5070 0
-5600 -6197 0
-5600 -6198 0
-6197 -6198 0
5600 6197 6198 0
-4978 -6153 0
-4978 -6199 0
-6153 -6199 0
4978 6153 6199 0
-544 -1937 0
-544 -5826 0
-1937 -5826 0
544 1937 5826 0
-6200 -6201 0
-6200 -6202 0
-6201 -6202 0
6200 6201 6202 0
-3238 -4045 0
-3238 -6203 0
-4045 -6203 0
3238 4045 6203 0
-5993 -6204 0
-5993 -6205 0
-6204 -6205 0
5993 6204 6205 0
-1175 -2966 0
-1175 -3994 0
-2966 -3994 0
1175 2966 3994 0
-2967 -6206 0
-2967 -6207 0
-6206 -6207 0
2967 6206 6207 0
-3380 -3454 0
-3380 -6208 0
-3454 -6208 0
3380 3454 6208 0
-226 -2952 0
-226 -6209 0
-2952 -6209 0
226 2952 6209 0
-2442 -5526 0
-2442 -6210 0
-5526 -6210 0
2442 5526 6210 0
-4203 -6211 0
-4203 -6212 0
-6211 -6212 0
4203 6211 6212 0
-5649 -5727 0
-5649 -6213 0
-5727 -6213 0
5649 5727 6213 0
-371 -5697 0
-371 -6016 0
-5697 -6016 0
371 5697 6016 0
-2348 -2423 0
-2348 -6214 0
-2423 -6214 0
2348 2423 6214 0
-513 -6215 0
-513 -6216 0
-6215 -6216 0
513 6215 6216 0
-4525 -5679 0
-4525 -5910 0
-5679 -5910 0
4525 5679 5910 0
-5869 -6217 0
-5869 -6218 0
-6217 -6218 0
5869 6217 6218 0
-1641 -4947 0
-1641 -6219 0
-4947 -6219 0
1641 4947 6219 0
-2857 -6220 0
-2857 -6221 0
-6220 -6221 0
2857 6220 6221 0
-995 -6222 0
-995 -6223 0
-6222 -6223 0
995 6222 6223 0
-1139 -6224 0
-1139 -6225 0
-6224 -6225 0
1139 6224 6225 0
-560 -5288 0
-560 -5434 0
-5288 -5434 0
560 5288 5434 0
-738 -2668 0
-738 -6226 0
-2668 -6226 0
738 2668 6226 0
-2325 -2492 0
-2325 -6227 0
-2492 -6227 0
2325 2492 6227 0
-2104 -5615 0
-2104 -5893 0
-5615 -5893 0
2104 5615 5893 0
-881 -2754 0
-881 -3586 0
-2754 -3586 0
881 2754 3586 0
-1321 -5357 0
-1321 -6228 0
-5357 -6228 0
1321 5357 6228 0
-1594 -4329 0
-1594 -6152 0
-4329 -6152 0
1594 4329 6152 0
-1305 -4282 0
-1305 -4846 0
-4282 -4846 0
1305 4282 4846 0
-2174 -3182 0
-2174 -6229 0
-3182 -6229 0
2174 3182 6229 0
-2110 -4886 0
-2110 -6230 0
-4886 -6230 0
2110 4886 6230 0
-4330 -6231 0
-4330 -6232 0
-6231 -6232 0
4330 6231 6232 0
-2312 -2607 0
-2312 -6233 0
-2607 -6233 0
2312 2607 6233 0
-2047 -5228 0
-2047 -6234 0
-5228 -6234 0
2047 5228 6234 0
-6235 -6236 0
-6235 -6237 0
-6236 -6237 0
6235 6236 6237 0
-171 -1279 0
-171 -6238 0
-1279 -6238 0
171 1279 6238 0
-5358 -6239 0
-5358 -6240 0
-6239 -6240 0
5358 6239 6240 0
-2439 -6241 0
-2439 -6242 0
-6241 -6242 0
2439 6241 6242 0
-1316 -1525 0
-1316 -6243 0
-1525 -6243 0
1316 1525 6243 0
-1083 -1913 0
-1083 -6244 0
-1913 -6244 0
1083 1913 6244 0
-1018 -4648 0
-1018 -5818 0
-4648 -5818 0
1018 4648 5818 0
-802 -1439 0
-802 -6245 0
-1439 -6245 0
802 1439 6245 0
-2346 -2828 0
-2346 -5997 0
-2828 -5997 0
2346 2828 5997 0
-1538 -4408 0
-1538 -6246 0
-4408 -6246 0
1538 4408 6246 0
-5315 -5898 0
-5315 -6247 0
-5898 -6247 0
5315 5898 6247 0
-5016 -6200 0
-5016 -6248 0
-6200 -6248 0
5016 6200 6248 0
-6249 -6250 0
-6249 -6251 0
-6250 -6251 0
6249 6250 6251 0
-1849 -6252 0
-1849 -6253 0
-6252 -6253 0
1849 6252 6253 0
-6254 -6255 0
-6254 -6256 0
-6255 -6256 0
6254 6255 6256 0
-6257 -6258 0
-6257 -6259 0
-6258 -6259 0
6257 6258 6259 0
-2884 -3443 0
-2884 -6260 0
-3443 -6260 0
2884 3443 6260 0
-6261 -6262 0
-6261 -6263 0
-6262 -6263 0
6261 6262 6263 0
-2402 -2734 0
-2402 -4268 0
-2734 -4268 0
2402 2734 4268 0
-3707 -5074 0
-3707 -5750 0
-5074 -5750 0
3707 5074 5750 0
-849 -6035 0
-849 -6264 0
-6035 -6264 0
849 6035 6264 0
-4767 -5514 0
-4767 -6265 0
-5514 -6265 0
4767 5514 6265 0
-1583 -4615 0
-1583 -6266 0
-4615 -6266 0
1583 4615 6266 0
-2225 -3268 0
-2225 -6267 0
-3268 -6267 0
2225 3268 6267 0
-1608 -2485 0
-1608 -4257 0
-2485 -4257 0
1608 2485 4257 0
-966 -3535 0
-966 -5676 0
-3535 -5676 0
966 3535 5676 0
-2996 -6169 0
-2996 -6268 0
-6169 -6268 0
2996 6169 6268 0
-4530 -6269 0
-4530 -6270 0
-6269 -6270 0
4530 6269 6270 0
-751 -6271 0
-751 -6272 0
-6271 -6272 0
751 6271 6272 0
-307 -462 0
-307 -6273 0
-462 -6273 0
307 462 6273 0
-4339 -5535 0
-4339 -5665 0
-5535 -5665 0
4339 5535 5665 0
-4042 -6274 0
-4042 -6275 0
-6274 -6275 0
4042 6274 6275 0
-5123 -5373 0
-5123 -6168 0
-5373 -6168 0
5123 5373 6168 0
-2477 -3222 0
-2477 -6276 0
-3222 -6276 0
2477 3222 6276 0
-2619 -5633 0
-2619 -6277 0
-5633 -6277 0
2619 5633 6277 0
-545 -4038 0
-545 -6278 0
-4038 -6278 0
545 4038 6278 0
-4031 -6279 0
-4031 -6280 0
-6279 -6280 0
4031 6279 6280 0
-1060 -3440 0
-1060 -6194 0
-3440 -6194 0
1060 3440 6194 0
-2971 -6281 0
-2971 -6282 0
-6281 -6282 0
2971 6281 6282 0
-51 -6283 0
-51 -6284 0
-6283 -6284 0
51 6283 6284 0
-79 -3878 0
-79 -5204 0
-3878 -5204 0
79 3878 5204 0
-860 -2907 0
-860 -6285 0
-2907 -6285 0
860 2907 6285 0
-4419 -6286 0
-4419 -6287 0
-6286 -6287 0
4419 6286 6287 0
-3202 -4649 0
-3202 -6288 0
-4649 -6288 0
3202 4649 6288 0
-1622 -6289 0
-1622 -6290 0
-6289 -6290 0
1622 6289 6290 0
-1075 -1964 0
-1075 -6291 0
-1964 -6291 0
1075 1964 6291 0
-1615 -6292 0
-1615 -6293 0
-6292 -6293 0
1615 6292 6293 0
-823 -4277 0
-823 -6294 0
-4277 -6294 0
823 4277 6294 0
-2581 -6102 0
-2581 -6295 0
-6102 -6295 0
2581 6102 6295 0
-3362 -4836 0
-3362 -6296 0
-4836 -6296 0
3362 4836 6296 0
-2558 -5578 0
-2558 -6133 0
-5578 -6133 0
2558 5578 6133 0
-5347 -6297 0
-5347 -6298 0
-6297 -6298 0
5347 6297 6298 0
-1514 -5978 0
-1514 -6299 0
-5978 -6299 0
1514 5978 6299 0
-6017 -6300 0
-6017 -6301 0
-6300 -6301 0
6017 6300 6301 0
-2405 -4707 0
-2405 -5238 0
-4707 -5238 0
2405 4707 5238 0
-4002 -6302 0
-4002 -6303 0
-6302 -6303 0
4002 6302 6303 0
-340 -6304 0
-340 -6305 0
-6304 -6305 0
340 6304 6305 0
-174 -6306 0
-174 -6307 0
-6306 -6307 0
174 6306 6307 0
-1042 -1140 0
-1042 -4174 0
-1140 -4174 0
1042 1140 4174 0
-1374 -6308 0
-1374 -6309 0
-6308 -6309 0
1374 6308 6309 0
-868 -1671 0
-868 -6310 0
-1671 -6310 0
868 1671 6310 0
-1148 -2519 0
-1148 -6311 0
-2519 -6311 0
1148 2519 6311 0
-2448 -4295 0
-2448 -5440 0
-4295 -5440 0
2448 4295 5440 0
-3852 -4686 0
-3852 -5595 0
-4686 -5595 0
3852 4686 5595 0
-2801 -5244 0
-2801 -6312 0
-5244 -6312 0
2801 5244 6312 0
-1934 -5275 0
-1934 -6313 0
-5275 -6313 0
1934 5275 6313 0
-5551 -6314 0
-5551 -6315 0
-6314 -6315 0
5551 6314 6315 0
-1325 -5573 0
-1325 -6316 0
-5573 -6316 0
1325 5573 6316 0
-3737 -5031 0
-3737 -6317 0
-5031 -6317 0
3737 5031 6317 0
-4822 -6318 0
-4822 -6319 0
-6318 -6319 0
4822 6318 6319 0
-1803 -4893 0
-1803 -6320 0
-4893 -6320 0
1803 4893 6320 0
-846 -3444 0
-846 -6321 0
-3444 -6321 0
846 3444 6321 0
-3099 -3708 0
-3099 -6322 0
-3708 -6322 0
3099 3708 6322 0
-4592 -5945 0
-4592 -6323 0
-5945 -6323 0
4592 5945 6323 0
-4637 -5410 0
-4637 -6324 0
-5410 -6324 0
4637 5410 6324 0
-1440 -2787 0
-1440 -5101 0
-2787 -5101 0
1440 2787 5101 0
-1070 -3759 0
-1070 -6325 0
-3759 -6325 0
1070 3759 6325 0
-3721 -5269 0
-3721 -6326 0
-5269 -6326 0
3721 5269 6326 0
-2940 -6327 0
-2940 -6328 0
-6327 -6328 0
2940 6327 6328 0
-6329 -6330 0
-6329 -6331 0
-6330 -6331 0
6329 6330 6331 0
-1327 -6332 0
-1327 -6333 0
-6332 -6333 0
1327 6332 6333 0
-4200 -4770 0
-4200 -6334 0
-4770 -6334 0
4200 4770 6334 0
-2727 -4482 0
-2727 -6170 0
-4482 -6170 0
2727 4482 6170 0
-4404 -6335 0
-4404 -6336 0
-6335 -6336 0
4404 6335 6336 0
-3575 -3595 0
-3575 -5852 0
-3595 -5852 0
3575 3595 5852 0
-663 -4857 0
-663 -6337 0
-4857 -6337 0
663 4857 6337 0
-454 -1465 0
-454 -6338 0
-1465 -6338 0
454 1465 6338 0
-586 -2819 0
-586 -3873 0
-2819 -3873 0
586 2819 3873 0
-1372 -2985 0
-1372 -6339 0
-2985 -6339 0
1372 2985 6339 0
-4658 -5990 0
-4658 -6340 0
-5990 -6340 0
4658 5990 6340 0
-983 -5846 0
-983 -6094 0
-5846 -6094 0
983 5846 6094 0
-809 -4567 0
-809 -6167 0
-4567 -6167 0
809 4567 6167 0
-3063 -4773 0
-3063 -6341 0
-4773 -6341 0
3063 4773 6341 0
-793 -1092 0
-793 -5884 0
-1092 -5884 0
793 1092 5884 0
-1419 -6087 0
-1419 -6342 0
-6087 -6342 0
1419 6087 6342 0
-1872 -1951 0
-1872 -3147 0
-1951 -3147 0
1872 1951 3147 0
-4245 -5537 0
-4245 -6343 0
-5537 -6343 0
4245 5537 6343 0
-753 -6344 0
-753 -6345 0
-6344 -6345 0
753 6344 6345 0
-6346 -6347 0
-6346 -6348 0
-6347 -6348 0
6346 6347 6348 0
-5330 -6349 0
-5330 -6350 0
-6349 -6350 0
5330 6349 6350 0
-1122 -4473 0
-1122 -6351 0
-4473 -6351 0
1122 4473 6351 0
-4600 -5304 0
-4600 -6096 0
-5304 -6096 0
4600 5304 6096 0
-3853 -6352 0
-3853 -6353 0
-6352 -6353 0
3853 6352 6353 0
-4367 -6354 0
-4367 -6355 0
-6354 -6355 0
4367 6354 6355 0
-3678 -6356 0
-3678 -6357 0
-6356 -6357 0
3678 6356 6357 0
-199 -6358 0
-199 -6359 0
-6358 -6359 0
199 6358 6359 0
-2576 -6326 0
-2576 -6360 0
-6326 -6360 0
2576 6326 6360 0
-2433 -4513 0
-2433 -6361 0
-4513 -6361 0
2433 4513 6361 0
-724 -6362 0
-724 -6363 0
-6362 -6363 0
724 6362 6363 0
-3071 -3533 0
-3071 -6215 0
-3533 -6215 0
3071 3533 6215 0
-180 -2041 0
-180 -5687 0
-2041 -5687 0
180 2041 5687 0
-6364 -6365 0
-6364 -6366 0
-6365 -6366 0
6364 6365 6366 0
-2493 -3615 0
-2493 -6367 0
-3615 -6367 0
2493 3615 6367 0
-2036 -6368 0
-2036 -6369 0
-6368 -6369 0
2036 6368 6369 0
-6154 -6370 0
-6154 -6371 0
-6370 -6371 0
6154 6370 6371 0
-819 -6372 0
-819 -6373 0
-6372 -6373 0
819 6372 6373 0
-3815 -5056 0
-3815 -5641 0
-5056 -5641 0
3815 5056 5641 0
-6374 -6375 0
-6374 -6376 0
-6375 -6376 0
6374 6375 6376 0
-2424 -6377 0
-2424 -6378 0
-6377 -6378 0
2424 6377 6378 0
-3773 -5970 0
-3773 -6379 0
-5970 -6379 0
3773 5970 6379 0
-1023 -5972 0
-1023 -6380 0
-5972 -6380 0
1023 5972 6380 0
-5299 -6381 0
-5299 -6382 0
-6381 -6382 0
5299 6381 6382 0
-744 -6383 0
-744 -6384 0
-6383 -6384 0
744 6383 6384 0
-3291 -6150 0
-3291 -6173 0
-6150 -6173 0
3291 6150 6173 0
-5349 -6385 0
-5349 -6386 0
-6385 -6386 0
5349 6385 6386 0
-466 -5650 0
-466 -6387 0
-5650 -6387 0
466 5650 6387 0
-2869 -6388 0
-2869 -6389 0
-6388 -6389 0
2869 6388 6389 0
-348 -6390 0
-348 -6391 0
-6390 -6391 0
348 6390 6391 0
-4907 -6037 0
-4907 -6392 0
-6037 -6392 0
4907 6037 6392 0
-5872 -6393 0
-5872 -6394 0
-6393 -6394 0
5872 6393 6394 0
-898 -4937 0
-898 -6395 0
-4937 -6395 0
898 4937 6395 0
-5007 -5463 0
-5007 -6396 0
-5463 -6396 0
5007 5463 6396 0
-5447 -6397 0
-5447 -6398 0
-6397 -6398 0
5447 6397 6398 0
-5536 -6399 0
-5536 -6400 0
-6399 -6400 0
5536 6399 6400 0
-6148 -6401 0
-6148 -6402 0
-6401 -6402 0
6148 6401 6402 0
-1892 -1981 0
-1892 -3472 0
-1981 -3472 0
1892 1981 3472 0
-398 -2832 0
-398 -6403 0
-2832 -6403 0
398 2832 6403 0
-2246 -4226 0
-2246 -4230 0
-4226 -4230 0
2246 4226 4230 0
-1519 -4879 0
-1519 -4903 0
-4879 -4903 0
1519 4879 4903 0
-1960 -6266 0
-1960 -6404 0
-6266 -6404 0
1960 6266 6404 0
-5740 -6405 0
-5740 -6406 0
-6405 -6406 0
5740 6405 6406 0
-5399 -5690 0
-5399 -6407 0
-5690 -6407 0
5399 5690 6407 0
-6358 -6408 0
-6358 -6409 0
-6408 -6409 0
6358 6408 6409 0
-3549 -6249 0
-3549 -6410 0
-6249 -6410 0
3549 6249 6410 0
-5164 -6411 0
-5164 -6412 0
-6411 -6412 0
5164 6411 6412 0
-2065 -2274 0
-2065 -6413 0
-2274 -6413 0
2065 2274 6413 0
-4003 -5172 0
-4003 -6414 0
-5172 -6414 0
4003 5172 6414 0
-6184 -6415 0
-6184 -6416 0
-6415 -6416 0
6184 6415 6416 0
-858 -4616 0
-858 -6417 0
-4616 -6417 0
858 4616 6417 0
-2258 -3628 0
-2258 -6418 0
-3628 -6418 0
2258 3628 6418 0
-2885 -3838 0
-2885 -6419 0
-3838 -6419 0
2885 3838 6419 0
-3497 -6420 0
-3497 -6421 0
-6420 -6421 0
3497 6420 6421 0
-6422 -6423 0
-6422 -6424 0
-6423 -6424 0
6422 6423 6424 0
-1142 -4543 0
-1142 -4738 0
-4543 -4738 0
1142 4543 4738 0
-6425 -6426 0
-6425 -6427 0
-6426 -6427 0
6425 6426 6427 0
-5428 -6428 0
-5428 -6429 0
-6428 -6429 0
5428 6428 6429 0
-2928 -6430 0
-2928 -6431 0
-6430 -6431 0
2928 6430 6431 0
-2228 -5474 0
-2228 -5966 0
-5474 -5966 0
2228 5474 5966 0
-205 -5986 0
-205 -6432 0
-5986 -6432 0
205 5986 6432 0
-4825 -6433 0
-4825 -6434 0
-6433 -6434 0
4825 6433 6434 0
-6325 -6435 0
-6325 -6436 0
-6435 -6436 0
6325 6435 6436 0
-1156 -6047 0
-1156 -6437 0
-6047 -6437 0
1156 6047 6437 0
-3747 -4631 0
-3747 -6438 0
-4631 -6438 0
3747 4631 6438 0
-355 -5227 0
-355 -6048 0
-5227 -6048 0
355 5227 6048 0
-695 -1317 0
-695 -5802 0
-1317 -5802 0
695 1317 5802 0
-4610 -6439 0
-4610 -6440 0
-6439 -6440 0
4610 6439 6440 0
-1472 -1598 0
-1472 -6238 0
-1598 -6238 0
1472 1598 6238 0
-4213 -6441 0
-4213 -6442 0
-6441 -6442 0
4213 6441 6442 0
-2276 -3111 0
-2276 -6443 0
-3111 -6443 0
2276 3111 6443 0
-1185 -4385 0
-1185 -6444 0
-4385 -6444 0
1185 4385 6444 0
-861 -4023 0
-861 -6445 0
-4023 -6445 0
861 4023 6445 0
-2330 -4446 0
-2330 -6446 0
-4446 -6446 0
2330 4446 6446 0
-4733 -5764 0
-4733 -6447 0
-5764 -6447 0
4733 5764 6447 0
-591 -3256 0
-591 -3953 0
-3256 -3953 0
591 3256 3953 0
-1503 -2843 0
-1503 -6089 0
-2843 -6089 0
1503 2843 6089 0
-2453 -4299 0
-2453 -6448 0
-4299 -6448 0
2453 4299 6448 0
-5467 -6044 0
-5467 -6449 0
-6044 -6449 0
5467 6044 6449 0
-1306 -6450 0
-1306 -6451 0
-6450 -6451 0
1306 6450 6451 0
-5424 -6452 0
-5424 -6453 0
-6452 -6453 0
5424 6452 6453 0
-6454 -6455 0
-6454 -6456 0
-6455 -6456 0
6454 6455 6456 0
-5643 -6457 0
-5643 -6458 0
-6457 -6458 0
5643 6457 6458 0
-6268 -6459 0
-6268 -6460 0
-6459 -6460 0
6268 6459 6460 0
-1762 -2478 0
-1762 -4211 0
-2478 -4211 0
1762 2478 4211 0
-1404 -3780 0
-1404 -6461 0
-3780 -6461 0
1404 3780 6461 0
-4157 -5657 0
-4157 -6462 0
-5657 -6462 0
4157 5657 6462 0
-3793 -5606 0
-3793 -5984 0
-5606 -5984 0
3793 5606 5984 0
-2205 -4210 0
-2205 -6463 0
-4210 -6463 0
2205 4210 6463 0
-4086 -6385 0
-4086 -6464 0
-6385 -6464 0
4086 6385 6464 0
-6465 -6466 0
-6465 -6467 0
-6466 -6467 0
6465 6466 6467 0
-6468 -6469 0
-6468 -6470 0
-6469 -6470 0
6468 6469 6470 0
-1917 -5485 0
-1917 -6269 0
-5485 -6269 0
1917 5485 6269 0
-377 -3304 0
-377 -6471 0
-3304 -6471 0
377 3304 6471 0
-6472 -6473 0
-6472 -6474 0
-6473 -6474 0
6472 6473 6474 0
-1190 -1428 0
-1190 -6327 0
-1428 -6327 0
1190 1428 6327 0
-2572 -3403 0
-2572 -4311 0
-3403 -4311 0
2572 3403 4311 0
-36 -3799 0
-36 -6475 0
-3799 -6475 0
36 3799 6475 0
-2473 -5508 0
-2473 -6476 0
-5508 -6476 0
2473 5508 6476 0
-4841 -5684 0
-4841 -6477 0
-5684 -6477 0
4841 5684 6477 0
-6478 -6479 0
-6478 -6480 0
-6479 -6480 0
6478 6479 6480 0
-761 -4763 0
-761 -6481 0
-4763 -6481 0
761 4763 6481 0
-1563 -5878 0
-1563 -6246 0
-5878 -6246 0
1563 5878 6246 0
-158 -6482 0
-158 -6483 0
-6482 -6483 0
158 6482 6483 0
-5416 -5847 0
-5416 -6484 0
-5847 -6484 0
5416 5847 6484 0
-3405 -3890 0
-3405 -6485 0
-3890 -6485 0
3405 3890 6485 0
-4833 -6486 0
-4833 -6487 0
-6486 -6487 0
4833 6486 6487 0
-3031 -5052 0
-3031 -5271 0
-5052 -5271 0
3031 5052 5271 0
-5506 -5530 0
-5506 -6488 0
-5530 -6488 0
5506 5530 6488 0
-711 -6489 0
-711 -6490 0
-6489 -6490 0
711 6489 6490 0
-2131 -4983 0
-2131 -6491 0
-4983 -6491 0
2131 4983 6491 0
-4221 -6492 0
-4221 -6493 0
-6492 -6493 0
4221 6492 6493 0
-82 -5556 0
-82 -6494 0
-5556 -6494 0
82 5556 6494 0
-2896 -5453 0
-2896 -6495 0
-5453 -6495 0
2896 5453 6495 0
-4323 -4885 0
-4323 -5417 0
-4885 -5417 0
4323 4885 5417 0
-1918 -6496 0
-1918 -6497 0
-6496 -6497 0
1918 6496 6497 0
-2803 -6498 0
-2803 -6499 0
-6498 -6499 0
2803 6498 6499 0
-1221 -6418 0
-1221 -6500 0
-6418 -6500 0
1221 6418 6500 0
-1302 -5724 0
-1302 -6501 0
-5724 -6501 0
1302 5724 6501 0
-2991 -5068 0
-2991 -6502 0
-5068 -6502 0
2991 5068 6502 0
-3950 -6410 0
-3950 -6503 0
-6410 -6503 0
3950 6410 6503 0
-5711 -6504 0
-5711 -6505 0
-6504 -6505 0
5711 6504 6505 0
-1845 -5286 0
-1845 -6506 0
-5286 -6506 0
1845 5286 6506 0
-2066 -5669 0
-2066 -5813 0
-5669 -5813 0
2066 5669 5813 0
-1358 -2026 0
-1358 -3102 0
-2026 -3102 0
1358 2026 3102 0
-4167 -6507 0
-4167 -6508 0
-6507 -6508 0
4167 6507 6508 0
-5765 -6509 0
-5765 -6510 0
-6509 -6510 0
5765 6509 6510 0
-3200 -4357 0
-3200 -4553 0
-4357 -4553 0
3200 4357 4553 0
-4273 -6511 0
-4273 -6512 0
-6511 -6512 0
4273 6511 6512 0
-4837 -6146 0
-4837 -6513 0
-6146 -6513 0
4837 6146 6513 0
-5781 -6014 0
-5781 -6514 0
-6014 -6514 0
5781 6014 6514 0
-139 -2537 0
-139 -5805 0
-2537 -5805 0
139 2537 5805 0
-4964 -6515 0
-4964 -6516 0
-6515 -6516 0
4964 6515 6516 0
-3411 -6517 0
-3411 -6518 0
-6517 -6518 0
3411 6517 6518 0
-1274 -2649 0
-1274 -5051 0
-2649 -5051 0
1274 2649 5051 0
-6519 -6520 0
-6519 -6521 0
-6520 -6521 0
6519 6520 6521 0
-5309 -6522 0
-5309 -6523 0
-6522 -6523 0
5309 6522 6523 0
-6524 -6525 0
-6524 -6526 0
-6525 -6526 0
6524 6525 6526 0
-531 -3151 0
-531 -6527 0
-3151 -6527 0
531 3151 6527 0
-115 -4782 0
-115 -6524 0
-4782 -6524 0
115 4782 6524 0
-1946 -3576 0
-1946 -4438 0
-3576 -4438 0
1946 3576 4438 0
-4719 -6072 0
-4719 -6209 0
-6072 -6209 0
4719 6072 6209 0
-3622 -6029 0
-3622 -6528 0
-6029 -6528 0
3622 6029 6528 0
-3794 -5129 0
-3794 -6529 0
-5129 -6529 0
3794 5129 6529 0
-3216 -5454 0
-3216 -6530 0
-5454 -6530 0
3216 5454 6530 0
-725 -3601 0
-725 -6531 0
-3601 -6531 0
725 3601 6531 0
-6098 -6261 0
-6098 -6285 0
-6261 -6285 0
6098 6261 6285 0
-3363 -6532 0
-3363 -6533 0
-6532 -6533 0
3363 6532 6533 0
-1359 -6359 0
-1359 -6534 0
-6359 -6534 0
1359 6359 6534 0
-3700 -4906 0
-3700 -6535 0
-4906 -6535 0
3700 4906 6535 0
-2277 -6448 0
-2277 -6536 0
-6448 -6536 0
2277 6448 6536 0
-555 -4474 0
-555 -6511 0
-4474 -6511 0
555 4474 6511 0
-6537 -6538 0
-6537 -6539 0
-6538 -6539 0
6537 6538 6539 0
-4380 -5048 0
-4380 -6540 0
-5048 -6540 0
4380 5048 6540 0
-6541 -6542 0
-6541 -6543 0
-6542 -6543 0
6541 6542 6543 0
-3512 -4944 0
-3512 -6544 0
-4944 -6544 0
3512 4944 6544 0
-4417 -6545 0
-4417 -6546 0
-6545 -6546 0
4417 6545 6546 0
-3590 -3948 0
-3590 -4510 0
-3948 -4510 0
3590 3948 4510 0
-486 -5522 0
-486 -6547 0
-5522 -6547 0
486 5522 6547 0
-5189 -5462 0
-5189 -6548 0
-5462 -6548 0
5189 5462 6548 0
-4070 -4755 0
-4070 -5136 0
-4755 -5136 0
4070 4755 5136 0
-1045 -4776 0
-1045 -6549 0
-4776 -6549 0
1045 4776 6549 0
-6550 -6551 0
-6550 -6552 0
-6551 -6552 0
6550 6551 6552 0
-2546 -5318 0
-2546 -6553 0
-5318 -6553 0
2546 5318 6553 0
-2014 -3935 0
-2014 -6554 0
-3935 -6554 0
2014 3935 6554 0
-1186 -6555 0
-1186 -6556 0
-6555 -6556 0
1186 6555 6556 0
-3921 -6244 0
-3921 -6557 0
-6244 -6557 0
3921 6244 6557 0
-6224 -6558 0
-6224 -6559 0
-6558 -6559 0
6224 6558 6559 0
-5077 -6340 0
-5077 -6560 0
-6340 -6560 0
5077 6340 6560 0
-5858 -6561 0
-5858 -6562 0
-6561 -6562 0
5858 6561 6562 0
-5744 -5838 0
-5744 -6459 0
-5838 -6459 0
5744 5838 6459 0
-6563 -6564 0
-6563 -6565 0
-6564 -6565 0
6563 6564 6565 0
-1550 -4849 0
-1550 -6566 0
-4849 -6566 0
1550 4849 6566 0
-3695 -4381 0
-3695 -6567 0
-4381 -6567 0
3695 4381 6567 0
-1228 -6568 0
-1228 -6569 0
-6568 -6569 0
1228 6568 6569 0
-2253 -6322 0
-2253 -6570 0
-6322 -6570 0
2253 6322 6570 0
-71 -5301 0
-71 -6571 0
-5301 -6571 0
71 5301 6571 0
-1118 -2033 0
-1118 -6308 0
-2033 -6308 0
1118 2033 6308 0
-2443 -3706 0
-2443 -6572 0
-3706 -6572 0
2443 3706 6572 0
-2370 -3616 0
-2370 -4613 0
-3616 -4613 0
2370 3616 4613 0
-494 -5217 0
-494 -6573 0
-5217 -6573 0
494 5217 6573 0
-3284 -3475 0
-3284 -6190 0
-3475 -6190 0
3284 3475 6190 0
-1756 -2261 0
-1756 -6574 0
-2261 -6574 0
1756 2261 6574 0
-3020 -6575 0
-3020 -6576 0
-6575 -6576 0
3020 6575 6576 0
-4514 -6577 0
-4514 -6578 0
-6577 -6578 0
4514 6577 6578 0
-6364 -6579 0
-6364 -6580 0
-6579 -6580 0
6364 6579 6580 0
-816 -2044 0
-816 -2752 0
-2044 -2752 0
816 2044 2752 0
-1616 -2314 0
-1616 -6581 0
-2314 -6581 0
1616 2314 6581 0
-2582 -3028 0
-2582 -3877 0
-3028 -3877 0
2582 3028 3877 0
-5088 -6582 0
-5088 -6583 0
-6582 -6583 0
5088 6582 6583 0
-2411 -2542 0
-2411 -6584 0
-2542 -6584 0
2411 2542 6584 0
-4182 -5342 0
-4182 -5517 0
-5342 -5517 0
4182 5342 5517 0
-6585 -6586 0
-6585 -6587 0
-6586 -6587 0
6585 6586 6587 0
-4101 -4123 0
-4101 -6584 0
-4123 -6584 0
4101 4123 6584 0
-6588 -6589 0
-6588 -6590 0
-6589 -6590 0
6588 6589 6590 0
-4425 -5881 0
-4425 -6591 0
-5881 -6591 0
4425 5881 6591 0
-2288 -6550 0
-2288 -6592 0
-6550 -6592 0
2288 6550 6592 0
-5414 -6472 0
-5414 -6593 0
-6472 -6593 0
5414 6472 6593 0
-4279 -6437 0
-4279 -6594 0
-6437 -6594 0
4279 6437 6594 0
-2384 -6595 0
-2384 -6596 0
-6595 -6596 0
2384 6595 6596 0
-6597 -6598 0
-6597 -6599 0
-6598 -6599 0
6597 6598 6599 0
-1125 -3170 0
-1125 -6600 0
-3170 -6600 0
1125 3170 6600 0
-2889 -6601 0
-2889 -6602 0
-6601 -6602 0
2889 6601 6602 0
-3479 -5585 0
-3479 -6603 0
-5585 -6603 0
3479 5585 6603 0
-2486 -6604 0
-2486 -6605 0
-6604 -6605 0
2486 6604 6605 0
-6606 -6607 0
-6606 -6608 0
-6607 -6608 0
6606 6607 6608 0
-6609 -6610 0
-6609 -6611 0
-6610 -6611 0
6609 6610 6611 0
-26 -4853 0
-26 -6612 0
-4853 -6612 0
26 4853 6612 0
-5367 -5543 0
-5367 -6613 0
-5543 -6613 0
5367 5543 6613 0
-6311 -6383 0
-6311 -6614 0
-6383 -6614 0
6311 6383 6614 0
-6123 -6137 0
-6123 -6615 0
-6137 -6615 0
6123 6137 6615 0
-3486 -5084 0
-3486 -5915 0
-5084 -5915 0
3486 5084 5915 0
-3631 -4120 0
-3631 -5359 0
-4120 -5359 0
3631 4120 5359 0
-5660 -6300 0
-5660 -6616 0
-6300 -6616 0
5660 6300 6616 0
-1314 -6617 0
-1314 -6618 0
-6617 -6618 0
1314 6617 6618 0
-2009 -2636 0
-2009 -6619 0
-2636 -6619 0
2009 2636 6619 0
-1511 -6620 0
-1511 -6621 0
-6620 -6621 0
1511 6620 6621 0
-3441 -6622 0
-3441 -6623 0
-6622 -6623 0
3441 6622 6623 0
-1356 -1993 0
-1356 -5102 0
-1993 -5102 0
1356 1993 5102 0
-334 -2672 0
-334 -6624 0
-2672 -6624 0
334 2672 6624 0
-1223 -1574 0
-1223 -6367 0
-1574 -6367 0
1223 1574 6367 0
-2777 -5709 0
-2777 -6625 0
-5709 -6625 0
2777 5709 6625 0
-1336 -1706 0
-1336 -6626 0
-1706 -6626 0
1336 1706 6626 0
-3089 -3937 0
-3089 -6627 0
-3937 -6627 0
3089 3937 6627 0
-4335 -6030 0
-4335 -6628 0
-6030 -6628 0
4335 6030 6628 0
-3831 -4217 0
-3831 -6629 0
-4217 -6629 0
3831 4217 6629 0
-6630 -6631 0
-6630 -6632 0
-6631 -6632 0
6630 6631 6632 0
-6633 -6634 0
-6633 -6635 0
-6634 -6635 0
6633 6634 6635 0
-4690 -6636 0
-4690 -6637 0
-6636 -6637 0
4690 6636 6637 0
-4687 -6638 0
-4687 -6639 0
-6638 -6639 0
4687 6638 6639 0
-5430 -5701 0
-5430 -6640 0
-5701 -6640 0
5430 5701 6640 0
-386 -1994 0
-386 -6641 0
-1994 -6641 0
386 1994 6641 0
-3617 -4342 0
-3617 -6642 0
-4342 -6642 0
3617 4342 6642 0
-963 -2970 0
-963 -3920 0
-2970 -3920 0
963 2970 3920 0
-3090 -4124 0
-3090 -6643 0
-4124 -6643 0
3090 4124 6643 0
-1333 -6197 0
-1333 -6644 0
-6197 -6644 0
1333 6197 6644 0
-2507 -6645 0
-2507 -6646 0
-6645 -6646 0
2507 6645 6646 0
-907 -1299 0
-907 -4521 0
-1299 -4521 0
907 1299 4521 0
-2170 -6647 0
-2170 -6648 0
-6647 -6648 0
2170 6647 6648 0
-4175 -5569 0
-4175 -6649 0
-5569 -6649 0
4175 5569 6649 0
-2655 -2804 0
-2655 -6650 0
-2804 -6650 0
2655 2804 6650 0
-4081 -5735 0
-4081 -6651 0
-5735 -6651 0
4081 5735 6651 0
-313 -5775 0
-313 -6652 0
-5775 -6652 0
313 5775 6652 0
-1809 -4928 0
-1809 -6653 0
-4928 -6653 0
1809 4928 6653 0
-1357 -3493 0
-1357 -6654 0
-3493 -6654 0
1357 3493 6654 0
-6655 -6656 0
-6655 -6657 0
-6656 -6657 0
6655 6656 6657 0
-1474 -5160 0
-1474 -6658 0
-5160 -6658 0
1474 5160 6658 0
-3338 -3762 0
-3338 -6659 0
-3762 -6659 0
3338 3762 6659 0
-3392 -6660 0
-3392 -6661 0
-6660 -6661 0
3392 6660 6661 0
-689 -2223 0
-689 -2753 0
-2223 -2753 0
689 2223 2753 0
-1620 -3006 0
-1620 -6662 0
-3006 -6662 0
1620 3006 6662 0
-2642 -6663 0
-2642 -6664 0
-6663 -6664 0
2642 6663 6664 0
-2621 -3408 0
-2621 -6665 0
-3408 -6665 0
2621 3408 6665 0
-3866 -5785 0
-3866 -6666 0
-5785 -6666 0
3866 5785 6666 0
-5028 -5234 0
-5028 -6496 0
-5234 -6496 0
5028 5234 6496 0
-6667 -6668 0
-6667 -6669 0
-6668 -6669 0
6667 6668 6669 0
-2081 -5713 0
-2081 -6670 0
-5713 -6670 0
2081 5713 6670 0
-6111 -6671 0
-6111 -6672 0
-6671 -6672 0
6111 6671 6672 0
-1731 -5621 0
-1731 -6673 0
-5621 -6673 0
1731 5621 6673 0
-1664 -6674 0
-1664 -6675 0
-6674 -6675 0
1664 6674 6675 0
-2072 -3666 0
-2072 -6507 0
-3666 -6507 0
2072 3666 6507 0
-5899 -6172 0
-5899 -6676 0
-6172 -6676 0
5899 6172 6676 0
-1961 -5953 0
-1961 -6677 0
-5953 -6677 0
1961 5953 6677 0
-3276 -3627 0
-3276 -3856 0
-3627 -3856 0
3276 3627 3856 0
-4597 -6678 0
-4597 -6679 0
-6678 -6679 0
4597 6678 6679 0
-1810 -6680 0
-1810 -6681 0
-6680 -6681 0
1810 6680 6681 0
-5337 -6313 0
-5337 -6682 0
-6313 -6682 0
5337 6313 6682 0
-2297 -6281 0
-2297 -6683 0
-6281 -6683 0
2297 6281 6683 0
-6088 -6684 0
-6088 -6685 0
-6684 -6685 0
6088 6684 6685 0
-4818 -5887 0
-4818 -6686 0
-5887 -6686 0
4818 5887 6686 0
-5155 -5316 0
-5155 -6687 0
-5316 -6687 0
5155 5316 6687 0
-1409 -4508 0
-1409 -6688 0
-4508 -6688 0
1409 4508 6688 0
-3882 -6689 0
-3882 -6690 0
-6689 -6690 0
3882 6689 6690 0
-1231 -5134 0
-1231 -6691 0
-5134 -6691 0
1231 5134 6691 0
-4526 -4700 0
-4526 -6356 0
-4700 -6356 0
4526 4700 6356 0
-2813 -6692 0
-2813 -6693 0
-6692 -6693 0
2813 6692 6693 0
-3591 -6694 0
-3591 -6695 0
-6694 -6695 0
3591 6694 6695 0
-6696 -6697 0
-6696 -6698 0
-6697 -6698 0
6696 6697 6698 0
-343 -3750 0
-343 -6699 0
-3750 -6699 0
343 3750 6699 0
-3597 -6700 0
-3597 -6701 0
-6700 -6701 0
3597 6700 6701 0
-5632 -5854 0
-5632 -6702 0
-5854 -6702 0
5632 5854 6702 0
-5856 -6515 0
-5856 -6703 0
-6515 -6703 0
5856 6515 6703 0
-4227 -6689 0
-4227 -6704 0
-6689 -6704 0
4227 6689 6704 0
-5213 -6705 0
-5213 -6706 0
-6705 -6706 0
5213 6705 6706 0
-5719 -6579 0
-5719 -6707 0
-6579 -6707 0
5719 6579 6707 0
-1680 -6210 0
-1680 -6708 0
-6210 -6708 0
1680 6210 6708 0
-6709 -6710 0
-6709 -6711 0
-6710 -6711 0
6709 6710 6711 0
-1102 -6428 0
-1102 -6712 0
-6428 -6712 0
1102 6428 6712 0
-1584 -1748 0
-1584 -5287 0
-1748 -5287 0
1584 1748 5287 0
-1360 -5624 0
-1360 -6713 0
-5624 -6713 0
1360 5624 6713 0
-2401 -4074 0
-2401 -6714 0
-4074 -6714 0
2401 4074 6714 0
-3632 -5276 0
-3632 -6715 0
-5276 -6715 0
3632 5276 6715 0
-1403 -2914 0
-1403 -3552 0
-2914 -3552 0
1403 2914 3552 0
-5867 -6214 0
-5867 -6354 0
-6214 -6354 0
5867 6214 6354 0
-4931 -6606 0
-4931 -6612 0
-6606 -6612 0
4931 6606 6612 0
-4943 -6003 0
-4943 -6716 0
-6003 -6716 0
4943 6003 6716 0
-3618 -6318 0
-3618 -6717 0
-6318 -6717 0
3618 6318 6717 0
-5043 -6718 0
-5043 -6719 0
-6718 -6719 0
5043 6718 6719 0
-1914 -3962 0
-1914 -4643 0
-3962 -4643 0
1914 3962 4643 0
-2301 -6504 0
-2301 -6720 0
-6504 -6720 0
2301 6504 6720 0
-4453 -6157 0
-4453 -6721 0
-6157 -6721 0
4453 6157 6721 0
-3423 -4747 0
-3423 -6613 0
-4747 -6613 0
3423 4747 6613 0
-6699 -6722 0
-6699 -6723 0
-6722 -6723 0
6699 6722 6723 0
-3026 -3810 0
-3026 -6724 0
-3810 -6724 0
3026 3810 6724 0
-1879 -3764 0
-1879 -6725 0
-3764 -6725 0
1879 3764 6725 0
-551 -3487 0
-551 -6581 0
-3487 -6581 0
551 3487 6581 0
-5289 -6726 0
-5289 -6727 0
-6726 -6727 0
5289 6726 6727 0
-2950 -6728 0
-2950 -6729 0
-6728 -6729 0
2950 6728 6729 0
-2224 -4170 0
-2224 -6365 0
-4170 -6365 0
2224 4170 6365 0
-1284 -5110 0
-1284 -6563 0
-5110 -6563 0
1284 5110 6563 0
-728 -6730 0
-728 -6731 0
-6730 -6731 0
728 6730 6731 0
-6732 -6733 0
-6732 -6734 0
-6733 -6734 0
6732 6733 6734 0
-4729 -6222 0
-4729 -6728 0
-6222 -6728 0
4729 6222 6728 0
-1798 -5265 0
-1798 -6735 0
-5265 -6735 0
1798 5265 6735 0
-1568 -6736 0
-1568 -6737 0
-6736 -6737 0
1568 6736 6737 0
-5152 -6738 0
-5152 -6739 0
-6738 -6739 0
5152 6738 6739 0
-590 -2487 0
-590 -6740 0
-2487 -6740 0
590 2487 6740 0
-2665 -5214 0
-2665 -6741 0
-5214 -6741 0
2665 5214 6741 0
-459 -1250 0
-459 -6742 0
-1250 -6742 0
459 1250 6742 0
-6735 -6743 0
-6735 -6744 0
-6743 -6744 0
6735 6743 6744 0
-1386 -6262 0
-1386 -6745 0
-6262 -6745 0
1386 6262 6745 0
-3139 -4721 0
-3139 -5933 0
-4721 -5933 0
3139 4721 5933 0
-2128 -6746 0
-2128 -6747 0
-6746 -6747 0
2128 6746 6747 0
-5397 -6509 0
-5397 -6748 0
-6509 -6748 0
5397 6509 6748 0
-4118 -5703 0
-4118 -6749 0
-5703 -6749 0
4118 5703 6749 0
-5939 -6058 0
-5939 -6750 0
-6058 -6750 0
5939 6058 6750 0
-6432 -6746 0
-6432 -6751 0
-6746 -6751 0
6432 6746 6751 0
-3985 -4641 0
-3985 -6752 0
-4641 -6752 0
3985 4641 6752 0
-118 -4224 0
-118 -4309 0
-4224 -4309 0
118 4224 4309 0
-4237 -4956 0
-4237 -6405 0
-4956 -6405 0
4237 4956 6405 0
-1718 -3165 0
-1718 -6028 0
-3165 -6028 0
1718 3165 6028 0
-5278 -6497 0
-5278 -6753 0
-6497 -6753 0
5278 6497 6753 0
-888 -3688 0
-888 -6754 0
-3688 -6754 0
888 3688 6754 0
-629 -6020 0
-629 -6755 0
-6020 -6755 0
629 6020 6755 0
-6289 -6342 0
-6289 -6485 0
-6342 -6485 0
6289 6342 6485 0
-1952 -5738 0
-1952 -6756 0
-5738 -6756 0
1952 5738 6756 0
-5947 -6277 0
-5947 -6495 0
-6277 -6495 0
5947 6277 6495 0
-3929 -6075 0
-3929 -6129 0
-6075 -6129 0
3929 6075 6129 0
-6700 -6757 0
-6700 -6758 0
-6757 -6758 0
6700 6757 6758 0
-4184 -6759 0
-4184 -6760 0
-6759 -6760 0
4184 6759 6760 0
-4539 -5759 0
-4539 -6761 0
-5759 -6761 0
4539 5759 6761 0
-108 -4238 0
-108 -6582 0
-4238 -6582 0
108 4238 6582 0
-460 -3859 0
-460 -6463 0
-3859 -6463 0
460 3859 6463 0
-1792 -6401 0
-1792 -6762 0
-6401 -6762 0
1792 6401 6762 0
-1248 -6090 0
-1248 -6163 0
-6090 -6163 0
1248 6090 6163 0
-3604 -5645 0
-3604 -6763 0
-5645 -6763 0
3604 5645 6763 0
-6073 -6764 0
-6073 -6765 0
-6764 -6765 0
6073 6764 6765 0
-1009 -3642 0
-1009 -6574 0
-3642 -6574 0
1009 3642 6574 0
-1944 -6766 0
-1944 -6767 0
-6766 -6767 0
1944 6766 6767 0
-6413 -6768 0
-6413 -6769 0
-6768 -6769 0
6413 6768 6769 0
-3043 -6517 0
-3043 -6770 0
-6517 -6770 0
3043 6517 6770 0
-2111 -5574 0
-2111 -6771 0
-5574 -6771 0
2111 5574 6771 0
-2747 -5579 0
-2747 -5860 0
-5579 -5860 0
2747 5579 5860 0
-317 -832 0
-317 -6772 0
-832 -6772 0
317 832 6772 0
-3322 -5876 0
-3322 -6773 0
-5876 -6773 0
3322 5876 6773 0
-4102 -4890 0
-4102 -5730 0
-4890 -5730 0
4102 4890 5730 0
-1111 -3969 0
-1111 -4264 0
-3969 -4264 0
1111 3969 4264 0
-4942 -6709 0
-4942 -6774 0
-6709 -6774 0
4942 6709 6774 0
-5769 -6481 0
-5769 -6775 0
-6481 -6775 0
5769 6481 6775 0
-5511 -6776 0
-5511 -6777 0
-6776 -6777 0
5511 6776 6777 0
-5539 -6759 0
-5539 -6778 0
-6759 -6778 0
5539 6759 6778 0
-3068 -4524 0
-3068 -6465 0
-4524 -6465 0
3068 4524 6465 0
-121 -2902 0
-121 -5617 0
-2902 -5617 0
121 2902 5617 0
-594 -6779 0
-594 -6780 0
-6779 -6780 0
594 6779 6780 0
-2052 -4783 0
-2052 -5653 0
-4783 -5653 0
2052 4783 5653 0
-672 -2604 0
-672 -4486 0
-2604 -4486 0
672 2604 4486 0
-6292 -6781 0
-6292 -6782 0
-6781 -6782 0
6292 6781 6782 0
-3521 -5140 0
-3521 -6783 0
-5140 -6783 0
3521 5140 6783 0
-425 -5752 0
-425 -6784 0
-5752 -6784 0
425 5752 6784 0
-602 -2271 0
-602 -3863 0
-2271 -3863 0
602 2271 3863 0
-4191 -6785 0
-4191 -6786 0
-6785 -6786 0
4191 6785 6786 0
-1589 -1759 0
-1589 -5654 0
-1759 -5654 0
1589 1759 5654 0
-1127 -6787 0
-1127 -6788 0
-6787 -6788 0
1127 6787 6788 0
-3494 -6789 0
-3494 -6790 0
-6789 -6790 0
3494 6789 6790 0
-249 -5216 0
-249 -6791 0
-5216 -6791 0
249 5216 6791 0
-1380 -5442 0
-1380 -6792 0
-5442 -6792 0
1380 5442 6792 0
-6203 -6793 0
-6203 -6794 0
-6793 -6794 0
6203 6793 6794 0
-388 -4305 0
-388 -6795 0
-4305 -6795 0
388 4305 6795 0
-3329 -6076 0
-3329 -6159 0
-6076 -6159 0
3329 6076 6159 0
-3529 -5338 0
-3529 -6696 0
-5338 -6696 0
3529 5338 6696 0
-4619 -5200 0
-4619 -6036 0
-5200 -6036 0
4619 5200 6036 0
-6796 -6797 0
-6796 -6798 0
-6797 -6798 0
6796 6797 6798 0
-2702 -3484 0
-2702 -5224 0
-3484 -5224 0
2702 3484 5224 0
-932 -6799 0
-932 -6800 0
-6799 -6800 0
932 6799 6800 0
-478 -6801 0
-478 -6802 0
-6801 -6802 0
478 6801 6802 0
-2937 -6803 0
-2937 -6804 0
-6803 -6804 0
2937 6803 6804 0
-389 -1367 0
-389 -2779 0
-1367 -2779 0
389 1367 2779 0
-1232 -2891 0
-1232 -3572 0
-2891 -3572 0
1232 2891 3572 0
-170 -6134 0
-170 -6805 0
-6134 -6805 0
170 6134 6805 0
-399 -5147 0
-399 -6806 0
-5147 -6806 0
399 5147 6806 0
-6443 -6807 0
-6443 -6808 0
-6807 -6808 0
6443 6807 6808 0
-1998 -6525 0
-1998 -6809 0
-6525 -6809 0
1998 6525 6809 0
-431 -5205 0
-431 -5909 0
-5205 -5909 0
431 5205 5909 0
-4568 -5559 0
-4568 -6810 0
-5559 -6810 0
4568 5559 6810 0
-5085 -6609 0
-5085 -6811 0
-6609 -6811 0
5085 6609 6811 0
-798 -5634 0
-798 -6812 0
-5634 -6812 0
798 5634 6812 0
-563 -6813 0
-563 -6814 0
-6813 -6814 0
563 6813 6814 0
-6815 -6816 0
-6815 -6817 0
-6816 -6817 0
6815 6816 6817 0
-4285 -6818 0
-4285 -6819 0
-6818 -6819 0
4285 6818 6819 0
-390 -6820 0
-390 -6821 0
-6820 -6821 0
390 6820 6821 0
-1780 -4805 0
-1780 -6822 0
-4805 -6822 0
1780 4805 6822 0
-279 -1765 0
-279 -2689 0
-1765 -2689 0
279 1765 2689 0
-6435 -6823 0
-6435 -6824 0
-6823 -6824 0
6435 6823 6824 0
-4670 -6825 0
-4670 -6826 0
-6825 -6826 0
4670 6825 6826 0
-6784 -6827 0
-6784 -6828 0
-6827 -6828 0
6784 6827 6828 0
-789 -6213 0
-789 -6489 0
-6213 -6489 0
789 6213 6489 0
-1887 -6829 0
-1887 -6830 0
-6829 -6830 0
1887 6829 6830 0
-1604 -2267 0
-1604 -4180 0
-2267 -4180 0
1604 2267 4180 0
-1638 -6831 0
-1638 -6832 0
-6831 -6832 0
1638 6831 6832 0
-5850 -6601 0
-5850 -6666 0
-6601 -6666 0
5850 6601 6666 0
-2941 -5291 0
-2941 -6740 0
-5291 -6740 0
2941 5291 6740 0
-5782 -6833 0
-5782 -6834 0
-6833 -6834 0
5782 6833 6834 0
-4876 -6108 0
-4876 -6835 0
-6108 -6835 0
4876 6108 6835 0
-6836 -6837 0
-6836 -6838 0
-6837 -6838 0
6836 6837 6838 0
-2691 -4898 0
-2691 -6839 0
-4898 -6839 0
2691 4898 6839 0
-944 -6840 0
-944 -6841 0
-6840 -6841 0
944 6840 6841 0
-127 -155 0
-127 -6842 0
-155 -6842 0
127 155 6842 0
-5677 -6843 0
-5677 -6844 0
-6843 -6844 0
5677 6843 6844 0
-2061 -5375 0
-2061 -6845 0
-5375 -6845 0
2061 5375 6845 0
-3179 -4095 0
-3179 -6846 0
-4095 -6846 0
3179 4095 6846 0
-1149 -1802 0
-1149 -6595 0
-1802 -6595 0
1149 1802 6595 0
-5937 -6847 0
-5937 -6848 0
-6847 -6848 0
5937 6847 6848 0
-4897 -5557 0
-4897 -6849 0
-5557 -6849 0
4897 5557 6849 0
-2954 -5259 0
-2954 -6850 0
-5259 -6850 0
2954 5259 6850 0
-6671 -6851 0
-6671 -6852 0
-6851 -6852 0
6671 6851 6852 0
-989 -6853 0
-989 -6854 0
-6853 -6854 0
989 6853 6854 0
-463 -5835 0
-463 -6855 0
-5835 -6855 0
463 5835 6855 0
-4105 -5583 0
-4105 -5652 0
-5583 -5652 0
4105 5583 5652 0
-651 -5831 0
-651 -6856 0
-5831 -6856 0
651 5831 6856 0
-6857 -6858 0
-6857 -6859 0
-6858 -6859 0
6857 6858 6859 0
-3728 -6225 0
-3728 -6860 0
-6225 -6860 0
3728 6225 6860 0
-3774 -6861 0
-3774 -6862 0
-6861 -6862 0
3774 6861 6862 0
-952 -2307 0
-952 -6863 0
-2307 -6863 0
952 2307 6863 0
-1529 -6015 0
-1529 -6864 0
-6015 -6864 0
1529 6015 6864 0
-166 -4557 0
-166 -4862 0
-4557 -4862 0
166 4557 4862 0
-6491 -6636 0
-6491 -6865 0
-6636 -6865 0
6491 6636 6865 0
-5988 -6866 0
-5988 -6867 0
-6866 -6867 0
5988 6866 6867 0
-20 -1349 0
-20 -1686 0
-1349 -1686 0
20 1349 1686 0
-5059 -6124 0
-5059 -6868 0
-6124 -6868 0
5059 6124 6868 0
-2215 -6869 0
-2215 -6870 0
-6869 -6870 0
2215 6869 6870 0
-6871 -6872 0
-6871 -6873 0
-6872 -6873 0
6871 6872 6873 0
-4436 -6874 0
-4436 -6875 0
-6874 -6875 0
4436 6874 6875 0
-4457 -6876 0
-4457 -6877 0
-6876 -6877 0
4457 6876 6877 0
-574 -1632 0
-574 -3826 0
-1632 -3826 0
574 1632 3826 0
-1005 -4919 0
-1005 -5731 0
-4919 -5731 0
1005 4919 5731 0
-3349 -6878 0
-3349 -6879 0
-6878 -6879 0
3349 6878 6879 0
-1134 -5611 0
-1134 -6396 0
-5611 -6396 0
1134 5611 6396 0
-2835 -4235 0
-2835 -5622 0
-4235 -5622 0
2835 4235 5622 0
-2564 -3044 0
-2564 -6880 0
-3044 -6880 0
2564 3044 6880 0
-4300 -5468 0
-4300 -6881 0
-5468 -6881 0
4300 5468 6881 0
-1649 -5137 0
-1649 -5327 0
-5137 -5327 0
1649 5137 5327 0
-2989 -6882 0
-2989 -6883 0
-6882 -6883 0
2989 6882 6883 0
-1065 -6857 0
-1065 -6884 0
-6857 -6884 0
1065 6857 6884 0
-1303 -2177 0
-1303 -6885 0
-2177 -6885 0
1303 2177 6885 0
-2272 -6415 0
-2272 -6886 0
-6415 -6886 0
2272 6415 6886 0
-4895 -4963 0
-4895 -6887 0
-4963 -6887 0
4895 4963 6887 0
-3646 -4298 0
-3646 -4787 0
-4298 -4787 0
3646 4298 4787 0
-3346 -5411 0
-3346 -6888 0
-5411 -6888 0
3346 5411 6888 0
-1103 -6468 0
-1103 -6889 0
-6468 -6889 0
1103 6468 6889 0
-119 -6683 0
-119 -6890 0
-6683 -6890 0
119 6683 6890 0
-3785 -6335 0
-3785 -6548 0
-6335 -6548 0
3785 6335 6548 0
-2555 -5176 0
-2555 -6891 0
-5176 -6891 0
2555 5176 6891 0
-4317 -4632 0
-4317 -6113 0
-4632 -6113 0
4317 4632 6113 0
-2799 -6789 0
-2799 -6892 0
-6789 -6892 0
2799 6789 6892 0
-1467 -6893 0
-1467 -6894 0
-6893 -6894 0
1467 6893 6894 0
-6895 -6896 0
-6895 -6897 0
-6896 -6897 0
6895 6896 6897 0
-3285 -6898 0
-3285 -6899 0
-6898 -6899 0
3285 6898 6899 0
-2094 -6900 0
-2094 -6901 0
-6900 -6901 0
2094 6900 6901 0
-5323 -6583 0
-5323 -6902 0
-6583 -6902 0
5323 6583 6902 0
-2514 -5958 0
-2514 -6903 0
-5958 -6903 0
2514 5958 6903 0
-161 -2410 0
-161 -6904 0
-2410 -6904 0
161 2410 6904 0
-2445 -4260 0
-2445 -4858 0
-4260 -4858 0
2445 4260 4858 0
-2162 -6905 0
-2162 -6906 0
-6905 -6906 0
2162 6905 6906 0
-3397 -6907 0
-3397 -6908 0
-6907 -6908 0
3397 6907 6908 0
-3341 -6055 0
-3341 -6866 0
-6055 -6866 0
3341 6055 6866 0
-1931 -6716 0
-1931 -6909 0
-6716 -6909 0
1931 6716 6909 0
-5331 -5412 0
-5331 -6910 0
-5412 -6910 0
5331 5412 6910 0
-5063 -5691 0
-5063 -5777 0
-5691 -5777 0
5063 5691 5777 0
-3787 -4059 0
-3787 -6370 0
-4059 -6370 0
3787 4059 6370 0
-1123 -3522 0
-1123 -6911 0
-3522 -6911 0
1123 3522 6911 0
-765 -1556 0
-765 -6912 0
-1556 -6912 0
765 1556 6912 0
-4583 -5788 0
-4583 -6913 0
-5788 -6913 0
4583 5788 6913 0
-492 -5566 0
-492 -6914 0
-5566 -6914 0
492 5566 6914 0
-891 -6165 0
-891 -6915 0
-6165 -6915 0
891 6165 6915 0
-1541 -6916 0
-1541 -6917 0
-6916 -6917 0
1541 6916 6917 0
-867 -6430 0
-867 -6918 0
-6430 -6918 0
867 6430 6918 0
-6718 -6919 0
-6718 -6920 0
-6919 -6920 0
6718 6919 6920 0
-3228 -4233 0
-3228 -6625 0
-4233 -6625 0
3228 4233 6625 0
-2663 -6829 0
-2663 -6921 0
-6829 -6921 0
2663 6829 6921 0
-666 -6922 0
-666 -6923 0
-6922 -6923 0
666 6922 6923 0
-265 -6772 0
-265 -6924 0
-6772 -6924 0
265 6772 6924 0
-6492 -6614 0
-6492 -6925 0
-6614 -6925 0
6492 6614 6925 0
-923 -6045 0
-923 -6429 0
-6045 -6429 0
923 6045 6429 0
-1855 -6926 0
-1855 -6927 0
-6926 -6927 0
1855 6926 6927 0
-4518 -6121 0
-4518 -6928 0
-6121 -6928 0
4518 6121 6928 0
-1575 -6929 0
-1575 -6930 0
-6929 -6930 0
1575 6929 6930 0
-4940 -5714 0
-4940 -5780 0
-5714 -5780 0
4940 5714 5780 0
-1839 -3827 0
-1839 -5002 0
-3827 -5002 0
1839 3827 5002 0
-3893 -6050 0
-3893 -6931 0
-6050 -6931 0
3893 6050 6931 0
-3211 -3515 0
-3211 -5307 0
-3515 -5307 0
3211 3515 5307 0
-21 -4072 0
-21 -4565 0
-4072 -4565 0
21 4072 4565 0
-2322 -6932 0
-2322 -6933 0
-6932 -6933 0
2322 6932 6933 0
-5757 -6887 0
-5757 -6926 0
-6887 -6926 0
5757 6887 6926 0
-1732 -5822 0
-1732 -6934 0
-5822 -6934 0
1732 5822 6934 0
-2737 -6062 0
-2737 -6935 0
-6062 -6935 0
2737 6062 6935 0
-325 -6936 0
-325 -6937 0
-6936 -6937 0
325 6936 6937 0
-1216 -1734 0
-1216 -6938 0
-1734 -6938 0
1216 1734 6938 0
-4019 -4661 0
-4019 -6026 0
-4661 -6026 0
4019 4661 6026 0
-6177 -6438 0
-6177 -6939 0
-6438 -6939 0
6177 6438 6939 0
-5889 -6940 0
-5889 -6941 0
-6940 -6941 0
5889 6940 6941 0
-185 -4779 0
-185 -6622 0
-4779 -6622 0
185 4779 6622 0
-6905 -6942 0
-6905 -6943 0
-6942 -6943 0
6905 6942 6943 0
-2929 -4764 0
-2929 -6644 0
-4764 -6644 0
2929 4764 6644 0
-1133 -2269 0
-1133 -6944 0
-2269 -6944 0
1133 2269 6944 0
-5026 -5862 0
-5026 -6577 0
-5862 -6577 0
5026 5862 6577 0
-6945 -6946 0
-6945 -6947 0
-6946 -6947 0
6945 6946 6947 0
-1001 -6283 0
-1001 -6948 0
-6283 -6948 0
1001 6283 6948 0
-4287 -6909 0
-4287 -6949 0
-6909 -6949 0
4287 6909 6949 0
-4830 -6950 0
-4830 -6951 0
-6950 -6951 0
4830 6950 6951 0
-3808 -6018 0
-3808 -6952 0
-6018 -6952 0
3808 6018 6952 0
-2365 -6593 0
-2365 -6953 0
-6593 -6953 0
2365 6593 6953 0
-3180 -6433 0
-3180 -6954 0
-6433 -6954 0
3180 6433 6954 0
-2824 -4816 0
-2824 -5169 0
-4816 -5169 0
2824 4816 5169 0
-4084 -6955 0
-4084 -6956 0
-6955 -6956 0
4084 6955 6956 0
-309 -6957 0
-309 -6958 0
-6957 -6958 0
309 6957 6958 0
-869 -1468 0
-869 -6833 0
-1468 -6833 0
869 1468 6833 0
-2115 -6286 0
-2115 -6959 0
-6286 -6959 0
2115 6286 6959 0
-4548 -4900 0
-4548 -6104 0
-4900 -6104 0
4548 4900 6104 0
-6245 -6960 0
-6245 -6961 0
-6960 -6961 0
6245 6960 6961 0
-4029 -4584 0
-4029 -4959 0
-4584 -4959 0
4029 4584 4959 0
-2909 -3455 0
-2909 -3733 0
-3455 -3733 0
2909 3455 3733 0
-752 -3149 0
-752 -6962 0
-3149 -6962 0
752 3149 6962 0
-3673 -5674 0
-3673 -6963 0
-5674 -6963 0
3673 5674 6963 0
-3212 -3849 0
-3212 -6964 0
-3849 -6964 0
3212 3849 6964 0
-4860 -5345 0
-4860 -6057 0
-5345 -6057 0
4860 5345 6057 0
-2435 -5222 0
-2435 -6965 0
-5222 -6965 0
2435 5222 6965 0
-1585 -2172 0
-1585 -5156 0
-2172 -5156 0
1585 2172 5156 0
-2770 -3605 0
-2770 -5968 0
-3605 -5968 0
2770 3605 5968 0
-2825 -5651 0
-2825 -6597 0
-5651 -6597 0
2825 5651 6597 0
-2559 -2795 0
-2559 -6966 0
-2795 -6966 0
2559 2795 6966 0
-6078 -6967 0
-6078 -6968 0
-6967 -6968 0
6078 6967 6968 0
-4007 -5786 0
-4007 -6344 0
-5786 -6344 0
4007 5786 6344 0
-701 -1925 0
-701 -5494 0
-1925 -5494 0
701 1925 5494 0
-4948 -5586 0
-4948 -5824 0
-5586 -5824 0
4948 5586 5824 0
-4711 -6921 0
-4711 -6969 0
-6921 -6969 0
4711 6921 6969 0
-99 -2017 0
-99 -6970 0
-2017 -6970 0
99 2017 6970 0
-3498 -5024 0
-3498 -6971 0
-5024 -6971 0
3498 5024 6971 0
-3233 -3648 0
-3233 -4466 0
-3648 -4466 0
3233 3648 4466 0
-905 -2659 0
-905 -6972 0
-2659 -6972 0
905 2659 6972 0
-5047 -6973 0
-5047 -6974 0
-6973 -6974 0
5047 6973 6974 0
-1895 -6927 0
-1895 -6975 0
-6927 -6975 0
1895 6927 6975 0
-5981 -6976 0
-5981 -6977 0
-6976 -6977 0
5981 6976 6977 0
-5671 -6081 0
-5671 -6978 0
-6081 -6978 0
5671 6081 6978 0
-5443 -6840 0
-5443 -6979 0
-6840 -6979 0
5443 6840 6979 0
-1672 -3263 0
-1672 -4431 0
-3263 -4431 0
1672 3263 4431 0
-3097 -5392 0
-3097 -6019 0
-5392 -6019 0
3097 5392 6019 0
-729 -6647 0
-729 -6980 0
-6647 -6980 0
729 6647 6980 0
-5263 -5266 0
-5263 -6564 0
-5266 -6564 0
5263 5266 6564 0
-850 -1586 0
-850 -5045 0
-1586 -5045 0
850 1586 5045 0
-4696 -6807 0
-4696 -6981 0
-6807 -6981 0
4696 6807 6981 0
-5848 -6982 0
-5848 -6983 0
-6982 -6983 0
5848 6982 6983 0
-6677 -6910 0
-6677 -6984 0
-6910 -6984 0
6677 6910 6984 0
-5283 -6588 0
-5283 -6884 0
-6588 -6884 0
5283 6588 6884 0
-3499 -4875 0
-3499 -6985 0
-4875 -6985 0
3499 4875 6985 0
-1522 -4653 0
-1522 -5013 0
-4653 -5013 0
1522 4653 5013 0
-5293 -6986 0
-5293 -6987 0
-6986 -6987 0
5293 6986 6987 0
-4280 -5173 0
-4280 -6988 0
-5173 -6988 0
4280 5173 6988 0
-5020 -5934 0
-5020 -6989 0
-5934 -6989 0
5020 5934 6989 0
-5540 -5836 0
-5540 -6990 0
-5836 -6990 0
5540 5836 6990 0
-4360 -6950 0
-4360 -6991 0
-6950 -6991 0
4360 6950 6991 0
-696 -4850 0
-696 -6551 0
-4850 -6551 0
696 4850 6551 0
-4129 -6077 0
-4129 -6992 0
-6077 -6992 0
4129 6077 6992 0
-3573 -4784 0
-3573 -6993 0
-4784 -6993 0
3573 4784 6993 0
-175 -6994 0
-175 -6995 0
-6994 -6995 0
175 6994 6995 0
-2331 -4492 0
-2331 -6996 0
-4492 -6996 0
2331 4492 6996 0
-2972 -5940 0
-2972 -6853 0
-5940 -6853 0
2972 5940 6853 0
-2624 -2976 0
-2624 -6997 0
-2976 -6997 0
2624 2976 6997 0
-172 -6998 0
-172 -6999 0
-6998 -6999 0
172 6998 6999 0
-3978 -6406 0
-3978 -6851 0
-6406 -6851 0
3978 6406 6851 0
-6399 -6527 0
-6399 -7000 0
-6527 -7000 0
6399 6527 7000 0
-247 -616 0
-247 -1268 0
-616 -1268 0
247 616 1268 0
-3011 -4502 0
-3011 -5082 0
-4502 -5082 0
3011 4502 5082 0
-6806 -7001 0
-6806 -7002 0
-7001 -7002 0
6806 7001 7002 0
-4440 -6871 0
-4440 -7003 0
-6871 -7003 0
4440 6871 7003 0
-373 -5258 0
-373 -5861 0
-5258 -5861 0
373 5258 5861 0
-6039 -6323 0
-6039 -6973 0
-6323 -6973 0
6039 6323 6973 0
-5060 -6670 0
-5060 -7004 0
-6670 -7004 0
5060 6670 7004 0
-3714 -7005 0
-3714 -7006 0
-7005 -7006 0
3714 7005 7006 0
-495 -2079 0
-495 -7007 0
-2079 -7007 0
495 2079 7007 0
-5495 -5531 0
-5495 -6745 0
-5531 -6745 0
5495 5531 6745 0
-2706 -5183 0
-2706 -7008 0
-5183 -7008 0
2706 5183 7008 0
-1076 -1256 0
-1076 -6665 0
-1256 -6665 0
1076 1256 6665 0
-1999 -5038 0
-1999 -7009 0
-5038 -7009 0
1999 5038 7009 0
-3330 -4777 0
-3330 -7010 0
-4777 -7010 0
3330 4777 7010 0
-6645 -7011 0
-6645 -7012 0
-7011 -7012 0
6645 7011 7012 0
-124 -972 0
-124 -7013 0
-972 -7013 0
124 972 7013 0
-3100 -5604 0
-3100 -6856 0
-5604 -6856 0
3100 5604 6856 0
-6820 -6954 0
-6820 -7014 0
-6954 -7014 0
6820 6954 7014 0
-5832 -7015 0
-5832 -7016 0
-7015 -7016 0
5832 7015 7016 0
-3823 -5637 0
-3823 -6431 0
-5637 -6431 0
3823 5637 6431 0
-4185 -6377 0
-4185 -6960 0
-6377 -6960 0
4185 6377 6960 0
-1885 -4869 0
-1885 -6913 0
-4869 -6913 0
1885 4869 6913 0
-1896 -7017 0
-1896 -7018 0
-7017 -7018 0
1896 7017 7018 0
-4675 -4863 0
-4675 -6641 0
-4863 -6641 0
4675 4863 6641 0
-534 -3932 0
-534 -7019 0
-3932 -7019 0
534 3932 7019 0
-2163 -2560 0
-2163 -7020 0
-2560 -7020 0
2163 2560 7020 0
-1902 -6984 0
-1902 -7021 0
-6984 -7021 0
1902 6984 7021 0
-2087 -2290 0
-2087 -7022 0
-2290 -7022 0
2087 2290 7022 0
-1438 -7023 0
-1438 -7024 0
-7023 -7024 0
1438 7023 7024 0
-2508 -6589 0
-2508 -7025 0
-6589 -7025 0
2508 6589 7025 0
-1633 -6915 0
-1633 -7026 0
-6915 -7026 0
1633 6915 7026 0
-1345 -3881 0
-1345 -7027 0
-3881 -7027 0
1345 3881 7027 0
-872 -4177 0
-872 -5969 0
-4177 -5969 0
872 4177 5969 0
-2863 -4682 0
-2863 -7028 0
-4682 -7028 0
2863 4682 7028 0
-1554 -1804 0
-1554 -3543 0
-1804 -3543 0
1554 1804 3543 0
-4865 -7029 0
-4865 -7030 0
-7029 -7030 0
4865 7029 7030 0
-3835 -5473 0
-3835 -6810 0
-5473 -6810 0
3835 5473 6810 0
-2191 -4246 0
-2191 -7031 0
-4246 -7031 0
2191 4246 7031 0
-6783 -7032 0
-6783 -7033 0
-7032 -7033 0
6783 7032 7033 0
-113 -6948 0
-113 -7034 0
-6948 -7034 0
113 6948 7034 0
-2192 -4234 0
-2192 -4596 0
-4234 -4596 0
2192 4234 4596 0
-1475 -6393 0
-1475 -6425 0
-6393 -6425 0
1475 6393 6425 0
-3360 -3558 0
-3360 -5437 0
-3558 -5437 0
3360 3558 5437 0
-1432 -3555 0
-1432 -5991 0
-3555 -5991 0
1432 3555 5991 0
-669 -4826 0
-669 -5571 0
-4826 -5571 0
669 4826 5571 0
-5882 -6235 0
-5882 -6992 0
-6235 -6992 0
5882 6235 6992 0
-2143 -2853 0
-2143 -6643 0
-2853 -6643 0
2143 2853 6643 0
-6271 -6374 0
-6271 -7035 0
-6374 -7035 0
6271 6374 7035 0
-2037 -6755 0
-2037 -7036 0
-6755 -7036 0
2037 6755 7036 0
-1751 -7001 0
-1751 -7037 0
-7001 -7037 0
1751 7001 7037 0
-7038 -7039 0
-7038 -7040 0
-7039 -7040 0
7038 7039 7040 0
-2463 -5675 0
-2463 -6071 0
-5675 -6071 0
2463 5675 6071 0
-977 -6402 0
-977 -7041 0
-6402 -7041 0
977 6402 7041 0
-1354 -6808 0
-1354 -7042 0
-6808 -7042 0
1354 6808 7042 0
-3508 -3743 0
-3508 -7043 0
-3743 -7043 0
3508 3743 7043 0
-5644 -5942 0
-5644 -7044 0
-5942 -7044 0
5644 5942 7044 0
-6726 -6736 0
-6726 -7045 0
-6736 -7045 0
6726 6736 7045 0
-2201 -6336 0
-2201 -7046 0
-6336 -7046 0
2201 6336 7046 0
-3540 -6867 0
-3540 -7047 0
-6867 -7047 0
3540 6867 7047 0
-4803 -6742 0
-4803 -7048 0
-6742 -7048 0
4803 6742 7048 0
-3875 -5827 0
-3875 -7049 0
-5827 -7049 0
3875 5827 7049 0
-3765 -6680 0
-3765 -7050 0
-6680 -7050 0
3765 6680 7050 0
-4092 -6046 0
-4092 -7051 0
-6046 -7051 0
4092 6046 7051 0
-2820 -3961 0
-2820 -7052 0
-3961 -7052 0
2820 3961 7052 0
-6346 -6764 0
-6346 -7053 0
-6764 -7053 0
6346 6764 7053 0
-178 -674 0
-178 -4171 0
-674 -4171 0
178 674 4171 0
-1888 -3667 0
-1888 -4389 0
-3667 -4389 0
1888 3667 4389 0
-369 -5698 0
-369 -7054 0
-5698 -7054 0
369 5698 7054 0
-5343 -5913 0
-5343 -6175 0
-5913 -6175 0
5343 5913 6175 0
-5630 -7055 0
-5630 -7056 0
-7055 -7056 0
5630 7055 7056 0
-1340 -3638 0
-1340 -7057 0
-3638 -7057 0
1340 3638 7057 0
-4774 -6640 0
-4774 -7058 0
-6640 -7058 0
4774 6640 7058 0
-335 -1669 0
-335 -4976 0
-1669 -4976 0
335 1669 4976 0
-4799 -4832 0
-4799 -7059 0
-4832 -7059 0
4799 4832 7059 0
-1259 -2048 0
-1259 -2208 0
-2048 -2208 0
1259 2048 2208 0
-4899 -6974 0
-4899 -7060 0
-6974 -7060 0
4899 6974 7060 0
-4685 -7061 0
-4685 -7062 0
-7061 -7062 0
4685 7061 7062 0
-273 -5295 0
-273 -7063 0
-5295 -7063 0
273 5295 7063 0
-1700 -5902 0
-1700 -6395 0
-5902 -6395 0
1700 5902 6395 0
-3473 -5042 0
-3473 -7064 0
-5042 -7064 0
3473 5042 7064 0
-6537 -6963 0
-6537 -7065 0
-6963 -7065 0
6537 6963 7065 0
-2342 -6535 0
-2342 -6633 0
-6535 -6633 0
2342 6535 6633 0
-4231 -7066 0
-4231 -7067 0
-7066 -7067 0
4231 7066 7067 0
-812 -6131 0
-812 -7068 0
-6131 -7068 0
812 6131 7068 0
-3836 -7069 0
-3836 -7070 0
-7069 -7070 0
3836 7069 7070 0
-794 -2978 0
-794 -6566 0
-2978 -6566 0
794 2978 6566 0
-4926 -5158 0
-4926 -7071 0
-5158 -7071 0
4926 5158 7071 0
-2599 -7072 0
-2599 -7073 0
-7072 -7073 0
2599 7072 7073 0
-1119 -5111 0
-1119 -6233 0
-5111 -6233 0
1119 5111 6233 0
-3819 -3887 0
-3819 -7074 0
-3887 -7074 0
3819 3887 7074 0
-3412 -4569 0
-3412 -4968 0
-4569 -4968 0
3412 4569 4968 0
-3414 -4574 0
-3414 -7075 0
-4574 -7075 0
3414 4574 7075 0
-692 -5257 0
-692 -7076 0
-5257 -7076 0
692 5257 7076 0
-5040 -5948 0
-5040 -7077 0
-5948 -7077 0
5040 5948 7077 0
-5778 -6607 0
-5778 -7078 0
-6607 -7078 0
5778 6607 7078 0
-3239 -5728 0
-3239 -6295 0
-5728 -6295 0
3239 5728 6295 0
-1965 -4201 0
-1965 -7079 0
-4201 -7079 0
1965 4201 7079 0
-5648 -5823 0
-5648 -7080 0
-5823 -7080 0
5648 5823 7080 0
-964 -3258 0
-964 -4960 0
-3258 -4960 0
964 3258 4960 0
-4731 -6792 0
-4731 -7081 0
-6792 -7081 0
4731 6792 7081 0
-1688 -3012 0
-1688 -7082 0
-3012 -7082 0
1688 3012 7082 0
-4065 -4811 0
-4065 -7083 0
-4811 -7083 0
4065 4811 7083 0
-6397 -7084 0
-6397 -7085 0
-7084 -7085 0
6397 7084 7085 0
-1028 -7086 0
-1028 -7087 0
-7086 -7087 0
1028 7086 7087 0
-2358 -3971 0
-2358 -7088 0
-3971 -7088 0
2358 3971 7088 0
-4945 -6007 0
-4945 -6419 0
-6007 -6419 0
4945 6007 6419 0
-934 -3470 0
-934 -6282 0
-3470 -6282 0
934 3470 6282 0
-4239 -5580 0
-4239 -7089 0
-5580 -7089 0
4239 5580 7089 0
-2698 -3155 0
-2698 -7090 0
-3155 -7090 0
2698 3155 7090 0
-2121 -6776 0
-2121 -7091 0
-6776 -7091 0
2121 6776 7091 0
-4617 -5710 0
-4617 -7092 0
-5710 -7092 0
4617 5710 7092 0
-4918 -6765 0
-4918 -7064 0
-6765 -7064 0
4918 6765 7064 0
-2049 -5952 0
-2049 -7093 0
-5952 -7093 0
2049 5952 7093 0
-1557 -5868 0
-1557 -6891 0
-5868 -6891 0
1557 5868 6891 0
-186 -3395 0
-186 -7094 0
-3395 -7094 0
186 3395 7094 0
-967 -5478 0
-967 -6407 0
-5478 -6407 0
967 5478 6407 0
-5500 -7038 0
-5500 -7095 0
-7038 -7095 0
5500 7038 7095 0
-6185 -7096 0
-6185 -7097 0
-7096 -7097 0
6185 7096 7097 0
-6994 -7082 0
-6994 -7098 0
-7082 -7098 0
6994 7082 7098 0
-1610 -4503 0
-1610 -7099 0
-4503 -7099 0
1610 4503 7099 0
-392 -523 0
-392 -7100 0
-523 -7100 0
392 523 7100 0
-3251 -3915 0
-3251 -6445 0
-3915 -6445 0
3251 3915 6445 0
-5305 -5457 0
-5305 -7101 0
-5457 -7101 0
5305 5457 7101 0
-2015 -5647 0
-2015 -6813 0
-5647 -6813 0
2015 5647 6813 0
-4987 -6355 0
-4987 -6553 0
-6355 -6553 0
4987 6355 6553 0
-2979 -4961 0
-2979 -6457 0
-4961 -6457 0
2979 4961 6457 0
-2637 -6836 0
-2637 -7050 0
-6836 -7050 0
2637 6836 7050 0
-39 -1293 0
-39 -2510 0
-1293 -2510 0
39 1293 2510 0
-1670 -6208 0
-1670 -7102 0
-6208 -7102 0
1670 6208 7102 0
-2748 -4604 0
-2748 -7103 0
-4604 -7103 0
2748 4604 7103 0
-76 -5794 0
-76 -7075 0
-5794 -7075 0
76 5794 7075 0
-2684 -6394 0
-2684 -7048 0
-6394 -7048 0
2684 6394 7048 0
-1987 -6138 0
-1987 -7104 0
-6138 -7104 0
1987 6138 7104 0
-2569 -4390 0
-2569 -6082 0
-4390 -6082 0
2569 4390 6082 0
-2242 -2563 0
-2242 -7105 0
-2563 -7105 0
2242 2563 7105 0
-261 -3252 0
-261 -5163 0
-3252 -5163 0
261 3252 5163 0
-2908 -6033 0
-2908 -7106 0
-6033 -7106 0
2908 6033 7106 0
-6841 -7107 0
-6841 -7108 0
-7107 -7108 0
6841 7107 7108 0
-1824 -2716 0
-1824 -6021 0
-2716 -6021 0
1824 2716 6021 0
-1682 -2012 0
-1682 -7109 0
-2012 -7109 0
1682 2012 7109 0
-1112 -1183 0
-1112 -7110 0
-1183 -7110 0
1112 1183 7110 0
-4192 -7111 0
-4192 -7112 0
-7111 -7112 0
4192 7111 7112 0
-1328 -6924 0
-1328 -7113 0
-6924 -7113 0
1328 6924 7113 0
-4873 -4887 0
-4873 -7114 0
-4887 -7114 0
4873 4887 7114 0
-228 -349 0
-228 -7115 0
-349 -7115 0
228 349 7115 0
-3203 -4048 0
-3203 -7116 0
-4048 -7116 0
3203 4048 7116 0
-1738 -4017 0
-1738 -7117 0
-4017 -7117 0
1738 4017 7117 0
-5184 -5380 0
-5184 -7118 0
-5380 -7118 0
5184 5380 7118 0
-6411 -7119 0
-6411 -7120 0
-7119 -7120 0
6411 7119 7120 0
-1473 -2766 0
-1473 -5612 0
-2766 -5612 0
1473 2766 5612 0
-1208 -5317 0
-1208 -6306 0
-5317 -6306 0
1208 5317 6306 0
-3331 -4994 0
-3331 -7121 0
-4994 -7121 0
3331 4994 7121 0
-5247 -5431 0
-5247 -7122 0
-5431 -7122 0
5247 5431 7122 0
-1469 -7009 0
-1469 -7123 0
-7009 -7123 0
1469 7009 7123 0
-1470 -2796 0
-1470 -7124 0
-2796 -7124 0
1470 2796 7124 0
-2403 -3213 0
-2403 -4922 0
-3213 -4922 0
2403 3213 4922 0
-4915 -5839 0
-4915 -7125 0
-5839 -7125 0
4915 5839 7125 0
-1742 -5662 0
-1742 -6250 0
-5662 -6250 0
1742 5662 6250 0
-1311 -2997 0
-1311 -6997 0
-2997 -6997 0
1311 2997 6997 0
-1995 -3005 0
-1995 -7126 0
-3005 -7126 0
1995 3005 7126 0
-6239 -7127 0
-6239 -7128 0
-7127 -7128 0
6239 7127 7128 0
-3074 -4148 0
-3074 -7129 0
-4148 -7129 0
3074 4148 7129 0
-4974 -6257 0
-4974 -7104 0
-6257 -7104 0
4974 6257 7104 0
-1920 -5284 0
-1920 -6469 0
-5284 -6469 0
1920 5284 6469 0
-493 -7057 0
-493 -7130 0
-7057 -7130 0
493 7057 7130 0
-4043 -6585 0
-4043 -7131 0
-6585 -7131 0
4043 6585 7131 0
-779 -5444 0
-779 -7132 0
-5444 -7132 0
779 5444 7132 0
-3963 -5799 0
-3963 -7122 0
-5799 -7122 0
3963 5799 7122 0
-4790 -7133 0
-4790 -7134 0
-7133 -7134 0
4790 7133 7134 0
-444 -4051 0
-444 -7135 0
-4051 -7135 0
444 4051 7135 0
-4891 -7032 0
-4891 -7114 0
-7032 -7114 0
4891 7032 7114 0
-817 -4559 0
-817 -6341 0
-4559 -6341 0
817 4559 6341 0
-2129 -5975 0
-2129 -7136 0
-5975 -7136 0
2129 5975 7136 0
-911 -4560 0
-911 -7137 0
-4560 -7137 0
911 4560 7137 0
-2285 -3367 0
-2285 -7138 0
-3367 -7138 0
2285 3367 7138 0
-883 -2622 0
-883 -6067 0
-2622 -6067 0
883 2622 6067 0
-3267 -5766 0
-3267 -6270 0
-5766 -6270 0
3267 5766 6270 0
-5761 -6571 0
-5761 -6712 0
-6571 -6712 0
5761 6571 6712 0
-2924 -2992 0
-2924 -7139 0
-2992 -7139 0
2924 2992 7139 0
-434 -3069 0
-434 -7072 0
-3069 -7072 0
434 3069 7072 0
-4133 -6263 0
-4133 -7140 0
-6263 -7140 0
4133 6263 7140 0
-6132 -7089 0
-6132 -7141 0
-7089 -7141 0
6132 7089 7141 0
-3974 -7142 0
-3974 -7143 0
-7142 -7143 0
3974 7142 7143 0
-5501 -7144 0
-5501 -7145 0
-7144 -7145 0
5501 7144 7145 0
-1929 -3788 0
-1929 -7146 0
-3788 -7146 0
1929 3788 7146 0
-229 -4541 0
-229 -7147 0
-4541 -7147 0
229 4541 7147 0
-5036 -6575 0
-5036 -7148 0
-6575 -7148 0
5036 6575 7148 0
-2660 -4577 0
-2660 -7149 0
-4577 -7149 0
2660 4577 7149 0
-824 -2699 0
-824 -5000 0
-2699 -5000 0
824 2699 5000 0
-1530 -2570 0
-1530 -4932 0
-2570 -4932 0
1530 2570 4932 0
-2250 -3413 0
-2250 -5254 0
-3413 -5254 0
2250 3413 5254 0
-4265 -7150 0
-4265 -7151 0
-7150 -7151 0
4265 7150 7151 0
-1107 -2404 0
-1107 -7152 0
-2404 -7152 0
1107 2404 7152 0
-4456 -4874 0
-4456 -6825 0
-4874 -6825 0
4456 4874 6825 0
-667 -2525 0
-667 -5538 0
-2525 -5538 0
667 2525 5538 0
-4992 -5661 0
-4992 -7153 0
-5661 -7153 0
4992 5661 7153 0
-2175 -3352 0
-2175 -7154 0
-3352 -7154 0
2175 3352 7154 0
-427 -702 0
-427 -4993 0
-702 -4993 0
427 702 4993 0
-7155 -7156 0
-7155 -7157 0
-7156 -7157 0
7155 7156 7157 0
-7095 -7158 0
-7095 -7159 0
-7158 -7159 0
7095 7158 7159 0
-1781 -4429 0
-1781 -6715 0
-4429 -6715 0
1781 4429 6715 0
-3196 -7160 0
-3196 -7161 0
-7160 -7161 0
3196 7160 7161 0
-2802 -5408 0
-2802 -7162 0
-5408 -7162 0
2802 5408 7162 0
-5515 -6796 0
-5515 -7109 0
-6796 -7109 0
5515 6796 7109 0
-2149 -2656 0
-2149 -4806 0
-2656 -4806 0
2149 2656 4806 0
-2444 -2724 0
-2444 -2958 0
-2724 -2958 0
2444 2724 2958 0
-6095 -7163 0
-6095 -7164 0
-7163 -7164 0
6095 7163 7164 0
-2515 -7165 0
-2515 -7166 0
-7165 -7166 0
2515 7165 7166 0
-644 -5720 0
-644 -7167 0
-5720 -7167 0
644 5720 7167 0
-1806 -1869 0
-1806 -5294 0
-1869 -5294 0
1806 1869 5294 0
-7168 -7169 0
-7168 -7170 0
-7169 -7170 0
7168 7169 7170 0
-6296 -7171 0
-6296 -7172 0
-7171 -7172 0
6296 7171 7172 0
-1785 -3081 0
-1785 -7173 0
-3081 -7173 0
1785 3081 7173 0
-3007 -6545 0
-3007 -7174 0
-6545 -7174 0
3007 6545 7174 0
-2089 -5018 0
-2089 -5597 0
-5018 -5597 0
2089 5018 5597 0
-5402 -6514 0
-5402 -7175 0
-6514 -7175 0
5402 6514 7175 0
-1387 -6274 0
-1387 -6846 0
-6274 -6846 0
1387 6274 6846 0
-5593 -7176 0
-5593 -7177 0
-7176 -7177 0
5593 7176 7177 0
-2101 -6964 0
-2101 -7178 0
-6964 -7178 0
2101 6964 7178 0
-2388 -6929 0
-2388 -7179 0
-6929 -7179 0
2388 6929 7179 0
-89 -3176 0
-89 -4427 0
-3176 -4427 0
89 3176 4427 0
-125 -3178 0
-125 -4030 0
-3178 -4030 0
125 3178 4030 0
-6890 -7045 0
-6890 -7180 0
-7045 -7180 0
6890 7045 7180 0
-3583 -4418 0
-3583 -6368 0
-4418 -6368 0
3583 4418 6368 0
-167 -2573 0
-167 -7181 0
-2573 -7181 0
167 2573 7181 0
-4004 -6888 0
-4004 -7182 0
-6888 -7182 0
4004 6888 7182 0
-974 -5029 0
-974 -6900 0
-5029 -6900 0
974 5029 6900 0
-3902 -4957 0
-3902 -6568 0
-4957 -6568 0
3902 4957 6568 0
-4241 -5523 0
-4241 -7183 0
-5523 -7183 0
4241 5523 7183 0
-769 -6684 0
-769 -7184 0
-6684 -7184 0
769 6684 7184 0
-4236 -5193 0
-4236 -7185 0
-5193 -7185 0
4236 5193 7185 0
-3542 -7186 0
-3542 -7187 0
-7186 -7187 0
3542 7186 7187 0
-7044 -7188 0
-7044 -7189 0
-7188 -7189 0
7044 7188 7189 0
-1919 -3589 0
-1919 -7190 0
-3589 -7190 0
1919 3589 7190 0
-5019 -5497 0
-5019 -5685 0
-5497 -5685 0
5019 5497 5685 0
-4270 -5255 0
-4270 -7191 0
-5255 -7191 0
4270 5255 7191 0
-7178 -7192 0
-7178 -7193 0
-7192 -7193 0
7178 7192 7193 0
-529 -5916 0
-529 -7194 0
-5916 -7194 0
529 5916 7194 0
-372 -7171 0
-372 -7195 0
-7171 -7195 0
372 7171 7195 0
-416 -3225 0
-416 -6797 0
-3225 -6797 0
416 3225 6797 0
-176 -6254 0
-176 -7196 0
-6254 -7196 0
176 6254 7196 0
-5154 -6024 0
-5154 -7123 0
-6024 -7123 0
5154 6024 7123 0
-1416 -5150 0
-1416 -7197 0
-5150 -7197 0
1416 5150 7197 0
-410 -4025 0
-410 -7198 0
-4025 -7198 0
410 4025 7198 0
-7199 -7200 0
-7199 -7201 0
-7200 -7201 0
7199 7200 7201 0
-3249 -6380 0
-3249 -6757 0
-6380 -6757 0
3249 6380 6757 0
-2318 -7008 0
-2318 -7202 0
-7008 -7202 0
2318 7008 7202 0
-1331 -2894 0
-1331 -3231 0
-2894 -3231 0
1331 2894 3231 0
-4266 -5518 0
-4266 -7203 0
-5518 -7203 0
4266 5518 7203 0
-6002 -6620 0
-6002 -7204 0
-6620 -7204 0
6002 6620 7204 0
-4255 -6236 0
-4255 -6818 0
-6236 -6818 0
4255 6236 6818 0
-961 -1420 0
-961 -7131 0
-1420 -7131 0
961 1420 7131 0
-5369 -6422 0
-5369 -7093 0
-6422 -7093 0
5369 6422 7093 0
-2406 -2527 0
-2406 -3909 0
-2527 -3909 0
2406 2527 3909 0
-5520 -6178 0
-5520 -7205 0
-6178 -7205 0
5520 6178 7205 0
-4337 -6660 0
-4337 -6663 0
-6660 -6663 0
4337 6660 6663 0
-2254 -3253 0
-2254 -4470 0
-3253 -4470 0
2254 3253 4470 0
-1095 -6252 0
-1095 -6878 0
-6252 -6878 0
1095 6252 6878 0
-378 -7019 0
-378 -7206 0
-7019 -7206 0
378 7019 7206 0
-3161 -5196 0
-3161 -7207 0
-5196 -7207 0
3161 5196 7207 0
-5800 -6831 0
-5800 -7208 0
-6831 -7208 0
5800 6831 7208 0
-5963 -6079 0
-5963 -7209 0
-6079 -7209 0
5963 6079 7209 0
-6387 -6642 0
-6387 -6793 0
-6642 -6793 0
6387 6642 6793 0
-5828 -5928 0
-5828 -7210 0
-5928 -7210 0
5828 5928 7210 0
-1612 -4819 0
-1612 -7211 0
-4819 -7211 0
1612 4819 7211 0
-5221 -6092 0
-5221 -7212 0
-6092 -7212 0
5221 6092 7212 0
-3587 -5588 0
-3587 -7213 0
-5588 -7213 0
3587 5588 7213 0
-1707 -5209 0
-1707 -7214 0
-5209 -7214 0
1707 5209 7214 0
-3345 -6732 0
-3345 -7215 0
-6732 -7215 0
3345 6732 7215 0
-3602 -5273 0
-3602 -7216 0
-5273 -7216 0
3602 5273 7216 0
-1074 -5091 0
-1074 -7217 0
-5091 -7217 0
1074 5091 7217 0
-2233 -2414 0
-2233 -4126 0
-2414 -4126 0
2233 2414 4126 0
-748 -2864 0
-748 -5014 0
-2864 -5014 0
748 2864 5014 0
-7173 -7218 0
-7173 -7219 0
-7218 -7219 0
7173 7218 7219 0
-3245 -6074 0
-3245 -7084 0
-6074 -7084 0
3245 6074 7084 0
-2540 -4434 0
-2540 -6902 0
-4434 -6902 0
2540 4434 6902 0
-5905 -6063 0
-5905 -6630 0
-6063 -6630 0
5905 6063 6630 0
-3368 -6931 0
-3368 -7220 0
-6931 -7220 0
3368 6931 7220 0
-5256 -6779 0
-5256 -7221 0
-6779 -7221 0
5256 6779 7221 0
-387 -4656 0
-387 -7222 0
-4656 -7222 0
387 4656 7222 0
-2182 -2500 0
-2182 -6722 0
-2500 -6722 0
2182 2500 6722 0
-3758 -6686 0
-3758 -6839 0
-6686 -6839 0
3758 6686 6839 0
-187 -2910 0
-187 -7223 0
-2910 -7223 0
187 2910 7223 0
-419 -5798 0
-419 -6610 0
-5798 -6610 0
419 5798 6610 0
-1462 -6540 0
-1462 -7224 0
-6540 -7224 0
1462 6540 7224 0
-3563 -7225 0
-3563 -7226 0
-7225 -7226 0
3563 7225 7226 0
-6386 -7227 0
-6386 -7228 0
-7227 -7228 0
6386 7227 7228 0
-2703 -7229 0
-2703 -7230 0
-7229 -7230 0
2703 7229 7230 0
-502 -7231 0
-502 -7232 0
-7231 -7232 0
502 7231 7232 0
-3816 -5998 0
-3816 -6845 0
-5998 -6845 0
3816 5998 6845 0
-3286 -7233 0
-3286 -7234 0
-7233 -7234 0
3286 7233 7234 0
-2836 -2962 0
-2836 -7235 0
-2962 -7235 0
2836 2962 7235 0
-5274 -7026 0
-5274 -7236 0
-7026 -7236 0
5274 7026 7236 0
-1192 -1840 0
-1192 -5475 0
-1840 -5475 0
1192 1840 5475 0
-3398 -3491 0
-3398 -3952 0
-3491 -3952 0
3398 3491 3952 0
-1704 -3679 0
-1704 -3817 0
-3679 -3817 0
1704 3679 3817 0
-1294 -3183 0
-1294 -7237 0
-3183 -7237 0
1294 3183 7237 0
-468 -4644 0
-468 -6730 0
-4644 -6730 0
468 4644 6730 0
-4668 -6522 0
-4668 -7238 0
-6522 -7238 0
4668 6522 7238 0
-4326 -5553 0
-4326 -7239 0
-5553 -7239 0
4326 5553 7239 0
-1217 -1773 0
-1217 -6959 0
-1773 -6959 0
1217 1773 6959 0
-210 -3279 0
-210 -7240 0
-3279 -7240 0
210 3279 7240 0
-1754 -3509 0
-1754 -7241 0
-3509 -7241 0
1754 3509 7241 0
-3899 -5561 0
-3899 -7242 0
-5561 -7242 0
3899 5561 7242 0
-1921 -5594 0
-1921 -6970 0
-5594 -6970 0
1921 5594 6970 0
-7243 -7244 0
-7243 -7245 0
-7244 -7245 0
7243 7244 7245 0
-5581 -6273 0
-5581 -7246 0
-6273 -7246 0
5581 6273 7246 0
-2738 -4205 0
-2738 -5230 0
-4205 -5230 0
2738 4205 5230 0
-7203 -7247 0
-7203 -7248 0
-7247 -7248 0
7203 7247 7248 0
-3857 -6743 0
-3857 -7249 0
-6743 -7249 0
3857 6743 7249 0
-3778 -7250 0
-3778 -7251 0
-7250 -7251 0
3778 7250 7251 0
-6912 -7252 0
-6912 -7253 0
-7252 -7253 0
6912 7252 7253 0
-181 -4409 0
-181 -7254 0
-4409 -7254 0
181 4409 7254 0
-3884 -7085 0
-3884 -7255 0
-7085 -7255 0
3884 7085 7255 0
-2805 -4483 0
-2805 -4531 0
-4483 -4531 0
2805 4483 4531 0
-4386 -5726 0
-4386 -7256 0
-5726 -7256 0
4386 5726 7256 0
-3795 -6778 0
-3795 -6932 0
-6778 -6932 0
3795 6778 6932 0
-6822 -7107 0
-6822 -7257 0
-7107 -7257 0
6822 7107 7257 0
-5445 -7258 0
-5445 -7259 0
-7258 -7259 0
5445 7258 7259 0
-2337 -5591 0
-2337 -5803 0
-5591 -5803 0
2337 5591 5803 0
-1891 -3913 0
-1891 -7148 0
-3913 -7148 0
1891 3913 7148 0
-3879 -5313 0
-3879 -6064 0
-5313 -6064 0
3879 5313 6064 0
-74 -382 0
-74 -3711 0
-382 -3711 0
74 382 3711 0
-4056 -7247 0
-4056 -7260 0
-7247 -7260 0
4056 7247 7260 0
-5093 -7261 0
-5093 -7262 0
-7261 -7262 0
5093 7261 7262 0
-4032 -4475 0
-4032 -7195 0
-4475 -7195 0
4032 4475 7195 0
-7099 -7172 0
-7099 -7263 0
-7172 -7263 0
7099 7172 7263 0
-4193 -4788 0
-4193 -7264 0
-4788 -7264 0
4193 4788 7264 0
-1115 -3064 0
-1115 -7265 0
-3064 -7265 0
1115 3064 7265 0
-5049 -7066 0
-5049 -7266 0
-7066 -7266 0
5049 7066 7266 0
-3598 -6488 0
-3598 -7267 0
-6488 -7267 0
3598 6488 7267 0
-1825 -3051 0
-1825 -5471 0
-3051 -5471 0
1825 3051 5471 0
-947 -6648 0
-947 -7268 0
-6648 -7268 0
947 6648 7268 0
-7269 -7270 0
-7269 -7271 0
-7270 -7271 0
7269 7270 7271 0
-1099 -2704 0
-1099 -5219 0
-2704 -5219 0
1099 2704 5219 0
-3828 -3938 0
-3828 -4748 0
-3938 -4748 0
3828 3938 4748 0
-6681 -7272 0
-6681 -7273 0
-7272 -7273 0
6681 7272 7273 0
-1581 -3471 0
-1581 -4098 0
-3471 -4098 0
1581 3471 4098 0
-4195 -6868 0
-4195 -7274 0
-6868 -7274 0
4195 6868 7274 0
-2953 -6922 0
-2953 -7275 0
-6922 -7275 0
2953 6922 7275 0
-844 -1635 0
-844 -7261 0
-1635 -7261 0
844 1635 7261 0
-546 -1904 0
-546 -5524 0
-1904 -5524 0
546 1904 5524 0
-3482 -4639 0
-3482 -4778 0
-4639 -4778 0
3482 4639 4778 0
-1097 -6302 0
-1097 -7276 0
-6302 -7276 0
1097 6302 7276 0
-4929 -6969 0
-4929 -7014 0
-6969 -7014 0
4929 6969 7014 0
-253 -2377 0
-253 -6352 0
-2377 -6352 0
253 2377 6352 0
-5672 -7277 0
-5672 -7278 0
-7277 -7278 0
5672 7277 7278 0
-938 -3883 0
-938 -7279 0
-3883 -7279 0
938 3883 7279 0
-1061 -3623 0
-1061 -4087 0
-3623 -4087 0
1061 3623 4087 0
-2781 -4910 0
-2781 -5179 0
-4910 -5179 0
2781 4910 5179 0
-1865 -2237 0
-1865 -3683 0
-2237 -3683 0
1865 2237 3683 0
-3734 -6895 0
-3734 -7121 0
-6895 -7121 0
3734 6895 7121 0
-1954 -3269 0
-1954 -4459 0
-3269 -4459 0
1954 3269 4459 0
-4536 -6725 0
-4536 -7280 0
-6725 -7280 0
4536 6725 7280 0
-3218 -4232 0
-3218 -7281 0
-4232 -7281 0
3218 4232 7281 0
-3046 -7282 0
-3046 -7283 0
-7282 -7283 0
3046 7282 7283 0
-5762 -7284 0
-5762 -7285 0
-7284 -7285 0
5762 7284 7285 0
-1807 -3289 0
-1807 -6678 0
-3289 -6678 0
1807 3289 6678 0
-4134 -5549 0
-4134 -6594 0
-5549 -6594 0
4134 5549 6594 0
-6723 -7058 0
-6723 -7286 0
-7058 -7286 0
6723 7058 7286 0
-1300 -6458 0
-1300 -6976 0
-6458 -6976 0
1300 6458 6976 0
-2198 -3789 0
-2198 -4673 0
-3789 -4673 0
2198 3789 4673 0
-1003 -2461 0
-1003 -6914 0
-2461 -6914 0
1003 2461 6914 0
-2709 -7183 0
-2709 -7287 0
-7183 -7287 0
2709 7183 7287 0
-782 -5864 0
-782 -6201 0
-5864 -6201 0
782 5864 6201 0
-1822 -6216 0
-1822 -6939 0
-6216 -6939 0
1822 6216 6939 0
-469 -4333 0
-469 -7288 0
-4333 -7288 0
469 4333 7288 0
-650 -3418 0
-650 -5064 0
-3418 -5064 0
650 3418 5064 0
-4671 -6928 0
-4671 -7289 0
-6928 -7289 0
4671 6928 7289 0
-2300 -5983 0
-2300 -6337 0
-5983 -6337 0
2300 5983 6337 0
-6068 -6122 0
-6068 -7290 0
-6122 -7290 0
6068 6122 7290 0
-2126 -3696 0
-2126 -7023 0
-3696 -7023 0
2126 3696 7023 0
-277 -5211 0
-277 -7133 0
-5211 -7133 0
277 5211 7133 0
-3419 -4010 0
-3419 -7291 0
-4010 -7291 0
3419 4010 7291 0
-7180 -7292 0
-7180 -7293 0
-7292 -7293 0
7180 7292 7293 0
-3613 -7294 0
-3613 -7295 0
-7294 -7295 0
3613 7294 7295 0
-3625 -5360 0
-3625 -7296 0
-5360 -7296 0
3625 5360 7296 0
-1410 -4985 0
-1410 -6988 0
-4985 -6988 0
1410 4985 6988 0
-6217 -6881 0
-6217 -7297 0
-6881 -7297 0
6217 6881 7297 0
-581 -5801 0
-581 -7298 0
-5801 -7298 0
581 5801 7298 0
-1170 -2243 0
-1170 -7299 0
-2243 -7299 0
1170 2243 7299 0
-876 -1433 0
-876 -7077 0
-1433 -7077 0
876 1433 7077 0
-1350 -2886 0
-1350 -4694 0
-2886 -4694 0
1350 2886 4694 0
-1636 -1735 0
-1636 -7300 0
-1735 -7300 0
1636 1735 7300 0
-116 -686 0
-116 -1030 0
-686 -1030 0
116 686 1030 0
-1161 -4125 0
-1161 -4734 0
-4125 -4734 0
1161 4125 4734 0
-2618 -4053 0
-2618 -4391 0
-4053 -4391 0
2618 4053 4391 0
-664 -4082 0
-664 -6059 0
-4082 -6059 0
664 4082 6059 0
-5124 -7092 0
-5124 -7301 0
-7092 -7301 0
5124 7092 7301 0
-2628 -3556 0
-2628 -6400 0
-3556 -6400 0
2628 3556 6400 0
-5992 -6011 0
-5992 -7302 0
-6011 -7302 0
5992 6011 7302 0
-2870 -5187 0
-2870 -7303 0
-5187 -7303 0
2870 5187 7303 0
-2677 -3476 0
-2677 -7304 0
-3476 -7304 0
2677 3476 7304 0
-1835 -2844 0
-1835 -7305 0
-2844 -7305 0
1835 2844 7305 0
-2229 -3809 0
-2229 -7306 0
-3809 -7306 0
2229 3809 7306 0
-2640 -4561 0
-2640 -5340 0
-4561 -5340 0
2640 4561 5340 0
-2504 -4683 0
-2504 -7307 0
-4683 -7307 0
2504 4683 7307 0
-1089 -1322 0
-1089 -3674 0
-1322 -3674 0
1089 1322 3674 0
-3324 -6198 0
-3324 -7304 0
-6198 -7304 0
3324 6198 7304 0
-4343 -6604 0
-4343 -7284 0
-6604 -7284 0
4343 6604 7284 0
-2757 -5607 0
-2757 -7308 0
-5607 -7308 0
2757 5607 7308 0
-3662 -6247 0
-3662 -7309 0
-6247 -7309 0
3662 6247 7309 0
-259 -6251 0
-259 -7237 0
-6251 -7237 0
259 6251 7237 0
-2892 -4411 0
-2892 -6673 0
-4411 -6673 0
2892 4411 6673 0
-2791 -7280 0
-2791 -7310 0
-7280 -7310 0
2791 7280 7310 0
-2533 -5721 0
-2533 -5742 0
-5721 -5742 0
2533 5721 5742 0
-3076 -5601 0
-3076 -7311 0
-5601 -7311 0
3076 5601 7311 0
-5608 -6005 0
-5608 -7060 0
-6005 -7060 0
5608 6005 7060 0
-2068 -6202 0
-2068 -6687 0
-6202 -6687 0
2068 6202 6687 0
-4218 -4916 0
-4218 -6906 0
-4916 -6906 0
4218 4916 6906 0
-2692 -5919 0
-2692 -7312 0
-5919 -7312 0
2692 5919 7312 0
-298 -4946 0
-298 -6199 0
-4946 -6199 0
298 4946 6199 0
-3916 -7068 0
-3916 -7313 0
-7068 -7313 0
3916 7068 7313 0
-451 -2372 0
-451 -6809 0
-2372 -6809 0
451 2372 6809 0
-6258 -6617 0
-6258 -7314 0
-6617 -7314 0
6258 6617 7314 0
-5715 -6775 0
-5715 -7315 0
-6775 -7315 0
5715 6775 7315 0
-2833 -3550 0
-2833 -5083 0
-3550 -5083 0
2833 3550 5083 0
-5815 -5925 0
-5815 -7316 0
-5925 -7316 0
5815 5925 7316 0
-3172 -6513 0
-3172 -7118 0
-6513 -7118 0
3172 6513 7118 0
-3189 -5406 0
-3189 -7028 0
-5406 -7028 0
3189 5406 7028 0
-150 -1193 0
-150 -2982 0
-1193 -2982 0
150 1193 2982 0
-1966 -5201 0
-1966 -7317 0
-5201 -7317 0
1966 5201 7317 0
-799 -1288 0
-799 -5398 0
-1288 -5398 0
799 1288 5398 0
-3592 -5853 0
-3592 -7212 0
-5853 -7212 0
3592 5853 7212 0
-41 -5541 0
-41 -7318 0
-5541 -7318 0
41 5541 7318 0
-5804 -6309 0
-5804 -7319 0
-6309 -7319 0
5804 6309 7319 0
-1590 -7256 0
-1590 -7320 0
-7256 -7320 0
1590 7256 7320 0
-2264 -4647 0
-2264 -5844 0
-4647 -5844 0
2264 4647 5844 0
-1281 -4292 0
-1281 -5488 0
-4292 -5488 0
1281 4292 5488 0
-2230 -7168 0
-2230 -7321 0
-7168 -7321 0
2230 7168 7321 0
-3386 -4397 0
-3386 -5628 0
-4397 -5628 0
3386 4397 5628 0
-2890 -5576 0
-2890 -6705 0
-5576 -6705 0
2890 5576 6705 0
-428 -6538 0
-428 -6602 0
-6538 -6602 0
428 6538 6602 0
-1595 -7322 0
-1595 -7323 0
-7322 -7323 0
1595 7322 7323 0
-3316 -6219 0
-3316 -7324 0
-6219 -7324 0
3316 6219 7324 0
-520 -5851 0
-520 -7325 0
-5851 -7325 0
520 5851 7325 0
-820 -3356 0
-820 -4749 0
-3356 -4749 0
820 3356 4749 0
-291 -4768 0
-291 -7326 0
-4768 -7326 0
291 4768 7326 0
-5022 -5355 0
-5022 -5922 0
-5355 -5922 0
5022 5355 5922 0
-1375 -2368 0
-1375 -5810 0
-2368 -5810 0
1375 2368 5810 0
-300 -490 0
-300 -1285 0
-490 -1285 0
300 490 1285 0
-5 -4842 0
-5 -7327 0
-4842 -7327 0
5 4842 7327 0
-6196 -7252 0
-6196 -7328 0
-7252 -7328 0
6196 7252 7328 0
-1430 -5439 0
-1430 -7329 0
-5439 -7329 0
1430 5439 7329 0
-6815 -7330 0
-6815 -7331 0
-7330 -7331 0
6815 7330 7331 0
-2900 -5032 0
-2900 -5057 0
-5032 -5057 0
2900 5032 5057 0
-1408 -7332 0
-1408 -7333 0
-7332 -7333 0
1408 7332 7333 0
-5115 -7334 0
-5115 -7335 0
-7334 -7335 0
5115 7334 7335 0
-3702 -5245 0
-3702 -6682 0
-5245 -6682 0
3702 5245 6682 0
-3513 -5528 0
-3513 -6903 0
-5528 -6903 0
3513 5528 6903 0
-1031 -6501 0
-1031 -7336 0
-6501 -7336 0
1031 6501 7336 0
-1677 -1985 0
-1677 -2994 0
-1985 -2994 0
1677 1985 2994 0
-975 -5840 0
-975 -6182 0
-5840 -6182 0
975 5840 6182 0
-2374 -5955 0
-2374 -7337 0
-5955 -7337 0
2374 5955 7337 0
-1262 -4601 0
-1262 -6893 0
-4601 -6893 0
1262 4601 6893 0
-770 -5609 0
-770 -6174 0
-5609 -6174 0
770 5609 6174 0
-4901 -5053 0
-4901 -6051 0
-5053 -6051 0
4901 5053 6051 0
-6907 -7338 0
-6907 -7339 0
-7338 -7339 0
6907 7338 7339 0
-362 -3738 0
-362 -7340 0
-3738 -7340 0
362 3738 7340 0
-4823 -7341 0
-4823 -7342 0
-7341 -7342 0
4823 7341 7342 0
-2255 -4796 0
-2255 -4991 0
-4796 -4991 0
2255 4796 4991 0
-2112 -6083 0
-2112 -7343 0
-6083 -7343 0
2112 6083 7343 0
-5113 -5886 0
-5113 -7344 0
-5886 -7344 0
5113 5886 7344 0
-6450 -6512 0
-6450 -7235 0
-6512 -7235 0
6450 6512 7235 0
-4159 -5496 0
-4159 -7345 0
-5496 -7345 0
4159 5496 7345 0
-487 -7262 0
-487 -7346 0
-7262 -7346 0
487 7262 7346 0
-5487 -6478 0
-5487 -6953 0
-6478 -6953 0
5487 6478 6953 0
-2490 -4283 0
-2490 -7347 0
-4283 -7347 0
2490 4283 7347 0
-1831 -2536 0
-1831 -6070 0
-2536 -6070 0
1831 2536 6070 0
-7041 -7348 0
-7041 -7349 0
-7348 -7349 0
7041 7348 7349 0
-1059 -1974 0
-1059 -4827 0
-1974 -4827 0
1059 1974 4827 0
-2454 -6038 0
-2454 -7350 0
-6038 -7350 0
2454 6038 7350 0
-3610 -5491 0
-3610 -6603 0
-5491 -6603 0
3610 5491 6603 0
-3254 -3680 0
-3254 -6993 0
-3680 -6993 0
3254 3680 6993 0
-4153 -7052 0
-4153 -7351 0
-7052 -7351 0
4153 7052 7351 0
-4620 -5820 0
-4620 -7352 0
-5820 -7352 0
4620 5820 7352 0
-732 -4817 0
-732 -6674 0
-4817 -6674 0
732 4817 6674 0
-675 -5078 0
-675 -7214 0
-5078 -7214 0
675 5078 7214 0
-1201 -3577 0
-1201 -5120 0
-3577 -5120 0
1201 3577 5120 0
-85 -2397 0
-85 -2931 0
-2397 -2931 0
85 2397 2931 0
-1035 -7033 0
-1035 -7353 0
-7033 -7353 0
1035 7033 7353 0
-6484 -7169 0
-6484 -7354 0
-7169 -7354 0
6484 7169 7354 0
-5161 -6896 0
-5161 -7355 0
-6896 -7355 0
5161 6896 7355 0
-6041 -7017 0
-6041 -7105 0
-7017 -7105 0
6041 7017 7105 0
-4921 -6957 0
-4921 -7356 0
-6957 -7356 0
4921 6957 7356 0
-4121 -5302 0
-4121 -6473 0
-5302 -6473 0
4121 5302 6473 0
-5618 -5999 0
-5618 -7357 0
-5999 -7357 0
5618 5999 7357 0
-587 -4371 0
-587 -6863 0
-4371 -6863 0
587 4371 6863 0
-2395 -4162 0
-2395 -6858 0
-4162 -6858 0
2395 4162 6858 0
-1861 -4243 0
-1861 -5950 0
-4243 -5950 0
1861 4243 5950 0
-2475 -4494 0
-2475 -6126 0
-4494 -6126 0
2475 4494 6126 0
-1351 -3152 0
-1351 -3729 0
-3152 -3729 0
1351 3152 3729 0
-47 -6416 0
-47 -7165 0
-6416 -7165 0
47 6416 7165 0
-7344 -7358 0
-7344 -7359 0
-7358 -7359 0
7344 7358 7359 0
-4274 -5376 0
-4274 -5702 0
-5376 -5702 0
4274 5376 5702 0
-4772 -4834 0
-4772 -5976 0
-4834 -5976 0
4772 4834 5976 0
-7021 -7113 0
-7021 -7360 0
-7113 -7360 0
7021 7113 7360 0
-6049 -7225 0
-6049 -7361 0
-7225 -7361 0
6049 7225 7361 0
-4106 -7362 0
-4106 -7363 0
-7362 -7363 0
4106 7362 7363 0
-4172 -5300 0
-4172 -5619 0
-5300 -5619 0
4172 5300 5619 0
-847 -4854 0
-847 -7158 0
-4854 -7158 0
847 4854 7158 0
-52 -2675 0
-52 -7364 0
-2675 -7364 0
52 2675 7364 0
-4688 -5914 0
-4688 -7365 0
-5914 -7365 0
4688 5914 7365 0
-5095 -6958 0
-5095 -7241 0
-6958 -7241 0
5095 6958 7241 0
-4533 -4980 0
-4533 -5050 0
-4980 -5050 0
4533 4980 5050 0
-4855 -5159 0
-4855 -7366 0
-5159 -7366 0
4855 5159 7366 0
-4554 -5072 0
-4554 -6526 0
-5072 -6526 0
4554 5072 6526 0
-3153 -6032 0
-3153 -6080 0
-6032 -6080 0
3153 6032 6080 0
-3766 -6766 0
-3766 -7367 0
-6766 -7367 0
3766 6766 7367 0
-3945 -5465 0
-3945 -7368 0
-5465 -7368 0
3945 5465 7368 0
-3922 -6027 0
-3922 -7369 0
-6027 -7369 0
3922 6027 7369 0
-1423 -3854 0
-1423 -7370 0
-3854 -7370 0
1423 3854 7370 0
-211 -6975 0
-211 -7260 0
-6975 -7260 0
211 6975 7260 0
-3016 -3210 0
-3016 -7371 0
-3210 -7371 0
3016 3210 7371 0
-526 -6837 0
-526 -7372 0
-6837 -7372 0
526 6837 7372 0
-884 -2323 0
-884 -7318 0
-2323 -7318 0
884 2323 7318 0
-2085 -5432 0
-2085 -6661 0
-5432 -6661 0
2085 5432 6661 0
-5027 -6500 0
-5027 -7373 0
-6500 -7373 0
5027 6500 7373 0
-3053 -6629 0
-3053 -7330 0
-6629 -7330 0
3053 6629 7330 0
-2876 -7374 0
-2876 -7375 0
-7374 -7375 0
2876 7374 7375 0
-818 -1275 0
-818 -7376 0
-1275 -7376 0
818 1275 7376 0
-5521 -7096 0
-5521 -7377 0
-7096 -7377 0
5521 7096 7377 0
-3107 -4894 0
-3107 -7362 0
-4894 -7362 0
3107 4894 7362 0
-4760 -6042 0
-4760 -7378 0
-6042 -7378 0
4760 6042 7378 0
-3824 -6638 0
-3824 -7379 0
-6638 -7379 0
3824 6638 7379 0
-2420 -3156 0
-2420 -4040 0
-3156 -4040 0
2420 3156 4040 0
-4008 -6847 0
-4008 -7380 0
-6847 -7380 0
4008 6847 7380 0
-2440 -2826 0
-2440 -6785 0
-2826 -6785 0
2440 2826 6785 0
-4110 -7378 0
-4110 -7381 0
-7378 -7381 0
4110 7378 7381 0
-6694 -7382 0
-6694 -7383 0
-7382 -7383 0
6694 7382 7383 0
-3660 -7384 0
-3660 -7385 0
-7384 -7385 0
3660 7384 7385 0
-2921 -3159 0
-2921 -7386 0
-3159 -7386 0
2921 3159 7386 0
-4588 -7348 0
-4588 -7387 0
-7348 -7387 0
4588 7348 7387 0
-1935 -4522 0
-1935 -7015 0
-4522 -7015 0
1935 4522 7015 0
-766 -1204 0
-766 -6795 0
-1204 -6795 0
766 1204 6795 0
-1876 -4127 0
-1876 -7370 0
-4127 -7370 0
1876 4127 7370 0
-1880 -3770 0
-1880 -7376 0
-3770 -7376 0
1880 3770 7376 0
-3560 -5135 0
-3560 -7388 0
-5135 -7388 0
3560 5135 7388 0
-1873 -3705 0
-1873 -5054 0
-3705 -5054 0
1873 3705 5054 0
-336 -5979 0
-336 -7389 0
-5979 -7389 0
336 5979 7389 0
-6186 -6378 0
-6186 -7390 0
-6378 -7390 0
6186 6378 7390 0
-3518 -7391 0
-3518 -7392 0
-7391 -7392 0
3518 7391 7392 0
-2608 -6799 0
-2608 -7393 0
-6799 -7393 0
2608 6799 7393 0
-3379 -5165 0
-3379 -7115 0
-5165 -7115 0
3379 5165 7115 0
-142 -6253 0
-142 -7047 0
-6253 -7047 0
142 6253 7047 0
-3109 -7394 0
-3109 -7395 0
-7394 -7395 0
3109 7394 7395 0
-53 -4183 0
-53 -7396 0
-4183 -7396 0
53 4183 7396 0
-3435 -6180 0
-3435 -7055 0
-6180 -7055 0
3435 6180 7055 0
-5458 -6569 0
-5458 -6762 0
-6569 -6762 0
5458 6569 6762 0
-2387 -5277 0
-2387 -6444 0
-5277 -6444 0
2387 5277 6444 0
-421 -5837 0
-421 -7397 0
-5837 -7397 0
421 5837 7397 0
-6655 -6791 0
-6655 -7398 0
-6791 -7398 0
6655 6791 7398 0
-2426 -4036 0
-2426 -7399 0
-4036 -7399 0
2426 4036 7399 0
-6381 -7400 0
-6381 -7401 0
-7400 -7401 0
6381 7400 7401 0
-7402 -7403 0
-7402 -7404 0
-7403 -7404 0
7402 7403 7404 0
-2528 -5666 0
-2528 -7405 0
-5666 -7405 0
2528 5666 7405 0
-1962 -4844 0
-1962 -5796 0
-4844 -5796 0
1962 4844 5796 0
-4347 -6880 0
-4347 -6990 0
-6880 -6990 0
4347 6880 6990 0
-2436 -4652 0
-2436 -4712 0
-4652 -4712 0
2436 4652 4712 0
-2998 -4570 0
-2998 -4986 0
-4570 -4986 0
2998 4570 4986 0
-1296 -6519 0
-1296 -6854 0
-6519 -6854 0
1296 6519 6854 0
-5017 -6733 0
-5017 -7406 0
-6733 -7406 0
5017 6733 7406 0
-5980 -7029 0
-5980 -7407 0
-7029 -7407 0
5980 7029 7407 0
-3837 -5739 0
-3837 -7408 0
-5739 -7408 0
3837 5739 7408 0
-5249 -6821 0
-5249 -7091 0
-6821 -7091 0
5249 6821 7091 0
-5033 -5310 0
-5033 -6156 0
-5310 -6156 0
5033 5310 6156 0
-6362 -7231 0
-6362 -7409 0
-7231 -7409 0
6362 7231 7409 0
-1576 -5596 0
-1576 -7410 0
-5596 -7410 0
1576 5596 7410 0
-2132 -5096 0
-2132 -7411 0
-5096 -7411 0
2132 5096 7411 0
-3126 -5949 0
-3126 -6307 0
-5949 -6307 0
3126 5949 6307 0
-4709 -6697 0
-4709 -6761 0
-6697 -6761 0
4709 6697 6761 0
-1014 -7412 0
-1014 -7413 0
-7412 -7413 0
1014 7412 7413 0
-1975 -2326 0
-1975 -4867 0
-2326 -4867 0
1975 2326 4867 0
-7355 -7414 0
-7355 -7415 0
-7414 -7415 0
7355 7414 7415 0
-2615 -2879 0
-2615 -7416 0
-2879 -7416 0
2615 2879 7416 0
-5149 -6901 0
-5149 -7417 0
-6901 -7417 0
5149 6901 7417 0
-7176 -7418 0
-7176 -7419 0
-7418 -7419 0
7176 7418 7419 0
-3930 -6476 0
-3930 -6811 0
-6476 -6811 0
3930 6476 6811 0
-2231 -5737 0
-2231 -7420 0
-5737 -7420 0
2231 5737 7420 0
-7358 -7414 0
-7358 -7421 0
-7414 -7421 0
7358 7414 7421 0
-3898 -6054 0
-3898 -6724 0
-6054 -6724 0
3898 6054 6724 0
-625 -3606 0
-625 -4495 0
-3606 -4495 0
625 3606 4495 0
-878 -7243 0
-878 -7422 0
-7243 -7422 0
878 7243 7422 0
-1445 -2735 0
-1445 -7423 0
-2735 -7423 0
1445 2735 7423 0
-4892 -7162 0
-4892 -7424 0
-7162 -7424 0
4892 7162 7424 0
-652 -4578 0
-652 -6243 0
-4578 -6243 0
652 4578 6243 0
-797 -7244 0
-797 -7291 0
-7244 -7291 0
797 7244 7291 0
-592 -6843 0
-592 -7425 0
-6843 -7425 0
592 6843 7425 0
-5030 -5572 0
-5030 -7426 0
-5572 -7426 0
5030 5572 7426 0
-5879 -7427 0
-5879 -7428 0
-7427 -7428 0
5879 7427 7428 0
-1709 -6494 0
-1709 -6561 0
-6494 -6561 0
1709 6494 6561 0
-1691 -7429 0
-1691 -7430 0
-7429 -7430 0
1691 7429 7430 0
-3805 -6275 0
-3805 -7431 0
-6275 -7431 0
3805 6275 7431 0
-3187 -3257 0
-3187 -7011 0
-3257 -7011 0
3187 3257 7011 0
-2526 -2733 0
-2526 -6653 0
-2733 -6653 0
2526 2733 6653 0
-5089 -5509 0
-5089 -6412 0
-5509 -6412 0
5089 5509 6412 0
-4206 -4374 0
-4206 -7432 0
-4374 -7432 0
4206 4374 7432 0
-2467 -6241 0
-2467 -6702 0
-6241 -6702 0
2467 6241 6702 0
-5797 -6297 0
-5797 -7433 0
-6297 -7433 0
5797 6297 7433 0
-6414 -7389 0
-6414 -7434 0
-7389 -7434 0
6414 7389 7434 0
-941 -4519 0
-941 -5186 0
-4519 -5186 0
941 4519 5186 0
-1496 -6611 0
-1496 -7411 0
-6611 -7411 0
1496 6611 7411 0
-7319 -7435 0
-7319 -7436 0
-7435 -7436 0
7319 7435 7436 0
-1167 -3926 0
-1167 -4272 0
-3926 -4272 0
1167 3926 4272 0
-2407 -5849 0
-2407 -7345 0
-5849 -7345 0
2407 5849 7345 0
-2711 -5532 0
-2711 -7437 0
-5532 -7437 0
2711 5532 7437 0
-2315 -4066 0
-2315 -7438 0
-4066 -7438 0
2315 4066 7438 0
-1768 -2178 0
-1768 -7269 0
-2178 -7269 0
1768 2178 7269 0
-3661 -5892 0
-3661 -7439 0
-5892 -7439 0
3661 5892 7439 0
-1085 -1692 0
-1085 -7287 0
-1692 -7287 0
1085 1692 7287 0
-5400 -6598 0
-5400 -7440 0
-6598 -7440 0
5400 6598 7440 0
-4938 -4977 0
-4938 -6667 0
-4977 -6667 0
4938 4977 6667 0
-7309 -7441 0
-7309 -7442 0
-7441 -7442 0
7309 7441 7442 0
-15 -2814 0
-15 -3177 0
-2814 -3177 0
15 2814 3177 0
-5362 -7338 0
-5362 -7443 0
-7338 -7443 0
5362 7338 7443 0
-241 -3864 0
-241 -7186 0
-3864 -7186 0
241 3864 7186 0
-5729 -5985 0
-5729 -7444 0
-5985 -7444 0
5729 5985 7444 0
-1164 -3699 0
-1164 -4650 0
-3699 -4650 0
1164 3699 4650 0
-3232 -6621 0
-3232 -7357 0
-6621 -7357 0
3232 6621 7357 0
-978 -7003 0
-978 -7445 0
-7003 -7445 0
978 7003 7445 0
-5502 -6624 0
-5502 -6919 0
-6624 -6919 0
5502 6624 6919 0
-92 -2516 0
-92 -7135 0
-2516 -7135 0
92 2516 7135 0
-3885 -5449 0
-3885 -7257 0
-5449 -7257 0
3885 5449 7257 0
-7446 -7447 0
-7446 -7448 0
-7447 -7448 0
7446 7447 7448 0
-3611 -6710 0
-3611 -6985 0
-6710 -6985 0
3611 6710 6985 0
-1841 -3825 0
-1841 -6464 0
-3825 -6464 0
1841 3825 6464 0
-690 -2179 0
-690 -6531 0
-2179 -6531 0
690 2179 6531 0
-917 -4636 0
-917 -6160 0
-4636 -6160 0
917 4636 6160 0
-4496 -6668 0
-4496 -7449 0
-6668 -7449 0
4496 6668 7449 0
-1021 -5223 0
-1021 -6053 0
-5223 -6053 0
1021 5223 6053 0
-6596 -6753 0
-6596 -7179 0
-6753 -7179 0
6596 6753 7179 0
-5560 -7450 0
-5560 -7451 0
-7450 -7451 0
5560 7450 7451 0
-4691 -6703 0
-4691 -7250 0
-6703 -7250 0
4691 6703 7250 0
-1727 -3038 0
-1727 -6555 0
-3038 -6555 0
1727 3038 6555 0
-4348 -5783 0
-4348 -6187 0
-5783 -6187 0
4348 5783 6187 0
-2938 -6591 0
-2938 -6777 0
-6591 -6777 0
2938 6591 6777 0
-3990 -7149 0
-3990 -7452 0
-7149 -7452 0
3990 7149 7452 0
-3775 -7453 0
-3775 -7454 0
-7453 -7454 0
3775 7453 7454 0
-4598 -5393 0
-4598 -5807 0
-5393 -5807 0
4598 5393 5807 0
-2986 -5034 0
-2986 -5564 0
-5034 -5564 0
2986 5034 5564 0
-2714 -4678 0
-2714 -7455 0
-4678 -7455 0
2714 4678 7455 0
-4412 -7056 0
-4412 -7456 0
-7056 -7456 0
4412 7056 7456 0
-1024 -1033 0
-1024 -4605 0
-1033 -4605 0
1024 1033 4605 0
-630 -5483 0
-630 -7069 0
-5483 -7069 0
630 5483 7069 0
-3350 -7457 0
-3350 -7458 0
-7457 -7458 0
3350 7457 7458 0
-1970 -5469 0
-1970 -6626 0
-5469 -6626 0
1970 5469 6626 0
-882 -5960 0
-882 -7459 0
-5960 -7459 0
882 5960 7459 0
-4820 -6823 0
-4820 -7460 0
-6823 -7460 0
4820 6823 7460 0
-7461 -7462 0
-7461 -7463 0
-7462 -7463 0
7461 7462 7463 0
-441 -4871 0
-441 -7301 0
-4871 -7301 0
441 4871 7301 0
-870 -1307 0
-870 -7464 0
-1307 -7464 0
870 1307 7464 0
-6227 -7465 0
-6227 -7466 0
-7465 -7466 0
6227 7465 7466 0
-4258 -5994 0
-4258 -7467 0
-5994 -7467 0
4258 5994 7467 0
-566 -3725 0
-566 -4659 0
-3725 -4659 0
566 3725 4659 0
-3033 -5911 0
-3033 -7153 0
-5911 -7153 0
3033 5911 7153 0
-4064 -4318 0
-4064 -6218 0
-4318 -6218 0
4064 4318 6218 0
-3421 -6679 0
-3421 -7468 0
-6679 -7468 0
3421 6679 7468 0
-1229 -1251 0
-1229 -7302 0
-1251 -7302 0
1229 1251 7302 0
-3970 -6298 0
-3970 -6721 0
-6298 -6721 0
3970 6298 6721 0
-6375 -7002 0
-6375 -7061 0
-7002 -7061 0
6375 7002 7061 0
-1282 -7119 0
-1282 -7373 0
-7119 -7373 0
1282 7119 7373 0
-1257 -6009 0
-1257 -7467 0
-6009 -7467 0
1257 6009 7467 0
-310 -2543 0
-310 -7469 0
-2543 -7469 0
310 2543 7469 0
-1143 -2541 0
-1143 -7468 0
-2541 -7468 0
1143 2541 7468 0
-1991 -2893 0
-1991 -7329 0
-2893 -7329 0
1991 2893 7329 0
-3607 -4795 0
-3607 -7470 0
-4795 -7470 0
3607 4795 7470 0
-1471 -4477 0
-1471 -7124 0
-4477 -7124 0
1471 4477 7124 0
-2095 -6658 0
-2095 -6849 0
-6658 -6849 0
2095 6658 6849 0
-4353 -6763 0
-4353 -7471 0
-6763 -7471 0
4353 6763 7471 0
-6004 -6827 0
-6004 -7181 0
-6827 -7181 0
6004 6827 7181 0
-2281 -3832 0
-2281 -7472 0
-3832 -7472 0
2281 3832 7472 0
-2481 -4259 0
-2481 -4633 0
-4259 -4633 0
2481 4259 4633 0
-1782 -7473 0
-1782 -7474 0
-7473 -7474 0
1782 7473 7474 0
-5874 -7100 0
-5874 -7475 0
-7100 -7475 0
5874 7100 7475 0
-109 -5035 0
-109 -5341 0
-5035 -5341 0
109 5035 5341 0
-5386 -7438 0
-5386 -7476 0
-7438 -7476 0
5386 7438 7476 0
-4949 -7477 0
-4949 -7478 0
-7477 -7478 0
4949 7477 7478 0
-7182 -7364 0
-7182 -7371 0
-7364 -7371 0
7182 7364 7371 0
-3561 -4387 0
-3561 -7125 0
-4387 -7125 0
3561 4387 7125 0
-1116 -2717 0
-1116 -6676 0
-2717 -6676 0
1116 2717 6676 0
-514 -6259 0
-514 -6889 0
-6259 -6889 0
514 6259 6889 0
-1226 -4207 0
-1226 -5441 0
-4207 -5441 0
1226 4207 5441 0
-5328 -6965 0
-5328 -7340 0
-6965 -7340 0
5328 6965 7340 0
-3160 -6191 0
-3160 -7321 0
-6191 -7321 0
3160 6191 7321 0
-2911 -7086 0
-2911 -7240 0
-7086 -7240 0
2911 7086 7240 0
-2216 -3620 0
-2216 -7479 0
-3620 -7479 0
2216 3620 7479 0
-641 -1942 0
-641 -7480 0
-1942 -7480 0
641 1942 7480 0
-687 -2963 0
-687 -3624 0
-2963 -3624 0
687 2963 3624 0
-908 -1485 0
-908 -5717 0
-1485 -5717 0
908 1485 5717 0
-754 -4537 0
-754 -7481 0
-4537 -7481 0
754 4537 7481 0
-6675 -6961 0
-6675 -7482 0
-6961 -7482 0
6675 6961 7482 0
-6319 -7445 0
-6319 -7483 0
-7445 -7483 0
6319 7445 7483 0
-990 -7484 0
-990 -7485 0
-7484 -7485 0
990 7484 7485 0
-413 -3760 0
-413 -7138 0
-3760 -7138 0
413 3760 7138 0
-3021 -5138 0
-3021 -5242 0
-5138 -5242 0
3021 5138 5242 0
-1545 -6690 0
-1545 -7400 0
-6690 -7400 0
1545 6690 7400 0
-173 -7482 0
-173 -7486 0
-7482 -7486 0
173 7482 7486 0
-2782 -5188 0
-2782 -6592 0
-5188 -6592 0
2782 5188 6592 0
-2797 -3364 0
-2797 -5956 0
-3364 -5956 0
2797 3364 5956 0
-1501 -4163 0
-1501 -7233 0
-4163 -7233 0
1501 4163 7233 0
-4437 -5066 0
-4437 -7487 0
-5066 -7487 0
4437 5066 7487 0
-2721 -5680 0
-2721 -7488 0
-5680 -7488 0
2721 5680 7488 0
-6 -4750 0
-6 -7475 0
-4750 -7475 0
6 4750 7475 0
-5320 -6143 0
-5320 -7027 0
-6143 -7027 0
5320 6143 7027 0
-4896 -6539 0
-4896 -7314 0
-6539 -7314 0
4896 6539 7314 0
-2718 -5011 0
-2718 -7489 0
-5011 -7489 0
2718 5011 7489 0
-3141 -7316 0
-3141 -7490 0
-7316 -7490 0
3141 7316 7490 0
-4312 -6578 0
-4312 -7491 0
-6578 -7491 0
4312 6578 7491 0
-2159 -3820 0
-2159 -5166 0
-3820 -5166 0
2159 3820 5166 0
-6439 -6627 0
-6439 -7030 0
-6627 -7030 0
6439 6627 7030 0
-5334 -5964 0
-5334 -7492 0
-5964 -7492 0
5334 5964 7492 0
-1846 -2441 0
-1846 -3735 0
-2441 -3735 0
1846 2441 3735 0
-2700 -6248 0
-2700 -7141 0
-6248 -7141 0
2700 6248 7141 0
-734 -6183 0
-734 -7493 0
-6183 -7493 0
734 6183 7493 0
-3162 -4471 0
-3162 -7494 0
-4471 -7494 0
3162 4471 7494 0
-4497 -7205 0
-4497 -7495 0
-7205 -7495 0
4497 7205 7495 0
-1842 -7346 0
-1842 -7496 0
-7346 -7496 0
1842 7346 7496 0
-1271 -1922 0
-1271 -5058 0
-1922 -5058 0
1271 1922 5058 0
-2193 -3240 0
-2193 -6229 0
-3240 -6229 0
2193 3240 6229 0
-613 -1851 0
-613 -6600 0
-1851 -6600 0
613 1851 6600 0
-4732 -6528 0
-4732 -7417 0
-6528 -7417 0
4732 6528 7417 0
-484 -790 0
-484 -6086 0
-790 -6086 0
484 790 6086 0
-2881 -3726 0
-2881 -5704 0
-3726 -5704 0
2881 3726 5704 0
-1573 -5132 0
-1573 -7322 0
-5132 -7322 0
1573 5132 7322 0
-3681 -7320 0
-3681 -7427 0
-7320 -7427 0
3681 7320 7427 0
-3114 -7497 0
-3114 -7498 0
-7497 -7498 0
3114 7497 7498 0
-2643 -6390 0
-2643 -7242 0
-6390 -7242 0
2643 6390 7242 0
-4626 -7209 0
-4626 -7499 0
-7209 -7499 0
4626 7209 7499 0
-956 -5206 0
-956 -7130 0
-5206 -7130 0
956 5206 7130 0
-2644 -7500 0
-2644 -7501 0
-7500 -7501 0
2644 7500 7501 0
-285 -1128 0
-285 -3510 0
-1128 -3510 0
285 1128 3510 0
-735 -3461 0
-735 -4398 0
-3461 -4398 0
735 3461 4398 0
-1184 -3234 0
-1184 -7341 0
-3234 -7341 0
1184 3234 7341 0
-2217 -6706 0
-2217 -6738 0
-6706 -6738 0
2217 6706 6738 0
-1548 -5153 0
-1548 -7502 0
-5153 -7502 0
1548 5153 7502 0
-2903 -6940 0
-2903 -7503 0
-6940 -7503 0
2903 6940 7503 0
-4757 -4988 0
-4757 -6061 0
-4988 -6061 0
4757 4988 6061 0
-383 -3230 0
-383 -7504 0
-3230 -7504 0
383 3230 7504 0
-1080 -4851 0
-1080 -5182 0
-4851 -5182 0
1080 4851 5182 0
-3781 -5683 0
-3781 -6532 0
-5683 -6532 0
3781 5683 6532 0
-6366 -7505 0
-6366 -7506 0
-7505 -7506 0
6366 7505 7506 0
-6894 -7305 0
-6894 -7507 0
-7305 -7507 0
6894 7305 7507 0
-1108 -6719 0
-1108 -6951 0
-6719 -6951 0
1108 6719 6951 0
-3091 -5292 0
-3091 -6971 0
-5292 -6971 0
3091 5292 6971 0
-2983 -3478 0
-2983 -7479 0
-3478 -7479 0
2983 3478 7479 0
-4467 -7277 0
-4467 -7382 0
-7277 -7382 0
4467 7277 7382 0
-4958 -7306 0
-4958 -7508 0
-7306 -7508 0
4958 7306 7508 0
-1276 -4726 0
-1276 -7196 0
-4726 -7196 0
1276 4726 7196 0
-3122 -4684 0
-3122 -7163 0
-4684 -7163 0
3122 4684 7163 0
-3459 -4269 0
-3459 -7453 0
-4269 -7453 0
3459 4269 7453 0
-3717 -5105 0
-3717 -7508 0
-5105 -7508 0
3717 5105 7508 0
-584 -2755 0
-584 -6720 0
-2755 -6720 0
584 2755 6720 0
-422 -6093 0
-422 -7509 0
-6093 -7509 0
422 6093 7509 0
-3888 -6176 0
-3888 -7510 0
-6176 -7510 0
3888 6176 7510 0
-6774 -7229 0
-6774 -7511 0
-7229 -7511 0
6774 7229 7511 0
-5329 -5859 0
-5329 -7512 0
-5859 -7512 0
5329 5859 7512 0
-656 -1779 0
-656 -7476 0
-1779 -7476 0
656 1779 7476 0
-3917 -4971 0
-3917 -6760 0
-4971 -6760 0
3917 4971 6760 0
-3404 -6230 0
-3404 -7490 0
-6230 -7490 0
3404 6230 7490 0
-1493 -6654 0
-1493 -7513 0
-6654 -7513 0
1493 6654 7513 0
-1516 -3388 0
-1516 -6114 0
-3388 -6114 0
1516 3388 6114 0
-3427 -7324 0
-3427 -7514 0
-7324 -7514 0
3427 7324 7514 0
-1077 -7297 0
-1077 -7515 0
-7297 -7515 0
1077 7297 7515 0
-987 -5688 0
-987 -7367 0
-5688 -7367 0
987 5688 7367 0
-2304 -2494 0
-2304 -6149 0
-2494 -6149 0
2304 2494 6149 0
-3910 -5944 0
-3910 -6384 0
-5944 -6384 0
3910 5944 6384 0
-3980 -4315 0
-3980 -5890 0
-4315 -5890 0
3980 4315 5890 0
-1805 -7300 0
-1805 -7461 0
-7300 -7461 0
1805 7300 7461 0
-6171 -6695 0
-6171 -7516 0
-6695 -7516 0
6171 6695 7516 0
-885 -3259 0
-885 -6314 0
-3259 -6314 0
885 3259 6314 0
-366 -3446 0
-366 -6576 0
-3446 -6576 0
366 3446 6576 0
-3677 -6452 0
-3677 -7079 0
-6452 -7079 0
3677 6452 7079 0
-1818 -3264 0
-1818 -3530 0
-3264 -3530 0
1818 3264 3530 0
-2587 -6834 0
-2587 -7489 0
-6834 -7489 0
2587 6834 7489 0
-5353 -6118 0
-5353 -7517 0
-6118 -7517 0
5353 6118 7517 0
-791 -5589 0
-791 -5834 0
-5589 -5834 0
791 5589 5834 0
-4395 -5025 0
-4395 -7054 0
-5025 -7054 0
4395 5025 7054 0
-6228 -7246 0
-6228 -7518 0
-7246 -7518 0
6228 7246 7518 0
-2565 -4780 0
-2565 -7407 0
-4780 -7407 0
2565 4780 7407 0
-5272 -5321 0
-5272 -6339 0
-5321 -6339 0
5272 5321 6339 0
-5356 -5973 0
-5356 -7519 0
-5973 -7519 0
5356 5973 7519 0
-5395 -6223 0
-5395 -7520 0
-6223 -7520 0
5395 6223 7520 0
-2232 -6876 0
-2232 -7505 0
-6876 -7505 0
2232 6876 7505 0
-262 -1071 0
-262 -3967 0
-1071 -3967 0
262 1071 3967 0
-1308 -5658 0
-1308 -5718 0
-5658 -5718 0
1308 5658 5718 0
-128 -6618 0
-128 -7279 0
-6618 -7279 0
128 6618 7279 0
-1211 -1591 0
-1211 -7039 0
-1591 -7039 0
1211 1591 7039 0
-2211 -6147 0
-2211 -6301 0
-6147 -6301 0
2211 6147 6301 0
-2767 -7289 0
-2767 -7521 0
-7289 -7521 0
2767 7289 7521 0
-1450 -6824 0
-1450 -7522 0
-6824 -7522 0
1450 6824 7522 0
-3685 -5157 0
-3685 -6460 0
-5157 -6460 0
3685 5157 6460 0
-1480 -7523 0
-1480 -7524 0
-7523 -7524 0
1480 7523 7524 0
-4073 -7160 0
-4073 -7164 0
-7160 -7164 0
4073 7160 7164 0
-3736 -5673 0
-3736 -7525 0
-5673 -7525 0
3736 5673 7525 0
-749 -3786 0
-749 -7175 0
-3786 -7175 0
749 3786 7175 0
-998 -2446 0
-998 -6479 0
-2446 -6479 0
998 2446 6479 0
-6106 -7198 0
-6106 -7526 0
-7198 -7526 0
6106 7198 7526 0
-3235 -4252 0
-3235 -7527 0
-4252 -7527 0
3235 4252 7527 0
-7213 -7528 0
-7213 -7529 0
-7528 -7529 0
7213 7528 7529 0
-4338 -4602 0
-4338 -6391 0
-4602 -6391 0
4338 4602 6391 0
-1434 -6404 0
-1434 -7530 0
-6404 -7530 0
1434 6404 7530 0
-4085 -5629 0
-4085 -7531 0
-5629 -7531 0
4085 5629 7531 0
-5696 -7106 0
-5696 -7532 0
-7106 -7532 0
5696 7106 7532 0
-151 -6116 0
-151 -6226 0
-6116 -6226 0
151 6116 6226 0
-62 -5789 0
-62 -5923 0
-5789 -5923 0
62 5789 5923 0
-1959 -3034 0
-1959 -4739 0
-3034 -4739 0
1959 3034 4739 0
-330 -3371 0
-330 -6562 0
-3371 -6562 0
330 3371 6562 0
-2807 -7083 0
-2807 -7337 0
-7083 -7337 0
2807 7083 7337 0
-4288 -4544 0
-4288 -6781 0
-4544 -6781 0
4288 4544 6781 0
-5880 -6220 0
-5880 -6557 0
-6220 -6557 0
5880 6220 6557 0
-5086 -5512 0
-5086 -7352 0
-5512 -7352 0
5086 5512 7352 0
-879 -4614 0
-879 -6955 0
-4614 -6955 0
879 4614 6955 0
-1662 -7097 0
-1662 -7192 0
-7097 -7192 0
1662 7097 7192 0
-6516 -7439 0
-6516 -7533 0
-7439 -7533 0
6516 7439 7533 0
-4324 -5504 0
-4324 -7534 0
-5504 -7534 0
4324 5504 7534 0
-5626 -5931 0
-5626 -7535 0
-5931 -7535 0
5626 5931 7535 0
-5194 -6408 0
-5194 -7536 0
-6408 -7536 0
5194 6408 7536 0
-1505 -5207 0
-1505 -6801 0
-5207 -6801 0
1505 5207 6801 0
-2180 -2701 0
-2180 -7238 0
-2701 -7238 0
2180 2701 7238 0
-4253 -6097 0
-4253 -7449 0
-6097 -7449 0
4253 6097 7449 0
-1378 -1451 0
-1378 -2854 0
-1451 -2854 0
1378 1451 2854 0
-3000 -5567 0
-3000 -7129 0
-5567 -7129 0
3000 5567 7129 0
-5900 -6115 0
-5900 -6586 0
-6115 -6586 0
5900 6115 6586 0
-6844 -6979 0
-6844 -7512 0
-6979 -7512 0
6844 6979 7512 0
-3748 -6231 0
-3748 -7537 0
-6231 -7537 0
3748 6231 7537 0
-5117 -5185 0
-5117 -7538 0
-5185 -7538 0
5117 5185 7538 0
-5681 -6141 0
-5681 -7484 0
-6141 -7484 0
5681 6141 7484 0
-3029 -5544 0
-3029 -7170 0
-5544 -7170 0
3029 5544 7170 0
-805 -4505 0
-805 -7539 0
-4505 -7539 0
805 4505 7539 0
-2974 -3273 0
-2974 -6933 0
-3273 -6933 0
2974 3273 6933 0
-984 -7126 0
-984 -7540 0
-7126 -7540 0
984 7126 7540 0
-1506 -1721 0
-1506 -7541 0
-1721 -7541 0
1506 1721 7541 0
-4908 -6530 0
-4908 -7303 0
-6530 -7303 0
4908 6530 7303 0
-7063 -7325 0
-7063 -7542 0
-7325 -7542 0
7063 7325 7542 0
-4149 -6332 0
-4149 -7543 0
-6332 -7543 0
4149 6332 7543 0
-1135 -6486 0
-1135 -7544 0
-6486 -7544 0
1135 6486 7544 0
-2045 -6294 0
-2045 -7497 0
-6294 -7497 0
2045 6294 7497 0
-1442 -3327 0
-1442 -7545 0
-3327 -7545 0
1442 3327 7545 0
-3842 -6388 0
-3842 -7412 0
-6388 -7412 0
3842 6388 7412 0
-5877 -5927 0
-5877 -7281 0
-5927 -7281 0
5877 5927 7281 0
-1384 -4662 0
-1384 -7292 0
-4662 -7292 0
1384 4662 7292 0
-516 -1263 0
-516 -2421 0
-1263 -2421 0
516 1263 2421 0
-223 -1602 0
-223 -6830 0
-1602 -6830 0
223 1602 6830 0
-316 -6347 0
-316 -7317 0
-6347 -7317 0
316 6347 7317 0
-4789 -6144 0
-4789 -6520 0
-6144 -6520 0
4789 6144 6520 0
-5907 -6195 0
-5907 -7546 0
-6195 -7546 0
5907 6195 7546 0
-1932 -5118 0
-1932 -7547 0
-5118 -7547 0
1932 5118 7547 0
-5374 -5954 0
-5374 -7548 0
-5954 -7548 0
5374 5954 7548 0
-1814 -4130 0
-1814 -6498 0
-4130 -6498 0
1814 4130 6498 0
-1381 -6372 0
-1381 -6434 0
-6372 -6434 0
1381 6372 6434 0
-1086 -6977 0
-1086 -7354 0
-6977 -7354 0
1086 6977 7354 0
-6188 -6329 0
-6188 -7496 0
-6329 -7496 0
6188 6329 7496 0
-578 -6284 0
-578 -7239 0
-6284 -7239 0
578 6284 7239 0
-2955 -6814 0
-2955 -6898 0
-6814 -6898 0
2955 6814 6898 0
-1949 -4950 0
-1949 -5106 0
-4950 -5106 0
1949 4950 5106 0
-1860 -7409 0
-1860 -7549 0
-7409 -7549 0
1860 7409 7549 0
-5098 -7255 0
-5098 -7429 0
-7255 -7429 0
5098 7255 7429 0
-6423 -6923 0
-6423 -7550 0
-6923 -7550 0
6423 6923 7550 0
-4383 -5825 0
-4383 -7177 0
-5825 -7177 0
4383 5825 7177 0
-448 -3062 0
-448 -5974 0
-3062 -5974 0
448 3062 5974 0
-107 -4814 0
-107 -6142 0
-4814 -6142 0
107 4814 6142 0
-945 -2871 0
-945 -6989 0
-2871 -6989 0
945 2871 6989 0
-2995 -5348 0
-2995 -5903 0
-5348 -5903 0
2995 5348 5903 0
-3048 -7144 0
-3048 -7503 0
-7144 -7503 0
3048 7144 7503 0
-152 -3754 0
-152 -4083 0
-3754 -4083 0
152 3754 4083 0
-4579 -6599 0
-4579 -7551 0
-6599 -7551 0
4579 6599 7551 0
-1006 -2948 0
-1006 -6850 0
-2948 -6850 0
1006 2948 6850 0
-2256 -6417 0
-2256 -7236 0
-6417 -7236 0
2256 6417 7236 0
-2887 -6349 0
-2887 -6363 0
-6349 -6363 0
2887 6349 6363 0
-49 -6816 0
-49 -7110 0
-6816 -7110 0
49 6816 7110 0
-6998 -7552 0
-6998 -7553 0
-7552 -7553 0
6998 7552 7553 0
-4308 -5613 0
-4308 -7018 0
-5613 -7018 0
4308 5613 7018 0
-611 -7472 0
-611 -7554 0
-7472 -7554 0
611 7472 7554 0
-1827 -2398 0
-1827 -7555 0
-2398 -7555 0
1827 2398 7555 0
-5239 -5699 0
-5239 -7556 0
-5699 -7556 0
5239 5699 7556 0
-4322 -6166 0
-4322 -6886 0
-6166 -6886 0
4322 6166 6886 0
-1010 -1369 0
-1010 -3891 0
-1369 -3891 0
1010 1369 3891 0
-1241 -7296 0
-1241 -7557 0
-7296 -7557 0
1241 7296 7557 0
-301 -3370 0
-301 -7491 0
-3370 -7491 0
301 3370 7491 0
-1199 -5350 0
-1199 -6942 0
-5350 -6942 0
1199 5350 6942 0
-1109 -2340 0
-1109 -5659 0
-2340 -5659 0
1109 2340 5659 0
-2002 -5987 0
-2002 -7136 0
-5987 -7136 0
2002 5987 7136 0
-785 -1348 0
-785 -6879 0
-1348 -6879 0
785 1348 6879 0
-2244 -6936 0
-2244 -7510 0
-6936 -7510 0
2244 6936 7510 0
-2578 -6506 0
-2578 -7266 0
-6506 -7266 0
2578 6506 7266 0
-216 -2352 0
-216 -7558 0
-2352 -7558 0
216 2352 7558 0
-3942 -4828 0
-3942 -6956 0
-4828 -6956 0
3942 4828 6956 0
-4011 -5610 0
-4011 -7493 0
-5610 -7493 0
4011 5610 7493 0
-3219 -6350 0
-3219 -7559 0
-6350 -7559 0
3219 6350 7559 0
-4638 -4736 0
-4638 -7541 0
-4736 -7541 0
4638 4736 7541 0
-821 -4054 0
-821 -6000 0
-4054 -6000 0
821 4054 6000 0
-4735 -5642 0
-4735 -5756 0
-5642 -5756 0
4735 5642 5756 0
-3193 -7207 0
-3193 -7560 0
-7207 -7560 0
3193 7207 7560 0
-3013 -7421 0
-3013 -7487 0
-7421 -7487 0
3013 7421 7487 0
-3580 -6290 0
-3580 -6835 0
-6290 -6835 0
3580 6290 6835 0
-217 -7116 0
-217 -7402 0
-7116 -7402 0
217 7116 7402 0
-3684 -5636 0
-3684 -7561 0
-5636 -7561 0
3684 5636 7561 0
-4982 -5409 0
-4982 -7127 0
-5409 -7127 0
4982 5409 7127 0
-3833 -4122 0
-3833 -7265 0
-4122 -7265 0
3833 4122 7265 0
-537 -2897 0
-537 -5745 0
-2897 -5745 0
537 2897 5745 0
-3943 -6333 0
-3943 -6619 0
-6333 -6619 0
3943 6333 6619 0
-1443 -6255 0
-1443 -7562 0
-6255 -7562 0
1443 6255 7562 0
-4549 -5768 0
-4549 -7368 0
-5768 -7368 0
4549 5768 7368 0
-2034 -6291 0
-2034 -7563 0
-6291 -7563 0
2034 6291 7563 0
-3972 -5264 0
-3972 -7276 0
-5264 -7276 0
3972 5264 7276 0
-1487 -2688 0
-1487 -3939 0
-2688 -3939 0
1487 2688 3939 0
-143 -2596 0
-143 -3565 0
-2596 -3565 0
143 2596 3565 0
-4166 -4460 0
-4166 -5438 0
-4460 -5438 0
4166 4460 5438 0
-1787 -6803 0
-1787 -7270 0
-6803 -7270 0
1787 6803 7270 0
-1517 -6826 0
-1517 -7227 0
-6826 -7227 0
1517 6826 7227 0
-1701 -5390 0
-1701 -7564 0
-5390 -7564 0
1701 5390 7564 0
-5895 -6499 0
-5895 -7565 0
-6499 -7565 0
5895 6499 7565 0
-2166 -2758 0
-2166 -5655 0
-2758 -5655 0
2166 2758 5655 0
-636 -4468 0
-636 -4562 0
-4468 -4562 0
636 4468 4562 0
-4228 -4400 0
-4228 -7353 0
-4400 -7353 0
4228 4400 7353 0
-5388 -7140 0
-5388 -7405 0
-7140 -7405 0
5388 7140 7405 0
-1893 -6466 0
-1893 -7210 0
-6466 -7210 0
1893 6466 7210 0
-3428 -4146 0
-3428 -7566 0
-4146 -7566 0
3428 4146 7566 0
-1178 -7433 0
-1178 -7567 0
-7433 -7567 0
1178 7433 7567 0
-2771 -7036 0
-2771 -7323 0
-7036 -7323 0
2771 7036 7323 0
-1254 -1611 0
-1254 -5812 0
-1611 -5812 0
1254 1611 5812 0
-1650 -2895 0
-1650 -7568 0
-2895 -7568 0
1650 2895 7568 0
-595 -3313 0
-595 -6852 0
-3313 -6852 0
595 3313 6852 0
-3400 -7204 0
-3400 -7569 0
-7204 -7569 0
3400 7204 7569 0
-1978 -4727 0
-1978 -7465 0
-4727 -7465 0
1978 4727 7465 0
-3821 -4930 0
-3821 -6451 0
-4930 -6451 0
3821 4930 6451 0
-4075 -4168 0
-4075 -5073 0
-4168 -5073 0
4075 4168 5073 0
-1463 -6882 0
-1463 -7540 0
-6882 -7540 0
1463 6882 7540 0
-1105 -2378 0
-1105 -4808 0
-2378 -4808 0
1105 2378 4808 0
-5240 -7420 0
-5240 -7570 0
-7420 -7570 0
5240 7420 7570 0
-5192 -7571 0
-5192 -7572 0
-7571 -7572 0
5192 7571 7572 0
-5427 -6817 0
-5427 -7573 0
-6817 -7573 0
5427 6817 7573 0
-4139 -5128 0
-4139 -6120 0
-5128 -6120 0
4139 5128 6120 0
-2605 -4884 0
-2605 -6748 0
-4884 -6748 0
2605 4884 6748 0
-6272 -6371 0
-6272 -6952 0
-6371 -6952 0
6272 6371 6952 0
-1520 -3287 0
-1520 -7211 0
-3287 -7211 0
1520 3287 7211 0
-3462 -6361 0
-3462 -7387 0
-6361 -7387 0
3462 6361 7387 0
-1815 -5682 0
-1815 -7574 0
-5682 -7574 0
1815 5682 7574 0
-2157 -5857 0
-2157 -7511 0
-5857 -7511 0
2157 5857 7511 0
-4328 -7016 0
-4328 -7040 0
-7016 -7040 0
4328 7016 7040 0
-2590 -7202 0
-2590 -7336 0
-7202 -7336 0
2590 7202 7336 0
-2673 -6874 0
-2673 -6991 0
-6874 -6991 0
2673 6874 6991 0
-855 -5616 0
-855 -6756 0
-5616 -6756 0
855 5616 6756 0
-6692 -7424 0
-6692 -7575 0
-7424 -7575 0
6692 7424 7575 0
-3570 -7282 0
-3570 -7576 0
-7282 -7576 0
3570 7282 7576 0
-6549 -6966 0
-6549 -7049 0
-6966 -7049 0
6549 6966 7049 0
-5143 -5741 0
-5143 -6572 0
-5741 -6572 0
5143 5741 6572 0
-3495 -6409 0
-3495 -6935 0
-6409 -6935 0
3495 6409 6935 0
-3339 -7152 0
-3339 -7206 0
-7152 -7206 0
3339 7152 7206 0
-2915 -4933 0
-2915 -7372 0
-4933 -7372 0
2915 4933 7372 0
-5863 -5930 0
-5863 -5932 0
-5930 -5932 0
5863 5930 5932 0
-6708 -7577 0
-6708 -7578 0
-7577 -7578 0
6708 7577 7578 0
-3197 -5198 0
-3197 -7034 0
-5198 -7034 0
3197 5198 7034 0
-193 -2817 0
-193 -7579 0
-2817 -7579 0
193 2817 7579 0
-3523 -7185 0
-3523 -7393 0
-7185 -7393 0
3523 7185 7393 0
-6360 -7147 0
-6360 -7580 0
-7147 -7580 0
6360 7147 7580 0
-4703 -7356 0
-4703 -7581 0
-7356 -7581 0
4703 7356 7581 0
-2389 -6918 0
-2389 -7582 0
-6918 -7582 0
2389 6918 7582 0
-6794 -7258 0
-6794 -7499 0
-7258 -7499 0
6794 7258 7499 0
-4546 -6790 0
-4546 -7074 0
-6790 -7074 0
4546 6790 7074 0
-6330 -7495 0
-6330 -7525 0
-7495 -7525 0
6330 7495 7525 0
-3270 -7073 0
-3270 -7550 0
-7073 -7550 0
3270 7073 7550 0
-2898 -4307 0
-2898 -7583 0
-4307 -7583 0
2898 4307 7583 0
-2719 -6565 0
-2719 -7294 0
-6565 -7294 0
2719 6565 7294 0
-5590 -7062 0
-5590 -7065 0
-7062 -7065 0
5590 7062 7065 0
-892 -5268 0
-892 -5513 0
-5268 -5513 0
892 5268 5513 0
-3811 -4669 0
-3811 -5472 0
-4669 -5472 0
3811 4669 5472 0
-2390 -6420 0
-2390 -7584 0
-6420 -7584 0
2390 6420 7584 0
-3525 -6536 0
-3525 -7585 0
-6536 -7585 0
3525 6536 7585 0
-3277 -4173 0
-3277 -4219 0
-4173 -4219 0
3277 4173 4219 0
-4775 -7586 0
-4775 -7587 0
-7586 -7587 0
4775 7586 7587 0
-5133 -7007 0
-5133 -7391 0
-7007 -7391 0
5133 7007 7391 0
-7224 -7386 0
-7224 -7559 0
-7386 -7559 0
7224 7386 7559 0
-7485 -7586 0
-7485 -7588 0
-7586 -7588 0
7485 7586 7588 0
-1411 -3995 0
-1411 -6804 0
-3995 -6804 0
1411 3995 6804 0
-2634 -5598 0
-2634 -7401 0
-5598 -7401 0
2634 5598 7401 0
-1417 -2071 0
-1417 -7504 0
-2071 -7504 0
1417 2071 7504 0
-3401 -5298 0
-3401 -7562 0
-5298 -7562 0
3401 5298 7562 0
-3314 -7383 0
-3314 -7446 0
-7383 -7446 0
3314 7383 7446 0
-6590 -6650 0
-6590 -7589 0
-6650 -7589 0
6590 6650 7589 0
-110 -6221 0
-110 -6861 0
-6221 -6861 0
110 6221 6861 0
-5170 -7590 0
-5170 -7591 0
-7590 -7591 0
5170 7590 7591 0
-4724 -5545 0
-4724 -6714 0
-5545 -6714 0
4724 5545 6714 0
-3198 -6454 0
-3198 -7334 0
-6454 -7334 0
3198 6454 7334 0
-3464 -4188 0
-3464 -6107 0
-4188 -6107 0
3464 4188 6107 0
-2226 -3682 0
-2226 -5250 0
-3682 -5250 0
2226 3682 5250 0
-5235 -7443 0
-5235 -7592 0
-7443 -7592 0
5235 7443 7592 0
-517 -1739 0
-517 -7593 0
-1739 -7593 0
517 1739 7593 0
-3194 -6649 0
-3194 -7594 0
-6649 -7594 0
3194 6649 7594 0
-1214 -1320 0
-1214 -3571 0
-1320 -3571 0
1214 1320 3571 0
-3923 -6421 0
-3923 -7595 0
-6421 -7595 0
3923 6421 7595 0
-5568 -6447 0
-5568 -6541 0
-6447 -6541 0
5568 6447 6541 0
-42 -6508 0
-42 -7596 0
-6508 -7596 0
42 6508 7596 0
-5816 -6999 0
-5816 -7051 0
-6999 -7051 0
5816 6999 7051 0
-393 -3262 0
-393 -7218 0
-3262 -7218 0
393 3262 7218 0
-708 -3629 0
-708 -7342 0
-3629 -7342 0
708 3629 7342 0
-4141 -6043 0
-4141 -7363 0
-6043 -7363 0
4141 6043 7363 0
-80 -3103 0
-80 -5425 0
-3103 -5425 0
80 3103 5425 0
-4197 -4972 0
-4197 -7597 0
-4972 -7597 0
4197 4972 7597 0
-4469 -7374 0
-4469 -7598 0
-7374 -7598 0
4469 7374 7598 0
-6446 -7263 0
-6446 -7423 0
-7263 -7423 0
6446 7263 7423 0
-645 -5306 0
-645 -6287 0
-5306 -6287 0
645 5306 6287 0
-2000 -4220 0
-2000 -5107 0
-4220 -5107 0
2000 4220 5107 0
-1126 -5190 0
-1126 -6986 0
-5190 -6986 0
1126 5190 6986 0
-2975 -5732 0
-2975 -7377 0
-5732 -7377 0
2975 5732 7377 0
-4060 -4585 0
-4060 -5833 0
-4585 -5833 0
4060 4585 5833 0
-5202 -6369 0
-5202 -7308 0
-6369 -7308 0
5202 6369 7308 0
-618 -4586 0
-618 -5961 0
-4586 -5961 0
618 4586 5961 0
-958 -3940 0
-958 -7070 0
-3940 -7070 0
958 3940 7070 0
-4155 -4859 0
-4155 -7573 0
-4859 -7573 0
4155 4859 7573 0
-2780 -3205 0
-2780 -7599 0
-3205 -7599 0
2780 3205 7599 0
-2076 -5218 0
-2076 -6382 0
-5218 -6382 0
2076 5218 6382 0
-183 -4506 0
-183 -5492 0
-4506 -5492 0
183 4506 5492 0
-1828 -3061 0
-1828 -4132 0
-3061 -4132 0
1828 3061 4132 0
-6299 -6475 0
-6299 -7600 0
-6475 -7600 0
6299 6475 7600 0
-4542 -6101 0
-4542 -7601 0
-6101 -7601 0
4542 6101 7601 0
-7416 -7602 0
-7416 -7603 0
-7602 -7603 0
7416 7602 7603 0
-3105 -4063 0
-3105 -7563 0
-4063 -7563 0
3105 4063 7563 0
-3867 -7155 0
-3867 -7604 0
-7155 -7604 0
3867 7155 7604 0
-1570 -7347 0
-1570 -7605 0
-7347 -7605 0
1570 7347 7605 0
-5391 -7251 0
-5391 -7606 0
-7251 -7606 0
5391 7251 7606 0
-7486 -7607 0
-7486 -7608 0
-7607 -7608 0
7486 7607 7608 0
-6204 -7609 0
-6204 -7610 0
-7609 -7610 0
6204 7609 7610 0
-572 -1120 0
-572 -1242 0
-1120 -1242 0
572 1120 1242 0
-5829 -6211 0
-5829 -7611 0
-6211 -7611 0
5829 6211 7611 0
-496 -1566 0
-496 -6462 0
-1566 -6462 0
496 1566 6462 0
-5965 -6205 0
-5965 -7506 0
-6205 -7506 0
5965 6205 7506 0
-3559 -3801 0
-3559 -7004 0
-3801 -7004 0
3559 3801 7004 0
-1237 -4189 0
-1237 -5433 0
-4189 -5433 0
1237 4189 5433 0
-755 -2333 0
-755 -3402 0
-2333 -3402 0
755 2333 3402 0
-1836 -4771 0
-1836 -7612 0
-4771 -7612 0
1836 4771 7612 0
-6493 -6634 0
-6493 -7399 0
-6634 -7399 0
6493 6634 7399 0
-4275 -5631 0
-4275 -5668 0
-5631 -5668 0
4275 5631 5668 0
-4382 -4824 0
-4382 -4969 0
-4824 -4969 0
4382 4824 4969 0
-2137 -6944 0
-2137 -7584 0
-6944 -7584 0
2137 6944 7584 0
-3480 -3996 0
-3480 -5640 0
-3996 -5640 0
3480 3996 5640 0
-2865 -6967 0
-2865 -7613 0
-6967 -7613 0
2865 6967 7613 0
-3077 -4627 0
-3077 -7534 0
-4627 -7534 0
3077 4627 7534 0
-6828 -7020 0
-6828 -7585 0
-7020 -7585 0
6828 7020 7585 0
-2749 -3802 0
-2749 -6698 0
-3802 -6698 0
2749 3802 6698 0
-1812 -2449 0
-1812 -3358 0
-2449 -3358 0
1812 2449 3358 0
-2566 -3282 0
-2566 -5448 0
-3282 -5448 0
2566 3282 5448 0
-2922 -3065 0
-2922 -6357 0
-3065 -6357 0
2922 3065 6357 0
-5477 -6862 0
-5477 -7614 0
-6862 -7614 0
5477 6862 7614 0
-4751 -5692 0
-4751 -6842 0
-5692 -6842 0
4751 5692 6842 0
-6440 -6865 0
-6440 -7594 0
-6865 -7594 0
6440 6865 7594 0
-720 -6158 0
-720 -7615 0
-6158 -7615 0
720 6158 7615 0
-4111 -4487 0
-4111 -7000 0
-4487 -7000 0
4111 4487 7000 0
-1956 -3768 0
-1956 -6693 0
-3768 -6693 0
1956 3768 6693 0
-1647 -2412 0
-1647 -6242 0
-2412 -6242 0
1647 2412 6242 0
-6117 -7117 0
-6117 -7616 0
-7117 -7616 0
6117 7117 7616 0
-1667 -7005 0
-1667 -7035 0
-7005 -7035 0
1667 7005 7035 0
-374 -4403 0
-374 -7617 0
-4403 -7617 0
374 4403 7617 0
-5779 -6943 0
-5779 -7024 0
-6943 -7024 0
5779 6943 7024 0
-6260 -7494 0
-6260 -7544 0
-7494 -7544 0
6260 7494 7544 0
-2517 -5407 0
-2517 -6925 0
-5407 -6925 0
2517 5407 6925 0
-4379 -5008 0
-4379 -6981 0
-5008 -6981 0
4379 5008 6981 0
-4654 -5233 0
-4654 -7618 0
-5233 -7618 0
4654 5233 7618 0
-837 -7199 0
-837 -7532 0
-7199 -7532 0
837 7199 7532 0
-6056 -7167 0
-6056 -7298 0
-7167 -7298 0
6056 7167 7298 0
-3308 -5870 0
-3308 -7619 0
-5870 -7619 0
3308 5870 7619 0
-131 -4765 0
-131 -6727 0
-4765 -6727 0
131 4765 6727 0
-2523 -7620 0
-2523 -7621 0
-7620 -7621 0
2523 7620 7621 0
-705 -1862 0
-705 -7418 0
-1862 -7418 0
705 1862 7418 0
-1757 -6304 0
-1757 -7193 0
-6304 -7193 0
1757 6304 7193 0
-950 -2082 0
-950 -5141 0
-2082 -5141 0
950 2082 5141 0
-1460 -6869 0
-1460 -6916 0
-6869 -6916 0
1460 6869 6916 0
-2925 -7622 0
-2925 -7623 0
-7622 -7623 0
2925 7622 7623 0
-1695 -6130 0
-1695 -6256 0
-6130 -6256 0
1695 6130 6256 0
-889 -6768 0
-889 -7053 0
-6768 -7053 0
889 6768 7053 0
-3701 -5529 0
-3701 -7624 0
-5529 -7624 0
3701 5529 7624 0
-1642 -4370 0
-1642 -5705 0
-4370 -5705 0
1642 4370 5705 0
-1187 -6877 0
-1187 -7625 0
-6877 -7625 0
1187 6877 7625 0
-1551 -2105 0
-1551 -7087 0
-2105 -7087 0
1551 2105 7087 0
-642 -4572 0
-642 -7307 0
-4572 -7307 0
642 4572 7307 0
-4679 -5489 0
-4679 -7552 0
-5489 -7552 0
4679 5489 7552 0
-2451 -5455 0
-2451 -6628 0
-5455 -6628 0
2451 5455 6628 0
-1675 -7590 0
-1675 -7626 0
-7590 -7626 0
1675 7590 7626 0
-6859 -7142 0
-6859 -7627 0
-7142 -7627 0
6859 7142 7627 0
-538 -1512 0
-538 -4575 0
-1512 -4575 0
538 1512 4575 0
-2139 -2220 0
-2139 -6206 0
-2220 -6206 0
2139 2220 6206 0
-4194 -4704 0
-4194 -6455 0
-4704 -6455 0
4194 4704 6455 0
-3843 -6573 0
-3843 -7628 0
-6573 -7628 0
3843 6573 7628 0
-4405 -6293 0
-4405 -7326 0
-6293 -7326 0
4405 6293 7326 0
-1334 -6276 0
-1334 -7625 0
-6276 -7625 0
1334 6276 7625 0
-4472 -5736 0
-4472 -7274 0
-5736 -7274 0
4472 5736 7274 0
-7286 -7447 0
-7286 -7629 0
-7447 -7629 0
7286 7447 7629 0
-103 -1323 0
-103 -4215 0
-1323 -4215 0
103 1323 4215 0
-1656 -2311 0
-1656 -4934 0
-2311 -4934 0
1656 2311 4934 0
-2520 -3393 0
-2520 -5012 0
-3393 -5012 0
2520 3393 5012 0
-64 -2728 0
-64 -7098 0
-2728 -7098 0
64 2728 7098 0
-3334 -4737 0
-3334 -7575 0
-4737 -7575 0
3334 4737 7575 0
-3390 -6838 0
-3390 -7191 0
-6838 -7191 0
3390 6838 7191 0
-1155 -6787 0
-1155 -7630 0
-6787 -7630 0
1155 6787 7630 0
-5747 -6426 0
-5747 -7290 0
-6426 -7290 0
5747 6426 7290 0
-98 -1051 0
-98 -7111 0
-1051 -7111 0
98 1051 7111 0
-619 -6751 0
-619 -7631 0
-6751 -7631 0
619 6751 7631 0
-1988 -3900 0
-1988 -7350 0
-3900 -7350 0
1988 3900 7350 0
-5819 -7025 0
-5819 -7546 0
-7025 -7546 0
5819 7025 7546 0
-83 -6343 0
-83 -7161 0
-6343 -7161 0
83 6343 7161 0
-1571 -6554 0
-1571 -7632 0
-6554 -7632 0
1571 6554 7632 0
-4742 -5722 0
-4742 -5896 0
-5722 -5896 0
4742 5722 5896 0
-4809 -7480 0
-4809 -7633 0
-7480 -7633 0
4809 7480 7633 0
-5178 -6848 0
-5178 -7327 0
-6848 -7327 0
5178 6848 7327 0
-1730 -3191 0
-1730 -6752 0
-3191 -6752 0
1730 3191 6752 0
-6001 -6534 0
-6001 -7425 0
-6534 -7425 0
6001 6534 7425 0
-5365 -7556 0
-5365 -7568 0
-7556 -7568 0
5365 7556 7568 0
-948 -2616 0
-948 -7272 0
-2616 -7272 0
948 2616 7272 0
-5452 -7078 0
-5452 -7634 0
-7078 -7634 0
5452 7078 7634 0
-2685 -6461 0
-2685 -7299 0
-6461 -7299 0
2685 6461 7299 0
-472 -6164 0
-472 -7456 0
-6164 -7456 0
472 6164 7456 0
-3744 -6656 0
-3744 -7600 0
-6656 -7600 0
3744 6656 7600 0
-4187 -4702 0
-4187 -5885 0
-4702 -5885 0
4187 4702 5885 0
-4996 -6623 0
-4996 -7635 0
-6623 -7635 0
4996 6623 7635 0
-499 -653 0
-499 -7636 0
-653 -7636 0
499 653 7636 0
-375 -4547 0
-375 -4740 0
-4547 -4740 0
375 4547 4740 0
-4000 -4119 0
-4000 -6798 0
-4119 -6798 0
4000 4119 6798 0
-5324 -7406 0
-5324 -7615 0
-7406 -7615 0
5324 7406 7615 0
-4435 -4904 0
-4435 -6427 0
-4904 -6427 0
4435 4904 6427 0
-3430 -3903 0
-3430 -7637 0
-3903 -7637 0
3430 3903 7637 0
-5191 -6580 0
-5191 -7369 0
-6580 -7369 0
5191 6580 7369 0
-5656 -6264 0
-5656 -6819 0
-6264 -6819 0
5656 6264 6819 0
-1722 -5748 0
-1722 -6389 0
-5748 -6389 0
1722 5748 6389 0
-838 -4606 0
-838 -7638 0
-4606 -7638 0
838 4606 7638 0
-4646 -6288 0
-4646 -6321 0
-6288 -6321 0
4646 6288 6321 0
-3975 -7311 0
-3975 -7579 0
-7311 -7579 0
3975 7311 7579 0
-5336 -6872 0
-5336 -7408 0
-6872 -7408 0
5336 6872 7408 0
-4905 -5290 0
-4905 -7470 0
-5290 -7470 0
4905 5290 7470 0
-3539 -4208 0
-3539 -5507 0
-4208 -5507 0
3539 4208 5507 0
-7530 -7637 0
-7530 -7639 0
-7637 -7639 0
7530 7637 7639 0
-5602 -7332 0
-5602 -7622 0
-7332 -7622 0
5602 7332 7622 0
-5689 -5843 0
-5689 -7492 0
-5843 -7492 0
5689 5843 7492 0
-2321 -7640 0
-2321 -7641 0
-7640 -7641 0
2321 7640 7641 0
-3453 -5614 0
-3453 -6605 0
-5614 -6605 0
3453 5614 6605 0
-1790 -5753 0
-1790 -7642 0
-5753 -7642 0
1790 5753 7642 0
-1967 -4349 0
-1967 -7188 0
-4349 -7188 0
1967 4349 7188 0
-457 -2538 0
-457 -3425 0
-2538 -3425 0
457 2538 3425 0
-1452 -3040 0
-1452 -4642 0
-3040 -4642 0
1452 3040 4642 0
-6162 -6771 0
-6162 -7643 0
-6771 -7643 0
6162 6771 7643 0
-741 -6542 0
-741 -7410 0
-6542 -7410 0
741 6542 7410 0
-1819 -3763 0
-1819 -7232 0
-3763 -7232 0
1819 3763 7232 0
-543 -5678 0
-543 -7644 0
-5678 -7644 0
543 5678 7644 0
-2626 -4550 0
-2626 -4563 0
-4550 -4563 0
2626 4550 4563 0
-6334 -6543 0
-6334 -6744 0
-6543 -6744 0
6334 6543 6744 0
-1795 -4612 0
-1795 -7216 0
-4612 -7216 0
1795 4612 7216 0
-1592 -5296 0
-1592 -6749 0
-5296 -6749 0
1592 5296 6749 0
-5554 -5733 0
-5554 -5845 0
-5733 -5845 0
5554 5733 5845 0
-1181 -3712 0
-1181 -7187 0
-3712 -7187 0
1181 3712 7187 0
-6904 -7139 0
-6904 -7645 0
-7139 -7645 0
6904 7139 7645 0
-4951 -5493 0
-4951 -6883 0
-5493 -6883 0
4951 5493 6883 0
-4804 -6441 0
-4804 -7103 0
-6441 -7103 0
4804 6441 7103 0
-2234 -6034 0
-2234 -6707 0
-6034 -6707 0
2234 6034 6707 0
-1425 -7271 0
-1425 -7537 0
-7271 -7537 0
1425 7271 7537 0
-2158 -4013 0
-2158 -7315 0
-4013 -7315 0
2158 4013 7315 0
-2657 -5499 0
-2657 -5582 0
-5499 -5582 0
2657 5499 5582 0
-4422 -5075 0
-4422 -7515 0
-5075 -7515 0
4422 5075 7515 0
-647 -6780 0
-647 -7602 0
-6780 -7602 0
647 6780 7602 0
-2379 -5967 0
-2379 -6279 0
-5967 -6279 0
2379 5967 6279 0
-693 -5808 0
-693 -7646 0
-5808 -7646 0
693 5808 7646 0
-3274 -5865 0
-3274 -7469 0
-5865 -7469 0
3274 5865 7469 0
-3292 -4331 0
-3292 -5707 0
-4331 -5707 0
3292 4331 5707 0
-6179 -7647 0
-6179 -7648 0
-7647 -7648 0
6179 7647 7648 0
-292 -6558 0
-292 -7649 0
-6558 -7649 0
292 6558 7649 0
-2690 -4344 0
-2690 -7560 0
-4344 -7560 0
2690 4344 7560 0
-1100 -4697 0
-1100 -6875 0
-4697 -6875 0
1100 4697 6875 0
-304 -7359 0
-304 -7394 0
-7359 -7394 0
304 7359 7394 0
-5943 -6937 0
-5943 -7607 0
-6937 -7607 0
5943 6937 7607 0
-1816 -3112 0
-1816 -5792 0
-3112 -5792 0
1816 3112 5792 0
-1909 -3127 0
-1909 -7174 0
-3127 -7174 0
1909 3127 7174 0
-1130 -5079 0
-1130 -7650 0
-5079 -7650 0
1130 5079 7650 0
-283 -2944 0
-283 -7248 0
-2944 -7248 0
283 2944 7248 0
-2611 -4793 0
-2611 -7592 0
-4793 -7592 0
2611 4793 7592 0
-1621 -4006 0
-1621 -6127 0
-4006 -6127 0
1621 4006 6127 0
-3663 -6657 0
-3663 -6968 0
-6657 -6968 0
3663 6657 6968 0
-4717 -6012 0
-4717 -7565 0
-6012 -7565 0
4717 6012 7565 0
-2030 -5982 0
-2030 -6008 0
-5982 -6008 0
2030 5982 6008 0
-3456 -5435 0
-3456 -7516 0
-5435 -7516 0
3456 5435 7516 0
-5394 -7313 0
-5394 -7620 0
-7313 -7620 0
5394 7313 7620 0
-5197 -7145 0
-5197 -7649 0
-7145 -7649 0
5197 7145 7649 0
-1905 -4725 0
-1905 -6305 0
-4725 -6305 0
1905 4725 6305 0
-4136 -4327 0
-4136 -7331 0
-4327 -7331 0
4136 4327 7331 0
-12 -5378 0
-12 -6192 0
-5378 -6192 0
12 5378 6192 0
-3134 -3562 0
-3134 -4835 0
-3562 -4835 0
3134 3562 4835 0
-3431 -3649 0
-3431 -5385 0
-3649 -5385 0
3431 3649 5385 0
-5090 -6135 0
-5090 -7398 0
-6135 -7398 0
5090 6135 7398 0
-7259 -7312 0
-7259 -7543 0
-7312 -7543 0
7259 7312 7543 0
-2181 -3545 0
-2181 -7441 0
-3545 -7441 0
2181 3545 7441 0
-4001 -7013 0
-4001 -7526 0
-7013 -7526 0
4001 7013 7526 0
-2173 -6471 0
-2173 -7651 0
-6471 -7651 0
2173 6471 7651 0
-3399 -6234 0
-3399 -7523 0
-6234 -7523 0
3399 6234 7523 0
-953 -3997 0
-953 -7273 0
-3997 -7273 0
953 3997 7273 0
-2547 -5575 0
-2547 -7571 0
-5575 -7571 0
2547 5575 7571 0
-3014 -7431 0
-3014 -7450 0
-7431 -7450 0
3014 7431 7450 0
-2027 -4034 0
-2027 -7360 0
-4034 -7360 0
2027 4034 7360 0
-1986 -4289 0
-1986 -6474 0
-4289 -6474 0
1986 4289 6474 0
-3527 -4500 0
-3527 -6442 0
-4500 -6442 0
3527 4500 6442 0
-3035 -3806 0
-3035 -6739 0
-3806 -6739 0
3035 3806 6739 0
-2850 -3135 0
-2850 -5793 0
-3135 -5793 0
2850 3135 5793 0
-384 -6987 0
-384 -7434 0
-6987 -7434 0
384 6987 7434 0
-1716 -2544 0
-1716 -5746 0
-2544 -5746 0
1716 2544 5746 0
-5525 -5763 0
-5525 -7448 0
-5763 -7448 0
5525 5763 7448 0
-539 -1478 0
-539 -2592 0
-1478 -2592 0
539 1478 2592 0
-2195 -5563 0
-2195 -7561 0
-5563 -7561 0
2195 5563 7561 0
-1205 -4821 0
-1205 -7645 0
-4821 -7645 0
1205 4821 7645 0
-1539 -7031 0
-1539 -7651 0
-7031 -7651 0
1539 7031 7651 0
-4384 -6482 0
-4384 -7652 0
-6482 -7652 0
4384 6482 7652 0
-6945 -7076 0
-6945 -7653 0
-7076 -7653 0
6945 7076 7653 0
-3719 -6982 0
-3719 -7654 0
-6982 -7654 0
3719 6982 7654 0
-4361 -6351 0
-4361 -7570 0
-6351 -7570 0
4361 6351 7570 0
-4041 -6631 0
-4041 -6651 0
-6631 -6651 0
4041 6631 6651 0
-1015 -7128 0
-1015 -7539 0
-7128 -7539 0
1015 7128 7539 0
-4096 -5125 0
-4096 -7384 0
-5125 -7384 0
4096 5125 7384 0
-2740 -5754 0
-2740 -7473 0
-5754 -7473 0
2740 5754 7473 0
-6737 -6995 0
-6737 -7580 0
-6995 -7580 0
6737 6995 7580 0
-2058 -2483 0
-2058 -7396 0
-2483 -7396 0
2058 2483 7396 0
-1623 -5951 0
-1623 -6529 0
-5951 -6529 0
1623 5951 6529 0
-3082 -4368 0
-3082 -6855 0
-4368 -6855 0
3082 4368 6855 0
-3017 -3911 0
-3017 -6145 0
-3911 -6145 0
3017 3911 6145 0
-6873 -7137 0
-6873 -7464 0
-7137 -7464 0
6873 7137 7464 0
-2671 -7627 0
-2671 -7655 0
-7627 -7655 0
2671 7627 7655 0
-6946 -7567 0
-6946 -7656 0
-7567 -7656 0
6946 7567 7656 0
-140 -1396 0
-140 -2293 0
-1396 -2293 0
140 1396 2293 0
-6503 -7380 0
-6503 -7428 0
-7380 -7428 0
6503 7380 7428 0
-122 -2774 0
-122 -3204 0
-2774 -3204 0
122 2774 3204 0
-3306 -4911 0
-3306 -7653 0
-4911 -7653 0
3306 4911 7653 0
-5450 -5486 0
-5450 -7108 0
-5486 -7108 0
5450 5486 7108 0
-4698 -5758 0
-4698 -7328 0
-5758 -7328 0
4698 5758 7328 0
-5482 -7379 0
-5482 -7536 0
-7379 -7536 0
5482 7379 7536 0
-3328 -3353 0
-3328 -4462 0
-3353 -4462 0
3328 3353 4462 0
-4488 -6103 0
-4488 -7587 0
-6103 -7587 0
4488 6103 7587 0
-1624 -5314 0
-1624 -7642 0
-5314 -7642 0
1624 5314 7642 0
-5126 -7547 0
-5126 -7657 0
-7547 -7657 0
5126 7547 7657 0
-4430 -4939 0
-4430 -5366 0
-4939 -5366 0
4430 4939 5366 0
-4009 -5009 0
-4009 -7521 0
-5009 -7521 0
4009 5009 7521 0
-7012 -7435 0
-7012 -7551 0
-7435 -7551 0
7012 7435 7551 0
-32 -7254 0
-32 -7555 0
-7254 -7555 0
32 7254 7555 0
-3901 -7611 0
-3901 -7658 0
-7611 -7658 0
3901 7611 7658 0
-561 -1596 0
-561 -4372 0
-1596 -4372 0
561 1596 4372 0
-3041 -4196 0
-3041 -7659 0
-4196 -7659 0
3041 4196 7659 0
-3136 -3168 0
-3136 -7452 0
-3168 -7452 0
3136 3168 7452 0
-622 -1593 0
-622 -7498 0
-1593 -7498 0
622 1593 7498 0
-1062 -4423 0
-1062 -7647 0
-4423 -7647 0
1062 4423 7647 0
-1068 -4589 0
-1068 -5906 0
-4589 -5906 0
1068 4589 5906 0
-1535 -4954 0
-1535 -7655 0
-4954 -7655 0
1535 4954 7655 0
-5346 -7612 0
-5346 -7660 0
-7612 -7660 0
5346 7612 7660 0
-1405 -2360 0
-1405 -7518 0
-2360 -7518 0
1405 2360 7518 0
-4444 -7623 0
-4444 -7661 0
-7623 -7661 0
4444 7623 7661 0
-3056 -5924 0
-3056 -7197 0
-5924 -7197 0
3056 5924 7197 0
-50 -4104 0
-50 -5094 0
-4104 -5094 0
50 4104 5094 0
-3566 -5712 0
-3566 -6917 0
-5712 -6917 0
3566 5712 6917 0
-7037 -7462 0
-7037 -7569 0
-7462 -7569 0
7037 7462 7569 0
-2614 -3337 0
-2614 -7582 0
-3337 -7582 0
2614 3337 7582 0
-3410 -7662 0
-3410 -7663 0
-7662 -7663 0
3410 7662 7663 0
-4744 -6379 0
-4744 -7652 0
-6379 -7652 0
4744 6379 7652 0
-3981 -4979 0
-3981 -7558 0
-4979 -7558 0
3981 4979 7558 0
-2313 -2678 0
-2313 -7549 0
-2678 -7549 0
2313 2678 7549 0
-5646 -5749 0
-5646 -5841 0
-5749 -5841 0
5646 5749 5841 0
-2069 -7528 0
-2069 -7664 0
-7528 -7664 0
2069 7528 7664 0
-337 -4527 0
-337 -7665 0
-4527 -7665 0
337 4527 7665 0
-6316 -6805 0
-6316 -7230 0
-6805 -7230 0
6316 6805 7230 0
-4089 -5842 0
-4089 -7666 0
-5842 -7666 0
4089 5842 7666 0
-1599 -6518 0
-1599 -6782 0
-6518 -6782 0
1599 6518 6782 0
-1639 -4451 0
-1639 -5220 0
-4451 -5220 0
1639 4451 5220 0
-3325 -3689 0
-3325 -6750 0
-3689 -6750 0
3325 3689 6750 0
-214 -3347 0
-214 -5962 0
-3347 -5962 0
214 3347 5962 0
-4608 -7361 0
-4608 -7638 0
-7361 -7638 0
4608 7361 7638 0
-6320 -6608 0
-6320 -7463 0
-6608 -7463 0
6320 6608 7463 0
-1364 -3465 0
-1364 -3690 0
-3465 -3690 0
1364 3465 3690 0
-5403 -7220 0
-5403 -7524 0
-7220 -7524 0
5403 7220 7524 0
-2923 -4420 0
-2923 -7667 0
-4420 -7667 0
2923 4420 7667 0
-614 -6060 0
-614 -6962 0
-6060 -6962 0
614 6060 6962 0
-2606 -6669 0
-2606 -7656 0
-6669 -7656 0
2606 6669 7656 0
-1796 -4599 0
-1796 -6769 0
-4599 -6769 0
1796 4599 6769 0
-6155 -6567 0
-6155 -7455 0
-6567 -7455 0
6155 6567 7455 0
-2768 -6659 0
-2768 -7234 0
-6659 -7234 0
2768 6659 7234 0
-3437 -7022 0
-3437 -7460 0
-7022 -7460 0
3437 7022 7460 0
-442 -5332 0
-442 -6510 0
-5332 -6510 0
442 5332 6510 0
-2294 -3791 0
-2294 -7006 0
-3791 -7006 0
2294 3791 7006 0
-1536 -4752 0
-1536 -6544 0
-4752 -6544 0
1536 4752 6544 0
-3123 -3547 0
-3123 -7606 0
-3547 -7606 0
3123 3547 7606 0
-6635 -6980 0
-6635 -7502 0
-6980 -7502 0
6635 6980 7502 0
-2868 -4878 0
-2868 -7150 0
-4878 -7150 0
2868 4878 7150 0
-137 -2160 0
-137 -7599 0
-2160 -7599 0
137 2160 7599 0
-4781 -5015 0
-4781 -6685 0
-5015 -6685 0
4781 5015 6685 0
-6978 -7430 0
-6978 -7650 0
-7430 -7650 0
6978 7430 7650 0
-3049 -5587 0
-3049 -7080 0
-5587 -7080 0
3049 5587 7080 0
-758 -2024 0
-758 -6456 0
-2024 -6456 0
758 2024 6456 0
-3288 -7067 0
-3288 -7267 0
-7067 -7267 0
3288 7067 7267 0
-6947 -7190 0
-6947 -7548 0
-7190 -7548 0
6947 7190 7548 0
-4052 -7264 0
-4052 -7668 0
-7264 -7668 0
4052 7264 7668 0
-3032 -3085 0
-3032 -3698 0
-3085 -3698 0
3032 3085 3698 0
-3436 -5830 0
-3436 -6930 0
-5830 -6930 0
3436 5830 6930 0
-6069 -7613 0
-6069 -7669 0
-7613 -7669 0
6069 7613 7669 0
-1136 -7046 0
-1136 -7633 0
-7046 -7633 0
1136 7046 7633 0
-1569 -3977 0
-1569 -4812 0
-3977 -4812 0
1569 3977 4812 0
-532 -2042 0
-532 -5995 0
-2042 -5995 0
532 2042 5995 0
-2327 -4314 0
-2327 -7609 0
-4314 -7609 0
2327 4314 7609 0
-449 -7520 0
-449 -7538 0
-7520 -7538 0
449 7520 7538 0
-993 -7283 0
-993 -7670 0
-7283 -7670 0
993 7283 7670 0
-1117 -7112 0
-1117 -7457 0
-7112 -7457 0
1117 7112 7457 0
-86 -1401 0
-86 -7436 0
-1401 -7436 0
86 1401 7436 0
-1698 -4523 0
-1698 -5108 0
-4523 -5108 0
1698 4523 5108 0
-3391 -6734 0
-3391 -7624 0
-6734 -7624 0
3391 6734 7624 0
-569 -4498 0
-569 -5920 0
-4498 -5920 0
569 4498 5920 0
-65 -6265 0
-65 -7071 0
-6265 -7071 0
65 6265 7071 0
-2134 -5415 0
-2134 -6646 0
-5415 -6646 0
2134 5415 6646 0
-4113 -7500 0
-4113 -7671 0
-7500 -7671 0
4113 7500 7671 0
-2730 -5055 0
-2730 -7102 0
-5055 -7102 0
2730 5055 7102 0
-2204 -5180 0
-2204 -7143 0
-5180 -7143 0
2204 5180 7143 0
-4465 -7151 0
-4465 -7365 0
-7151 -7365 0
4465 7151 7365 0
-318 -3643 0
-318 -7654 0
-3643 -7654 0
318 3643 7654 0
-100 -7531 0
-100 -7666 0
-7531 -7666 0
100 7531 7666 0
-3009 -4580 0
-3009 -7527 0
-4580 -7527 0
3009 4580 7527 0
-5700 -5888 0
-5700 -7672 0
-5888 -7672 0
5700 5888 7672 0
-5787 -6112 0
-5787 -7010 0
-6112 -7010 0
5787 6112 7010 0
-5599 -6237 0
-5599 -6639 0
-6237 -6639 0
5599 6237 6639 0
-5817 -6741 0
-5817 -7223 0
-6741 -7223 0
5817 6741 7223 0
-4097 -5389 0
-4097 -7042 0
-5389 -7042 0
4097 5389 7042 0
-2617 -2905 0
-2617 -4027 0
-2905 -4027 0
2617 2905 4027 0
-678 -2113 0
-678 -7333 0
-2113 -7333 0
678 2113 7333 0
-2349 -4485 0
-2349 -4528 0
-4485 -4528 0
2349 4485 4528 0
-5236 -6701 0
-5236 -7390 0
-6701 -7390 0
5236 6701 7390 0
-3651 -6006 0
-3651 -6436 0
-6006 -6436 0
3651 6006 6436 0
-2763 -6052 0
-2763 -7253 0
-6052 -7253 0
2763 6052 7253 0
-27 -7572 0
-27 -7644 0
-7572 -7644 0
27 7572 7644 0
-5977 -6897 0
-5977 -7101 0
-6897 -7101 0
5977 6897 7101 0
-396 -5936 0
-396 -7413 0
-5936 -7413 0
396 5936 7413 0
-3272 -6899 0
-3272 -7619 0
-6899 -7619 0
3272 6899 7619 0
-6161 -7591 0
-6161 -7616 0
-7591 -7616 0
6161 7591 7616 0
-4490 -5866 0
-4490 -7588 0
-5866 -7588 0
4490 5866 7588 0
-2428 -5776 0
-2428 -5809 0
-5776 -5809 0
2428 5776 5809 0
-1297 -6477 0
-1297 -7483 0
-6477 -7483 0
1297 6477 7483 0
-2055 -4984 0
-2055 -7477 0
-4984 -7477 0
2055 4984 7477 0
-280 -3500 0
-280 -4762 0
-3500 -4762 0
280 3500 4762 0
-3694 -6181 0
-3694 -6996 0
-6181 -6996 0
3694 6181 6996 0
-6983 -7545 0
-6983 -7668 0
-7545 -7668 0
6983 7545 7668 0
-684 -5363 0
-684 -5716 0
-5363 -5716 0
684 5363 5716 0
-6345 -7351 0
-6345 -7488 0
-7351 -7488 0
6345 7351 7488 0
-1957 -2751 0
-1957 -3173 0
-2751 -3173 0
1957 2751 3173 0
-4286 -7090 0
-4286 -7194 0
-7090 -7194 0
4286 7090 7194 0
-1813 -6938 0
-1813 -7581 0
-6938 -7581 0
1813 6938 7581 0
-4358 -6652 0
-4358 -7088 0
-6652 -7088 0
4358 6652 7088 0
-4448 -5533 0
-4448 -6324 0
-5533 -6324 0
4448 5533 6324 0
-2140 -7154 0
-2140 -7673 0
-7154 -7673 0
2140 7154 7673 0
-2882 -4058 0
-2882 -5381 0
-4058 -5381 0
2882 4058 5381 0
-1488 -6207 0
-1488 -6278 0
-6207 -6278 0
1488 6207 6278 0
-510 -6315 0
-510 -7577 0
-6315 -7577 0
510 6315 7577 0
-2593 -4997 0
-2593 -5751 0
-4997 -5751 0
2593 4997 5751 0
-5901 -7444 0
-5901 -7454 0
-7444 -7454 0
5901 7444 7454 0
-5686 -5790 0
-5686 -5941 0
-5790 -5941 0
5686 5790 5941 0
-5603 -5935 0
-5603 -7578 0
-5935 -7578 0
5603 5935 7578 0
-3658 -3691 0
-3658 -7458 0
-3691 -7458 0
3658 3691 7458 0
-2355 -4450 0
-2355 -5584 0
-4450 -5584 0
2355 4450 5584 0
-452 -3772 0
-452 -7673 0
-3772 -7673 0
452 3772 7673 0
-77 -4555 0
-77 -7674 0
-4555 -7674 0
77 4555 7674 0
-970 -7159 0
-970 -7576 0
-7159 -7576 0
970 7159 7576 0
-5339 -7278 0
-5339 -7583 0
-7278 -7583 0
5339 7278 7583 0
-3372 -4441 0
-3372 -6729 0
-4441 -6729 0
3372 4441 6729 0
-552 -6348 0
-552 -6920 0
-6348 -6920 0
552 6348 6920 0
-2247 -6312 0
-2247 -7403 0
-6312 -7403 0
2247 6312 7403 0
-2183 -5387 0
-2183 -5996 0
-5387 -5996 0
2183 5387 5996 0
-352 -1202 0
-352 -3119 0
-1202 -3119 0
352 1202 3119 0
-4535 -5479 0
-4535 -6934 0
-5479 -6934 0
4535 5479 6934 0
-1048 -4090 0
-1048 -6731 0
-4090 -6731 0
1048 4090 6731 0
-5260 -5466 0
-5260 -7215 0
-5466 -7215 0
5260 5466 7215 0
-1036 -5080 0
-1036 -7675 0
-5080 -7675 0
1036 5080 7675 0
-2302 -6664 0
-2302 -7395 0
-6664 -7395 0
2302 6664 7395 0
-5103 -6688 0
-5103 -7513 0
-6688 -7513 0
5103 6688 7513 0
-1235 -7221 0
-1235 -7676 0
-7221 -7676 0
1235 7221 7676 0
-787 -1004 0
-787 -6025 0
-1004 -6025 0
787 1004 6025 0
-4965 -5490 0
-4965 -6754 0
-5490 -6754 0
4965 5490 6754 0
-3320 -4966 0
-3320 -7381 0
-4966 -7381 0
3320 4966 7381 0
-2661 -2679 0
-2661 -7533 0
-2679 -7533 0
2661 2679 7533 0
-3955 -4020 0
-3955 -4868 0
-4020 -4868 0
3955 4020 4868 0
-540 -4160 0
-540 -5811 0
-4160 -5811 0
540 4160 5811 0
-3150 -4049 0
-3150 -4310 0
-4049 -4310 0
3150 4049 4310 0
-726 -3516 0
-726 -3871 0
-3516 -3871 0
726 3516 3871 0
-6615 -6758 0
-6615 -7664 0
-6758 -7664 0
6615 6758 7664 0
-5104 -5743 0
-5104 -7222 0
-5743 -7222 0
5104 5743 7222 0
-4375 -6353 0
-4375 -7618 0
-6353 -7618 0
4375 6353 7618 0
-5382 -7422 0
-5382 -7535 0
-7422 -7535 0
5382 7422 7535 0
-3365 -7156 0
-3365 -7310 0
-7156 -7310 0
3365 7156 7310 0
-3633 -7610 0
-3633 -7646 0
-7610 -7646 0
3633 7610 7646 0
-101 -1878 0
-101 -4923 0
-1878 -4923 0
101 1878 4923 0
-1446 -7507 0
-1446 -7672 0
-7507 -7672 0
1446 7507 7672 0
-840 -6691 0
-840 -7677 0
-6691 -7677 0
840 6691 7677 0
-4935 -6139 0
-4935 -6376 0
-6139 -6376 0
4935 6139 6376 0
-2505 -3415 0
-2505 -7375 0
-3415 -7375 0
2505 3415 7375 0
-2959 -3157 0
-2959 -5875 0
-3157 -5875 0
2959 3157 5875 0
-593 -1461 0
-593 -7614 0
-1461 -7614 0
593 1461 7614 0
-1587 -5667 0
-1587 -5938 0
-5667 -5938 0
1587 5667 5938 0
-295 -4847 0
-295 -6487 0
-4847 -6487 0
295 4847 6487 0
-250 -1659 0
-250 -4346 0
-1659 -4346 0
250 1659 4346 0
-2829 -7658 0
-2829 -7677 0
-7658 -7677 0
2829 7658 7677 0
-5436 -7132 0
-5436 -7514 0
-7132 -7514 0
5436 7132 7514 0
-5099 -5565 0
-5099 -7366 0
-5565 -7366 0
5099 5565 7366 0
-5480 -6392 0
-5480 -7635 0
-6392 -7635 0
5480 6392 7635 0
-4321 -6398 0
-4321 -7043 0
-6398 -7043 0
4321 6398 7043 0
-2291 -6105 0
-2291 -6331 0
-6105 -6331 0
2291 6105 6331 0
-3002 -3703 0
-3002 -6559 0
-3703 -6559 0
3002 3703 6559 0
-935 -6140 0
-935 -6802 0
-6140 -6802 0
935 6140 6802 0
-2347 -3630 0
-2347 -7621 0
-3630 -7621 0
2347 3630 7621 0
-1490 -1605 0
-1490 -2419 0
-1605 -2419 0
1490 1605 2419 0
-331 -4558 0
-331 -7678 0
-4558 -7678 0
331 4558 7678 0
-4290 -4914 0
-4290 -5562 0
-4914 -5562 0
4290 4914 5562 0
-3568 -5926 0
-3568 -7640 0
-5926 -7640 0
3568 5926 7640 0
-3373 -4463 0
-3373 -6662 0
-4463 -6662 0
3373 4463 6662 0
-455 -2676 0
-455 -7228 0
-2676 -7228 0
455 2676 7228 0
-7557 -7669 0
-7557 -7679 0
-7669 -7679 0
7557 7669 7679 0
-7437 -7598 0
-7437 -7617 0
-7598 -7617 0
7437 7598 7617 0
-2282 -3839 0
-2282 -5168 0
-3839 -5168 0
2282 3839 5168 0
-5171 -7566 0
-5171 -7593 0
-7566 -7593 0
5171 7566 7593 0
-5570 -6949 0
-5570 -7509 0
-6949 -7509 0
5570 6949 7509 0
-5297 -6240 0
-5297 -7339 0
-6240 -7339 0
5297 6240 7339 0
-1613 -5760 0
-1613 -7208 0
-5760 -7208 0
1613 5760 7208 0
-1683 -5946 0
-1683 -7639 0
-5946 -7639 0
1683 5946 7639 0
-1260 -5693 0
-1260 -6099 0
-5693 -6099 0
1260 5693 6099 0
-4067 -5694 0
-4067 -7184 0
-5694 -7184 0
4067 5694 7184 0
-3847 -4078 0
-3847 -4242 0
-4078 -4242 0
3847 4078 4242 0
-6502 -6546 0
-6502 -7385 0
-6546 -7385 0
6502 6546 7385 0
-2756 -6885 0
-2756 -7553 0
-6885 -7553 0
2756 6885 7553 0
-1837 -4756 0
-1837 -6267 0
-4756 -6267 0
1837 4756 6267 0
-3246 -5404 0
-3246 -5498 0
-5404 -5498 0
3246 5404 5498 0
-5904 -7388 0
-5904 -7517 0
-7388 -7517 0
5904 7388 7517 0
-4699 -5546 0
-4699 -6317 0
-5546 -6317 0
4699 5546 6317 0
-5361 -6470 0
-5361 -7595 0
-6470 -7595 0
5361 6470 7595 0
-4012 -6972 0
-4012 -7659 0
-6972 -7659 0
4012 6972 7659 0
-5003 -6467 0
-5003 -7628 0
-6467 -7628 0
5003 6467 7628 0
-3181 -6189 0
-3181 -7564 0
-6189 -7564 0
3181 6189 7564 0
-6136 -6786 0
-6136 -7226 0
-6786 -7226 0
6136 6786 7226 0
-7166 -7601 0
-7166 -7667 0
-7601 -7667 0
7166 7601 7667 0
-6193 -7415 0
-6193 -7678 0
-7415 -7678 0
6193 7415 7678 0
-5212 -5871 0
-5212 -7522 0
-5871 -7522 0
5212 5871 7522 0
-5912 -6864 0
-5912 -7094 0
-6864 -7094 0
5912 6864 7094 0
-184 -788 0
-184 -4076 0
-788 -4076 0
184 788 4076 0
-5162 -6449 0
-5162 -7680 0
-6449 -7680 0
5162 6449 7680 0
-104 -4356 0
-104 -6521 0
-4356 -6521 0
104 4356 6521 0
-3448 -5208 0
-3448 -7349 0
-5208 -7349 0
3448 5208 7349 0
-2946 -6672 0
-2946 -7676 0
-6672 -7676 0
2946 6672 7676 0
-1341 -3664 0
-1341 -6480 0
-3664 -6480 0
1341 3664 6480 0
-1499 -2458 0
-1499 -4244 0
-2458 -4244 0
1499 2458 4244 0
-2851 -3844 0
-2851 -7481 0
-3844 -7481 0
2851 3844 7481 0
-4556 -6125 0
-4556 -7249 0
-6125 -7249 0
4556 6125 7249 0
-1413 -2681 0
-1413 -7529 0
-2681 -7529 0
1413 2681 7529 0
-3342 -7474 0
-3342 -7674 0
-7474 -7674 0
3342 7474 7674 0
-1867 -7189 0
-1867 -7397 0
-7189 -7397 0
1867 7189 7397 0
-6065 -6632 0
-6065 -7442 0
-6632 -7442 0
6065 6632 7442 0
-2662 -4271 0
-2662 -4941 0
-4271 -4941 0
2662 4271 4941 0
-5773 -6587 0
-5773 -7634 0
-6587 -7634 0
5773 6587 7634 0
-511 -6717 0
-511 -6770 0
-6717 -6770 0
511 6717 6770 0
-2980 -7648 0
-2980 -7661 0
-7648 -7661 0
2980 7648 7661 0
-4128 -6310 0
-4128 -7219 0
-6310 -7219 0
4128 6310 7219 0
-6066 -6800 0
-6066 -7404 0
-6800 -7404 0
6066 6800 7404 0
-3317 -6812 0
-3317 -7574 0
-6812 -7574 0
3317 6812 7574 0
-887 -1894 0
-887 -2328 0
-1894 -2328 0
887 1894 2328 0
-7478 -7662 0
-7478 -7675 0
-7662 -7675 0
7478 7662 7675 0
-864 -2090 0
-864 -7626 0
-2090 -7626 0
864 2090 7626 0
-3022 -4454 0
-3022 -6232 0
-4454 -6232 0
3022 4454 6232 0
-286 -4745 0
-286 -5806 0
-4745 -5806 0
286 4745 5806 0
-3452 -4225 0
-3452 -6547 0
-4225 -6547 0
3452 4225 6547 0
-775 -2712 0
-775 -6328 0
-2712 -6328 0
775 2712 6328 0
-4303 -7245 0
-4303 -7608 0
-7245 -7608 0
4303 7245 7608 0
-319 -6022 0
-319 -7295 0
-6022 -7295 0
319 6022 7295 0
-6505 -7392 0
-6505 -7629 0
-7392 -7629 0
6505 7392 7629 0
-1774 -3030 0
-1774 -6941 0
-3030 -6941 0
1774 3030 6941 0
-3396 -5061 0
-3396 -7419 0
-5061 -7419 0
3396 5061 7419 0
-4663 -5663 0
-4663 -6704 0
-5663 -6704 0
4663 5663 6704 0
-5243 -6128 0
-5243 -7631 0
-6128 -7631 0
5243 6128 7631 0
-1799 -5770 0
-1799 -6483 0
-5770 -6483 0
1799 5770 6483 0
-363 -7632 0
-363 -7660 0
-7632 -7660 0
363 7632 7660 0
-1719 -4198 0
-1719 -6119 0
-4198 -6119 0
1719 4198 6119 0
-1710 -5592 0
-1710 -7432 0
-5592 -7432 0
1710 5592 7432 0
-873 -6453 0
-873 -6870 0
-6453 -6870 0
873 6453 6870 0
-2146 -7605 0
-2146 -7679 0
-7605 -7679 0
2146 7605 7679 0
-2759 -3640 0
-2759 -4176 0
-3640 -4176 0
2759 3640 4176 0
-4150 -5989 0
-4150 -7288 0
-5989 -7288 0
4150 5989 7288 0
-1007 -1016 0
-1007 -4722 0
-1016 -4722 0
1007 1016 4722 0
-841 -2746 0
-841 -6084 0
-2746 -6084 0
841 2746 6084 0
-5261 -6788 0
-5261 -7459 0
-6788 -7459 0
5261 6788 7459 0
-3528 -5971 0
-3528 -7157 0
-5971 -7157 0
3528 5971 7157 0
-714 -3110 0
-714 -4917 0
-3110 -4917 0
714 3110 4917 0
-806 -2176 0
-806 -4902 0
-2176 -4902 0
806 2176 4902 0
-6109 -6637 0
-6109 -7285 0
-6637 -7285 0
6109 6637 7285 0
-5784 -6403 0
-5784 -7641 0
-6403 -7641 0
5784 6403 7641 0
-596 -6110 0
-596 -7343 0
-6110 -7343 0
596 6110 7343 0
-2973 -5253 0
-2973 -6892 0
-5253 -6892 0
2973 5253 6892 0
-5429 -7597 0
-5429 -7680 0
-7597 -7680 0
5429 7597 7680 0
-2912 -2956 0
-2912 -7596 0
-2956 -7596 0
2912 2956 7596 0
-7501 -7665 0
-7501 -7670 0
-7665 -7670 0
7501 7665 7670 0
-1870 -2334 0
-1870 -4165 0
-2334 -4165 0
1870 2334 4165 0
-2118 -4660 0
-2118 -7603 0
-4660 -7603 0
2118 4660 7603 0
-4116 -6303 0
-4116 -7440 0
-6303 -7440 0
4116 6303 7440 0
-1106 -2324 0
-1106 -3908 0
-2324 -3908 0
1106 2324 3908 0
-2381 -7134 0
-2381 -7554 0
-7134 -7554 0
2381 7134 7554 0
-5959 -6490 0
-5959 -6570 0
-6490 -6570 0
5959 6490 6570 0
-1542 -2682 0
-1542 -6860 0
-2682 -6860 0
1542 2682 6860 0
-1152 -6212 0
-1152 -6533 0
-6212 -6533 0
1152 6212 6533 0
-1843 -6832 0
-1843 -7636 0
-6832 -7636 0
1843 6832 7636 0
-3206 -6100 0
-3206 -6556 0
-6100 -6556 0
3206 6100 6556 0
-800 -3732 0
-800 -6523 0
-3732 -6523 0
800 3732 6523 0
-2039 -3960 0
-2039 -5251 0
-3960 -5251 0
2039 3960 5251 0
-4515 -4936 0
-4515 -5605 0
-4936 -5605 0
4515 4936 5605 0
-2651 -5418 0
-2651 -6560 0
-5418 -6560 0
2651 5418 6560 0
-2363 -4791 0
-2363 -7200 0
-4791 -7200 0
2363 4791 7200 0
-2841 -3723 0
-2841 -6711 0
-3723 -6711 0
2841 3723 6711 0
-3184 -6040 0
-3184 -7120 0
-6040 -7120 0
3184 6040 7120 0
-3164 -6767 0
-3164 -6908 0
-6767 -6908 0
3164 6767 6908 0
-3124 -4866 0
-3124 -7542 0
-4866 -7542 0
3124 4866 7542 0
-2920 -5130 0
-2920 -6713 0
-5130 -6713 0
2920 5130 6713 0
-1724 -3129 0
-1724 -7466 0
-3129 -7466 0
1724 3129 7466 0
-3438 -3957 0
-3438 -7201 0
-3957 -7201 0
3438 3957 7201 0
-767 -1435 0
-767 -3492 0
-1435 -3492 0
767 1435 3492 0
-1838 -4785 0
-1838 -7426 0
-4785 -7426 0
1838 4785 7426 0
-1244 -5401 0
-1244 -6373 0
-5401 -6373 0
1244 5401 6373 0
-1996 -7217 0
-1996 -7519 0
-7217 -7519 0
1996 7217 7519 0
-1906 -4018 0
-1906 -6773 0
-4018 -6773 0
1906 4018 6773 0
-2155 -6338 0
-2155 -7146 0
-6338 -7146 0
2155 6338 7146 0
-1426 -7451 0
-1426 -7471 0
-7451 -7471 0
1426 7451 7471 0
-33 -5351 0
-33 -6911 0
-5351 -6911 0
33 5351 6911 0
-776 -4839 0
-776 -7589 0
-4839 -7589 0
776 4839 7589 0
-1984 -4178 0
-1984 -7663 0
-4178 -7663 0
1984 4178 7663 0
-575 -6747 0
-575 -7081 0
-6747 -7081 0
575 6747 7081 0
-1414 -5023 0
-1414 -7604 0
-5023 -7604 0
1414 5023 7604 0
-4262 -7335 0
-4262 -7671 0
-7335 -7671 0
4262 7335 7671 0
-2830 -3944 0
-2830 -4667 0
-3944 -4667 0
2830 3944 4667 0
-4351 -7275 0
-4351 -7293 0
-7275 -7293 0
4351 7275 7293 0
-4797 -7059 0
-4797 -7630 0
-7059 -7630 0
4797 7059 7630 0
-274 -2579 0
-274 -6031 0
-2579 -6031 0
274 2579 6031 0
-1431 -6280 0
-1431 -6552 0
-6280 -6552 0
1431 6280 6552 0
-1245 -4590 0
-1245 -7643 0
-4590 -7643 0
1245 4590 7643 0
-4786 -4845 0
-4786 -7657 0
-4845 -7657 0
4786 4845 7657 0
-5821 -6424 0
-5821 -7268 0
-6424 -7268 0
5821 6424 7268 0
-1852 -3439 0
-1852 -5577 0
-3439 -5577 0
1852 3439 5577 0
-661 -3027 0
-661 -4256 0
-3027 -4256 0
661 3027 4256 0
-803 -5519 0
-803 -6010 0
-5519 -6010 0
803 5519 6010 0
-179 -3207 0
-179 -6616 0
-3207 -6616 0
179 3207 6616 0
