c description: Perfect Matching Principle on random 3-regular graph on 40 verices
c generator: CNFgen (0.9.6)
c copyright: (C) 2012-2026 Massimo Lauria <massimo.lauria@uniroma1.it>
c url: https://massimolauria.net/cnfgen
c command line: cnfgen matching gnd 40 3
c
p cnf 60 160
-1 -2 0
-1 -3 0
-2 -3 0
1 2 3 0
-4 -5 0
-4 -6 0
-5 -6 0
4 5 6 0
-7 -8 0
-7 -9 0
-8 -9 0
7 8 9 0
-10 -11 0
-10 -12 0
-11 -12 0
10 11 12 0
-13 -14 0
-13 -15 0
-14 -15 0
13 14 15 0
-16 -17 0
-16 -18 0
-17 -18 0
16 17 18 0
-1 -19 0
-1 -20 0
-19 -20 0
1 19 20 0
-2 -21 0
-2 -22 0
-21 -22 0
2 21 22 0
-23 -24 0
-23 -25 0
-24 -25 0
23 24 25 0
-4 -26 0
-4 -27 0
-26 -27 0
4 26 27 0
-10 -28 0
-10 -29 0
-28 -29 0
10 28 29 0
-21 -23 0
-21 -30 0
-23 -30 0
21 23 30 0
-31 -32 0
-31 -33 0
-32 -33 0
31 32 33 0
-11 -34 0
-11 -35 0
-34 -35 0
11 34 35 0
-7 -36 0
-7 -37 0
-36 -37 0
7 36 37 0
-13 -16 0
-13 -38 0
-16 -38 0
13 16 38 0
-39 -40 0
-39 -41 0
-40 -41 0
39 40 41 0
-36 -42 0
-36 -43 0
-42 -43 0
36 42 43 0
-3 -17 0
-3 -44 0
-17 -44 0
3 17 44 0
-38 -42 0
-38 -45 0
-42 -45 0
38 42 45 0
-31 -46 0
-31 -47 0
-46 -47 0
31 46 47 0
-48 -49 0
-48 -50 0
-49 -50 0
48 49 50 0
-34 -51 0
-34 -52 0
-51 -52 0
34 51 52 0
-18 -26 0
-18 -53 0
-26 -53 0
18 26 53 0
-22 -32 0
-22 -54 0
-32 -54 0
22 32 54 0
-14 -54 0
-14 -55 0
-54 -55 0
14 54 55 0
-5 -44 0
-5 -55 0
-44 -55 0
5 44 55 0
-43 -56 0
-43 -57 0
-56 -57 0
43 56 57 0
-15 -28 0
-15 -46 0
-28 -46 0
15 28 46 0
-33 -48 0
-33 -58 0
-48 -58 0
33 48 58 0
-24 -35 0
-24 -47 0
-35 -47 0
24 35 47 0
-45 -56 0
-45 -59 0
-56 -59 0
45 56 59 0
-8 -37 0
-8 -39 0
-37 -39 0
8 37 39 0
-51 -53 0
-51 -60 0
-53 -60 0
51 53 60 0
-19 -29 0
-19 -30 0
-29 -30 0
19 29 30 0
-9 -27 0
-9 -49 0
-27 -49 0
9 27 49 0
-6 -12 0
-6 -57 0
-12 -57 0
6 12 57 0
-20 -40 0
-20 -58 0
-40 -58 0
20 40 58 0
-25 -41 0
-25 -59 0
-41 -59 0
25 41 59 0
-50 -52 0
-50 -60 0
-52 -60 0
50 52 60 0
