c description: Perfect Matching Principle on random 3-regular graph on 20 verices
c generator: CNFgen (0.9.6)
c copyright: (C) 2012-2026 Massimo Lauria <massimo.lauria@uniroma1.it>
c url: https://massimolauria.net/cnfgen
c command line: cnfgen matching gnd 20 3
c
p cnf 30 80
-1 -2 0
-1 -3 0
-2 -3 0
1 2 3 0
-1 -4 0
-1 -5 0
-4 -5 0
1 4 5 0
-6 -7 0
-6 -8 0
-7 -8 0
6 7 8 0
-9 -10 0
-9 -11 0
-10 -11 0
9 10 11 0
-12 -13 0
-12 -14 0
-13 -14 0
12 13 14 0
-2 -15 0
-2 -16 0
-15 -16 0
2 15 16 0
-12 -17 0
-12 -18 0
-17 -18 0
12 17 18 0
-19 -20 0
-19 -21 0
-20 -21 0
19 20 21 0
-9 -19 0
-9 -22 0
-19 -22 0
9 19 22 0
-17 -23 0
-17 -24 0
-23 -24 0
17 23 24 0
-20 -25 0
-20 -26 0
-25 -26 0
20 25 26 0
-10 -13 0
-10 -27 0
-13 -27 0
10 13 27 0
-6 -14 0
-6 -25 0
-14 -25 0
6 14 25 0
-11 -18 0
-11 -28 0
-18 -28 0
11 18 28 0
-4 -21 0
-4 -27 0
-21 -27 0
4 21 27 0
-23 -26 0
-23 -29 0
-26 -29 0
23 26 29 0
-15 -22 0
-15 -30 0
-22 -30 0
15 22 30 0
-3 -24 0
-3 -28 0
-24 -28 0
3 24 28 0
-5 -7 0
-5 -30 0
-7 -30 0
5 7 30 0
-8 -16 0
-8 -29 0
-16 -29 0
8 16 29 0
